																																																																	
"Scan Session:  ""Test Friday June 8 @ 2:30AM"""																																																																	
Start Time:  6/8/2018 12:44:37 AM																																																																	
																																																																	
Assignment:		G1T-1,2,3 on CH1,2,3	G1T-1,2,3 on CH1,2,3	G1T-1,2,3 on CH1,2,3	G1T-1,2,3 on CH1,2,3	G1T-1,2,3 on CH1,2,3	G1T-1,2,3 on CH1,2,3	G1T-1,2,3 on CH1,2,3	G1T-1,2,3 on CH1,2,3	G1T-1,2,3 on CH1,2,3	G1B-1,2,3 on CH4,5,6	G1B-1,2,3 on CH4,5,6	G1B-1,2,3 on CH4,5,6	G1B-1,2,3 on CH4,5,6	G1B-1,2,3 on CH4,5,6	G1B-1,2,3 on CH4,5,6	G1B-1,2,3 on CH4,5,6	G1B-1,2,3 on CH4,5,6	G1B-1,2,3 on CH4,5,6	G2T-1,2,3 on CH7,8,9	G2T-1,2,3 on CH7,8,9	G2T-1,2,3 on CH7,8,9	G2T-1,2,3 on CH7,8,9	G2T-1,2,3 on CH7,8,9	G2T-1,2,3 on CH7,8,9	G2T-1,2,3 on CH7,8,9	G2T-1,2,3 on CH7,8,9	G2T-1,2,3 on CH7,8,9	G2B-1,2,3 on CH10,11,12	G2B-1,2,3 on CH10,11,12	G2B-1,2,3 on CH10,11,12	G2B-1,2,3 on CH10,11,12	G2B-1,2,3 on CH10,11,12	G2B-1,2,3 on CH10,11,12	G2B-1,2,3 on CH10,11,12	G2B-1,2,3 on CH10,11,12	G2B-1,2,3 on CH10,11,12	G3-1,2,3 on CH13,14,15	G3-1,2,3 on CH13,14,15	G3-1,2,3 on CH13,14,15	G3-1,2,3 on CH13,14,15	G3-1,2,3 on CH13,14,15	G3-1,2,3 on CH13,14,15	G3-1,2,3 on CH13,14,15	G3-1,2,3 on CH13,14,15	G3-1,2,3 on CH13,14,15	G4-1,2,3 on CH16,17,18	G4-1,2,3 on CH16,17,18	G4-1,2,3 on CH16,17,18	G4-1,2,3 on CH16,17,18	G4-1,2,3 on CH16,17,18	G4-1,2,3 on CH16,17,18	G4-1,2,3 on CH16,17,18	G4-1,2,3 on CH16,17,18	G4-1,2,3 on CH16,17,18	SH2-1,2,3 on CH22,23,24	SH2-1,2,3 on CH22,23,24	SH2-1,2,3 on CH22,23,24	SH2-1,2,3 on CH22,23,24	SH2-1,2,3 on CH22,23,24	SH2-1,2,3 on CH22,23,24	SH2-1,2,3 on CH22,23,24	SH2-1,2,3 on CH22,23,24	SH2-1,2,3 on CH22,23,24	P on CH25
Reduction Method: 		Strain (Grid 1)	Strain (Grid 2)	Strain (Grid 3)	Max. Principal Strain	Min. Principal Strain	Angle (from Grid 1 to Sp)	Max. Principal Stress	Min. Principal Stress	von Mises Equiv. Stress	Strain (Grid 1)	Strain (Grid 2)	Strain (Grid 3)	Max. Principal Strain	Min. Principal Strain	Angle (from Grid 1 to Sp)	Max. Principal Stress	Min. Principal Stress	von Mises Equiv. Stress	Strain (Grid 1)	Strain (Grid 2)	Strain (Grid 3)	Max. Principal Strain	Min. Principal Strain	Angle (from Grid 1 to Sp)	Max. Principal Stress	Min. Principal Stress	von Mises Equiv. Stress	Strain (Grid 1)	Strain (Grid 2)	Strain (Grid 3)	Max. Principal Strain	Min. Principal Strain	Angle (from Grid 1 to Sp)	Max. Principal Stress	Min. Principal Stress	von Mises Equiv. Stress	Strain (Grid 1)	Strain (Grid 2)	Strain (Grid 3)	Max. Principal Strain	Min. Principal Strain	Angle (from Grid 1 to Sp)	Max. Principal Stress	Min. Principal Stress	von Mises Equiv. Stress	Strain (Grid 1)	Strain (Grid 2)	Strain (Grid 3)	Max. Principal Strain	Min. Principal Strain	Angle (from Grid 1 to Sp)	Max. Principal Stress	Min. Principal Stress	von Mises Equiv. Stress	Strain (Grid 1)	Strain (Grid 2)	Strain (Grid 3)	Max. Principal Strain	Min. Principal Strain	Angle (from Grid 1 to Sp)	Max. Principal Stress	Min. Principal Stress	von Mises Equiv. Stress	Calibrated Values
																																																																	
ID	SecondsElapsed	[01, 02, 03]  Strain (Grid 1)	[01, 02, 03]  Strain (Grid 2)	[01, 02, 03]  Strain (Grid 3)	[01, 02, 03]  Max. Principal Strain	[01, 02, 03]  Min. Principal Strain	[01, 02, 03]  Angle (from Grid 1 to Sp)	[01, 02, 03]  Max. Principal Stress	[01, 02, 03]  Min. Principal Stress	[01, 02, 03]  von Mises Equiv. Stress	[04, 05, 06]  Strain (Grid 1)	[04, 05, 06]  Strain (Grid 2)	[04, 05, 06]  Strain (Grid 3)	[04, 05, 06]  Max. Principal Strain	[04, 05, 06]  Min. Principal Strain	[04, 05, 06]  Angle (from Grid 1 to Sp)	[04, 05, 06]  Max. Principal Stress	[04, 05, 06]  Min. Principal Stress	[04, 05, 06]  von Mises Equiv. Stress	[07, 08, 09]  Strain (Grid 1)	[07, 08, 09]  Strain (Grid 2)	[07, 08, 09]  Strain (Grid 3)	[07, 08, 09]  Max. Principal Strain	[07, 08, 09]  Min. Principal Strain	[07, 08, 09]  Angle (from Grid 1 to Sp)	[07, 08, 09]  Max. Principal Stress	[07, 08, 09]  Min. Principal Stress	[07, 08, 09]  von Mises Equiv. Stress	[10, 11, 12]  Strain (Grid 1)	[10, 11, 12]  Strain (Grid 2)	[10, 11, 12]  Strain (Grid 3)	[10, 11, 12]  Max. Principal Strain	[10, 11, 12]  Min. Principal Strain	[10, 11, 12]  Angle (from Grid 1 to Sp)	[10, 11, 12]  Max. Principal Stress	[10, 11, 12]  Min. Principal Stress	[10, 11, 12]  von Mises Equiv. Stress	[13, 14, 15]  Strain (Grid 1)	[13, 14, 15]  Strain (Grid 2)	[13, 14, 15]  Strain (Grid 3)	[13, 14, 15]  Max. Principal Strain	[13, 14, 15]  Min. Principal Strain	[13, 14, 15]  Angle (from Grid 1 to Sp)	[13, 14, 15]  Max. Principal Stress	[13, 14, 15]  Min. Principal Stress	[13, 14, 15]  von Mises Equiv. Stress	[16, 17, 18]  Strain (Grid 1)	[16, 17, 18]  Strain (Grid 2)	[16, 17, 18]  Strain (Grid 3)	[16, 17, 18]  Max. Principal Strain	[16, 17, 18]  Min. Principal Strain	[16, 17, 18]  Angle (from Grid 1 to Sp)	[16, 17, 18]  Max. Principal Stress	[16, 17, 18]  Min. Principal Stress	[16, 17, 18]  von Mises Equiv. Stress	[22, 23, 24]  Strain (Grid 1)	[22, 23, 24]  Strain (Grid 2)	[22, 23, 24]  Strain (Grid 3)	[22, 23, 24]  Max. Principal Strain	[22, 23, 24]  Min. Principal Strain	[22, 23, 24]  Angle (from Grid 1 to Sp)	[22, 23, 24]  Max. Principal Stress	[22, 23, 24]  Min. Principal Stress	[22, 23, 24]  von Mises Equiv. Stress	[25]  psi
1	0.01	0	0	0	0	0	0	0	0	0	0	0	0	0	0	0	0	0	0	0	0	0	0	0	0	0	0	0	0	0	0	1	0	0	17.883	2.027	16.961	0	0	0	0	0	0	10.996	-10.996	19.046	0	0	0	0	0	0	0	0	0	0	0	0	1	0	0	17.47	2.0148	16.554	2
2	0.02	0	0	0	0	0	0	0	0	0	0	0	0	0	0	0	0	0	0	0	0	0	0	0	0	0	0	0	0	0	0	0	0	0	0	0	0	0	0	0	0	0	0	0	0	0	0	0	0	0	-1	0	-2.0278	-17.891	16.968	0	0	0	0	0	0	0	0	0	2
3	0.03	0	0	0	0	0	0	0	0	0	0	0	0	0	0	0	0	0	0	0	0	0	0	0	0	0	0	0	0	0	0	1	0	0	17.883	2.027	16.961	0	0	0	0	0	0	0	0	0	0	0	0	0	-1	0	-2.0278	-17.891	16.968	0	0	0	1	0	0	17.47	2.0148	16.554	0
4	0.04	0	0	0	0	0	0	0	0	0	0	0	0	0	0	0	0	0	0	0	0	0	0	0	0	10.989	-10.989	19.033	0	0	0	0	0	0	0	0	0	0	0	0	0	0	0	10.996	-10.996	19.046	0	0	0	0	-1	0	-2.0278	-17.891	16.968	0	0	0	0	0	0	0	0	0	2
5	0.05	0	0	0	0	0	0	0	0	0	0	0	0	0	0	0	0	0	0	0	0	0	0	0	0	0	0	0	0	0	0	0	0	0	0	0	0	0	0	0	0	0	0	10.996	-10.996	19.046	0	0	0	0	0	0	0	0	0	0	0	0	0	0	0	0	0	0	0
6	0.06	0	0	0	0	0	0	0	0	0	0	0	0	0	0	0	0	0	0	0	0	0	0	0	0	0	0	0	0	0	0	0	0	0	0	0	0	0	0	0	0	0	0	10.996	-10.996	19.046	0	0	0	0	0	0	0	0	0	0	0	0	0	0	0	0	0	0	2
7	0.07	0	0	0	0	0	0	0	0	0	0	0	0	0	0	0	0	0	0	0	0	0	0	0	0	0	0	0	0	0	0	0	0	0	0	0	0	0	0	0	0	0	0	10.996	-10.996	19.046	0	0	0	0	-1	0	-2.0278	-17.891	16.968	0	0	0	0	0	0	0	0	0	2
8	0.08	0	0	0	0	0	0	0	0	0	0	0	0	0	0	0	0	0	0	0	0	0	0	0	0	0	0	0	0	0	0	1	0	0	17.883	2.027	16.961	0	0	0	0	0	0	10.996	-10.996	19.046	0	0	0	0	-1	0	-2.0278	-17.891	16.968	0	0	0	0	0	0	0	0	0	0
9	0.09	0	0	0	0	0	0	0	0	0	0	0	0	0	0	0	0	0	0	0	0	0	0	0	0	0	0	0	0	0	0	0	0	0	0	0	0	0	0	0	0	0	0	10.996	-10.996	19.046	0	0	0	0	-1	0	-2.0278	-17.891	16.968	0	0	0	0	0	0	0	0	0	2
10	0.1	0	0	0	0	0	0	0	0	0	0	0	0	0	0	0	0	0	0	0	0	0	0	0	0	0	0	0	0	0	0	0	0	0	0	0	0	0	0	0	0	0	0	0	0	0	0	0	0	0	-1	0	-2.0278	-17.891	16.968	0	0	0	0	0	0	0	0	0	2
11	0.11	0	0	0	0	-1	0	-2.0364	-17.814	16.888	0	0	0	0	0	0	0	0	0	0	0	0	0	0	0	0	0	0	0	0	0	0	0	0	0	0	0	0	0	0	0	0	0	10.996	-10.996	19.046	0	0	0	0	-1	0	-2.0278	-17.891	16.968	0	0	0	0	0	0	0	0	0	0
12	0.12	0	0	0	0	0	0	0	0	0	0	0	0	0	0	0	0	0	0	0	0	0	0	0	0	0	0	0	0	0	0	0	0	0	0	0	0	0	0	0	0	0	0	0	0	0	0	0	0	0	-1	0	-2.0278	-17.891	16.968	0	0	0	0	0	0	0	0	0	2
13	0.13	0	0	0	0	0	0	0	0	0	0	0	0	0	0	0	0	0	0	0	0	0	0	0	0	0	0	0	0	0	0	0	0	0	0	0	0	0	0	0	0	0	0	0	0	0	0	0	0	0	-1	0	-2.0278	-17.891	16.968	0	0	0	0	0	0	0	0	0	2
14	0.14	0	0	0	0	0	0	0	0	0	0	0	0	0	0	0	0	0	0	0	0	0	0	0	0	0	0	0	0	0	0	0	0	0	0	0	0	0	0	0	0	0	0	10.996	-10.996	19.046	0	0	0	0	-1	0	-2.0278	-17.891	16.968	0	0	0	0	0	0	0	0	0	0
15	0.15	0	0	0	0	0	0	0	0	0	0	0	0	0	0	0	0	0	0	0	0	0	0	0	0	0	0	0	0	0	0	0	0	0	0	0	0	0	0	0	0	0	0	10.996	-10.996	19.046	0	0	0	0	-1	0	-2.0278	-17.891	16.968	0	0	0	0	0	0	0	0	0	0
16	0.16	0	0	0	0	0	0	0	0	0	0	0	0	0	0	0	0	0	0	0	0	0	0	0	0	0	0	0	0	0	0	0	0	0	0	0	0	0	0	0	0	0	0	0	0	0	0	0	0	0	0	0	0	0	0	0	0	0	1	0	0	17.47	2.0148	16.554	2
17	0.17	0	0	0	0	0	0	0	0	0	0	0	0	0	-1	0	-2.0372	-17.821	16.895	0	0	0	0	0	0	0	0	0	0	0	0	0	0	0	0	0	0	0	0	0	0	0	0	10.996	-10.996	19.046	0	0	0	0	-1	0	-2.0278	-17.891	16.968	0	0	0	0	0	0	0	0	0	2
18	0.18	0	0	0	0	0	0	0	0	0	0	0	0	0	0	0	0	0	0	0	0	0	0	0	0	0	0	0	0	0	0	0	0	0	0	0	0	0	0	0	0	0	0	0	0	0	0	0	0	0	-1	0	-2.0278	-17.891	16.968	0	0	0	1	0	0	17.47	2.0148	16.554	0
19	0.19	0	0	0	0	0	0	0	0	0	0	0	0	0	0	0	0	0	0	0	0	0	0	0	0	0	0	0	0	0	0	0	0	0	0	0	0	0	0	0	0	0	0	0	0	0	0	0	0	0	-1	0	-2.0278	-17.891	16.968	0	0	0	0	0	0	0	0	0	0
20	0.2	0	0	0	0	0	0	0	0	0	0	0	0	0	0	0	0	0	0	0	0	0	0	0	0	0	0	0	0	0	0	0	0	0	0	0	0	0	0	0	0	0	0	0	0	0	0	0	0	0	-1	0	-2.0278	-17.891	16.968	0	0	0	0	0	0	0	0	0	2
21	0.21	0	0	0	0	0	0	0	0	0	0	0	0	0	0	0	0	0	0	0	0	0	0	0	0	0	0	0	0	0	0	0	0	0	0	0	0	0	0	0	0	0	0	0	0	0	0	0	0	0	-1	0	-2.0278	-17.891	16.968	0	0	0	1	0	0	17.47	2.0148	16.554	0
22	0.22	0	0	0	0	0	0	0	0	0	0	0	0	0	0	0	0	0	0	0	0	0	0	0	0	0	0	0	0	0	0	0	0	0	0	0	0	0	0	0	0	0	0	10.996	-10.996	19.046	0	0	0	0	0	0	0	0	0	0	0	0	0	0	0	0	0	0	2
23	0.23	0	0	0	0	0	0	0	0	0	0	0	0	0	0	0	0	0	0	0	0	0	0	0	0	0	0	0	0	0	0	0	0	0	0	0	0	0	0	0	0	0	0	0	0	0	0	0	0	0	-1	0	-2.0278	-17.891	16.968	0	0	0	0	0	0	0	0	0	2
24	0.24	0	0	0	0	0	0	0	0	0	0	0	0	0	0	0	0	0	0	0	0	0	0	0	0	0	0	0	0	0	0	0	0	0	0	0	0	0	0	0	0	0	0	0	0	0	0	0	0	0	0	0	0	0	0	0	0	0	0	0	0	0	0	0	2
25	0.25	0	0	0	0	0	0	0	0	0	0	0	0	0	0	0	0	0	0	0	0	0	0	0	0	0	0	0	0	0	0	0	0	0	0	0	0	0	0	0	0	0	0	0	0	0	0	0	0	0	-1	0	-2.0278	-17.891	16.968	0	0	0	0	0	0	0	0	0	2
26	0.26	0	0	0	0	-1	0	-2.0364	-17.814	16.888	0	0	0	0	0	0	0	0	0	0	0	0	0	0	0	0	0	0	0	0	0	1	0	0	17.761	2.1499	16.789	0	0	0	0	0	0	0	0	0	0	0	0	0	0	0	0	0	0	0	0	0	1	0	0	17.47	2.0148	16.554	2
27	0.27	0	0	0	0	0	0	0	0	0	0	0	0	0	0	0	0	0	0	0	0	0	0	0	0	0	0	0	0	0	0	0	0	0	0	0	0	0	0	0	0	0	0	0	0	0	0	0	0	0	-1	0	-2.0278	-17.891	16.968	0	0	0	0	0	0	0	0	0	2
28	0.28	0	0	0	0	0	0	0	0	0	0	0	0	0	0	0	0	0	0	0	0	0	0	0	0	0	0	0	0	0	0	0	0	0	10.991	-10.991	19.037	0	0	0	0	0	0	0	0	0	0	0	0	0	-1	0	-2.0278	-17.891	16.968	0	0	0	0	0	0	0	0	0	0
29	0.29	0	0	0	0	0	0	0	0	0	0	0	0	0	0	0	0	0	0	0	0	0	0	0	0	0	0	0	0	0	0	0	0	0	0	0	0	0	0	0	0	0	0	0	0	0	0	0	0	0	-1	0	-2.0278	-17.891	16.968	0	0	0	0	0	0	0	0	0	2
30	0.3	0	0	0	0	0	0	0	0	0	0	0	0	0	0	0	0	0	0	0	0	0	0	0	0	0	0	0	0	0	0	0	0	0	0	0	0	0	0	0	0	0	0	0	0	0	0	0	0	0	0	0	0	0	0	0	0	0	0	0	0	0	0	0	2
31	0.31	0	0	0	0	0	0	0	0	0	0	0	0	0	0	0	0	0	0	0	0	0	0	0	0	0	0	0	0	0	0	0	0	0	0	0	0	0	0	0	0	0	0	0	0	0	0	0	0	0	-1	0	-2.0278	-17.891	16.968	0	0	0	0	0	0	0	0	0	0
32	0.32	0	0	0	0	-1	0	-2.0364	-17.814	16.888	0	0	0	0	0	0	0	0	0	0	0	0	0	0	0	0	0	0	0	0	0	0	0	0	0	0	0	0	0	0	0	0	0	10.996	-10.996	19.046	0	0	0	0	-1	0	-2.0278	-17.891	16.968	0	0	0	0	0	0	0	0	0	2
33	0.33	0	0	0	0	0	0	0	0	0	0	0	0	0	0	0	0	0	0	0	0	0	0	0	0	0	0	0	0	0	0	0	0	0	0	0	0	0	0	0	0	0	0	0	0	0	0	0	0	0	-1	0	-2.0278	-17.891	16.968	0	0	0	1	0	0	17.47	2.0148	16.554	0
34	0.34	0	0	0	0	0	0	0	0	0	0	0	0	0	0	0	0	0	0	0	0	0	0	0	0	0	0	0	0	0	0	0	0	0	0	0	0	0	0	0	0	0	0	10.996	-10.996	19.046	0	0	0	0	-1	0	-2.0278	-17.891	16.968	0	0	0	0	0	0	0	0	0	2
35	0.35	0	0	0	0	0	0	0	0	0	0	0	0	0	0	0	0	0	0	0	0	0	0	0	0	0	0	0	0	0	0	0	0	0	0	0	0	0	0	0	0	0	0	0	0	0	0	0	0	0	-1	0	-2.0278	-17.891	16.968	0	0	0	0	0	0	0	0	0	2
36	0.36	0	0	0	0	0	0	0	0	0	0	0	0	0	0	0	0	0	0	0	0	0	0	0	0	10.989	-10.989	19.033	0	0	0	0	0	0	0	0	0	0	0	0	0	0	0	0	0	0	0	0	0	0	-1	0	-2.0278	-17.891	16.968	0	0	0	1	0	0	17.47	2.0148	16.554	2
37	0.37	0	0	0	0	0	0	0	0	0	0	0	0	0	0	0	0	0	0	0	0	0	0	0	0	0	0	0	0	0	0	0	0	0	0	0	0	0	0	0	0	-1	0	-2.0279	-17.891	16.969	0	0	0	0	-1	0	-2.0278	-17.891	16.968	0	0	0	0	0	0	0	0	0	2
38	0.38	0	0	0	0	0	0	0	0	0	0	0	0	0	0	0	0	0	0	0	0	0	0	0	0	0	0	0	0	0	0	0	0	0	0	0	0	0	0	0	0	0	0	0	0	0	0	0	0	0	-1	0	-2.0278	-17.891	16.968	0	0	0	1	0	0	17.47	2.0148	16.554	2
39	0.39	0	0	0	0	0	0	0	0	0	0	0	0	0	0	0	0	0	0	0	0	0	0	0	0	0	0	0	0	0	0	0	0	0	0	0	0	0	0	0	0	0	0	0	0	0	0	0	0	0	0	0	0	0	0	0	0	0	0	0	0	0	0	0	2
40	0.4	0	0	0	0	0	0	0	0	0	0	0	0	0	0	0	0	0	0	0	0	0	0	0	0	0	0	0	0	0	0	0	0	0	0	0	0	0	0	0	0	0	0	10.996	-10.996	19.046	0	0	0	0	0	0	0	0	0	0	0	0	0	0	0	0	0	0	0
41	0.41	0	0	0	0	0	0	0	0	0	0	0	0	0	0	0	0	0	0	0	0	0	0	0	0	0	0	0	0	0	0	0	0	0	0	0	0	0	0	0	0	0	0	10.996	-10.996	19.046	0	0	0	0	-1	0	-2.0278	-17.891	16.968	0	0	0	0	0	0	0	0	0	0
42	0.42	0	0	0	0	-1	0	-2.0364	-17.814	16.888	0	0	0	0	0	0	0	0	0	0	0	0	0	0	0	0	0	0	0	0	0	0	0	0	0	0	0	0	0	0	0	0	0	0	0	0	0	0	0	0	0	0	0	0	0	0	0	0	0	0	0	0	0	0	2
43	0.43	0	0	0	0	-1	0	-2.0364	-17.814	16.888	0	0	0	0	0	0	0	0	0	0	0	0	0	0	0	0	0	0	0	0	0	0	0	0	0	0	0	0	0	0	0	0	0	0	0	0	0	0	0	0	-1	0	-2.0278	-17.891	16.968	0	0	0	0	0	0	0	0	0	2
44	0.44	0	0	0	0	0	0	0	0	0	0	0	0	0	0	0	0	0	0	0	0	0	0	0	0	0	0	0	0	0	0	0	0	0	0	0	0	0	0	0	0	0	0	0	0	0	0	0	0	0	-1	0	-2.0278	-17.891	16.968	0	0	0	1	0	0	17.47	2.0148	16.554	0
45	0.45	0	0	0	0	-1	0	-2.0364	-17.814	16.888	0	0	0	0	0	0	0	0	0	0	0	0	0	0	0	10.989	-10.989	19.033	0	0	0	0	0	0	0	0	0	0	0	0	0	0	0	0	0	0	0	0	0	0	-1	0	-2.0278	-17.891	16.968	0	0	0	0	0	0	0	0	0	2
46	0.46	0	0	0	0	0	0	0	0	0	0	0	0	0	0	0	0	0	0	0	0	0	0	0	0	0	0	0	0	0	0	0	0	0	0	0	0	0	0	0	0	0	0	0	0	0	0	0	0	0	-1	0	-2.0278	-17.891	16.968	0	0	0	1	0	0	17.47	2.0148	16.554	2
47	0.47	0	0	0	0	0	0	0	0	0	0	0	0	0	0	0	0	0	0	0	0	0	0	0	0	10.989	-10.989	19.033	0	0	0	0	0	0	0	0	0	0	0	0	0	0	0	0	0	0	0	0	0	0	0	0	0	0	0	0	0	0	0	0	0	0	0	0	2
48	0.48	0	0	0	0	-1	0	-2.0364	-17.814	16.888	0	0	0	0	0	0	0	0	0	0	0	0	0	0	0	0	0	0	0	0	0	0	0	0	10.991	-10.991	19.037	0	0	0	0	0	0	0	0	0	0	0	0	0	-1	0	-2.0278	-17.891	16.968	0	0	0	0	0	0	0	0	0	0
49	0.49	0	0	0	0	0	0	0	0	0	0	0	0	0	0	0	0	0	0	0	0	0	0	0	0	0	0	0	0	0	0	0	0	0	0	0	0	0	0	0	0	0	0	0	0	0	0	0	0	0	-1	0	-2.0278	-17.891	16.968	0	0	0	0	0	0	0	0	0	2
50	0.5	0	0	0	0	-1	0	-2.0364	-17.814	16.888	0	0	0	0	-1	0	-2.0366	-17.816	16.89	0	0	0	0	0	0	0	0	0	0	0	0	0	0	0	0	0	0	0	0	0	0	0	0	0	0	0	0	0	0	0	-1	0	-2.0278	-17.891	16.968	0	0	0	0	0	0	0	0	0	0
51	0.51	0	0	0	0	0	0	0	0	0	0	0	0	0	-1	0	-2.0366	-17.816	16.89	0	0	0	0	0	0	0	0	0	0	0	0	0	0	0	0	0	0	0	0	0	0	0	0	0	0	0	0	0	0	0	0	0	0	0	0	0	0	0	1	0	0	17.47	2.0148	16.554	2
52	0.52	0	0	0	0	0	0	0	0	0	0	0	0	0	0	0	0	0	0	0	0	0	0	0	0	0	0	0	0	0	0	0	0	0	0	0	0	0	0	0	0	0	0	0	0	0	0	0	0	0	-1	0	-2.0278	-17.891	16.968	0	0	0	0	0	0	0	0	0	2
53	0.53	0	0	0	0	0	0	0	0	0	0	0	0	0	-1	0	-2.0366	-17.816	16.89	0	0	0	0	0	0	0	0	0	0	0	0	0	0	0	0	0	0	0	0	0	0	0	0	0	0	0	0	0	0	0	-1	0	-2.0278	-17.891	16.968	0	0	0	0	0	0	0	0	0	2
54	0.54	0	0	0	0	0	0	0	0	0	0	0	0	0	0	0	0	0	0	0	0	0	0	0	0	0	0	0	0	0	0	0	0	0	0	0	0	0	0	0	0	0	0	10.996	-10.996	19.046	0	0	0	0	-1	0	-2.0278	-17.891	16.968	0	0	0	0	0	0	0	0	0	2
55	0.55	0	0	0	0	0	0	0	0	0	0	0	0	0	0	0	0	0	0	0	0	0	0	0	0	0	0	0	0	0	0	0	0	0	0	0	0	0	0	0	0	0	0	10.996	-10.996	19.046	0	0	0	0	0	0	0	0	0	0	0	0	0	0	0	0	0	0	2
56	0.56	0	0	0	0	-1	0	-2.0364	-17.814	16.888	0	0	0	0	0	0	0	0	0	0	0	0	0	0	0	10.989	-10.989	19.033	0	0	0	1	0	0	17.883	2.027	16.961	0	0	0	0	0	0	10.996	-10.996	19.046	0	0	0	0	-1	0	-2.0278	-17.891	16.968	0	0	0	0	0	0	0	0	0	2
57	0.57	0	0	0	0	0	0	0	0	0	0	0	0	0	0	0	0	0	0	0	0	0	0	0	0	0	0	0	0	0	0	0	0	0	0	0	0	0	0	0	0	0	0	10.996	-10.996	19.046	0	0	0	0	0	0	0	0	0	0	0	0	0	0	0	0	0	0	2
58	0.58	0	0	0	0	0	0	0	0	0	0	0	0	0	0	0	0	0	0	0	0	0	0	0	0	0	0	0	0	0	0	0	0	0	0	0	0	0	0	0	0	0	0	10.996	-10.996	19.046	0	0	0	0	-1	0	-2.0278	-17.891	16.968	0	0	0	0	0	0	0	0	0	2
59	0.59	0	0	0	0	0	0	0	0	0	0	0	0	0	0	0	0	0	0	0	0	0	0	0	0	0	0	0	0	0	0	0	0	0	0	0	0	0	0	0	0	0	0	10.996	-10.996	19.046	0	0	0	0	0	0	0	0	0	0	0	0	0	0	0	0	0	0	2
60	0.6	0	0	0	0	0	0	0	0	0	0	0	0	0	0	0	0	0	0	0	0	0	0	0	0	0	0	0	0	0	0	0	0	0	0	0	0	0	0	0	0	0	0	0	0	0	0	0	0	0	0	0	0	0	0	0	0	0	0	0	0	0	0	0	0
61	0.61	0	0	0	0	0	0	0	0	0	0	0	0	0	0	0	0	0	0	0	0	0	0	0	0	0	0	0	0	0	0	0	0	0	0	0	0	0	0	0	0	0	0	0	0	0	0	0	0	0	-1	0	-2.0278	-17.891	16.968	0	0	0	0	0	0	0	0	0	2
62	0.62	0	0	0	0	0	0	0	0	0	0	0	0	0	0	0	0	0	0	0	0	0	0	0	0	10.989	-10.989	19.033	0	0	0	0	0	0	10.991	-10.991	19.037	0	0	0	0	0	0	0	0	0	0	0	0	0	-1	0	-2.0278	-17.891	16.968	0	0	0	0	0	0	0	0	0	0
63	0.63	0	0	0	0	0	0	0	0	0	0	0	0	0	0	0	0	0	0	0	0	0	0	0	0	0	0	0	0	0	0	0	0	0	0	0	0	0	0	0	0	0	0	0	0	0	0	0	0	0	0	0	0	0	0	0	0	0	1	0	0	17.47	2.0148	16.554	2
64	0.64	0	0	0	0	-1	0	-2.0364	-17.814	16.888	0	0	0	0	0	0	0	0	0	0	0	0	0	0	0	0	0	0	0	0	0	0	0	0	0	0	0	0	0	0	0	0	0	0	0	0	0	0	0	0	-1	0	-2.0278	-17.891	16.968	0	0	0	0	0	0	0	0	0	2
65	0.65	0	0	0	0	-1	0	-2.0364	-17.814	16.888	0	0	0	0	0	0	0	0	0	0	0	0	0	0	0	0	0	0	0	0	0	0	0	0	0	0	0	0	0	0	0	0	0	10.996	-10.996	19.046	0	0	0	0	0	0	0	0	0	0	0	0	0	0	0	0	0	0	0
66	0.66	0	0	0	0	0	0	0	0	0	0	0	0	0	0	0	0	0	0	0	0	0	0	0	0	0	0	0	0	0	0	0	0	0	0	0	0	0	0	0	0	0	0	0	0	0	0	0	0	0	-1	0	-2.0278	-17.891	16.968	0	0	0	0	0	0	0	0	0	2
67	0.67	0	0	0	0	0	0	0	0	0	0	0	0	0	0	0	0	0	0	0	0	0	0	0	0	0	0	0	0	0	0	0	0	0	0	0	0	0	0	0	0	0	0	10.996	-10.996	19.046	0	0	0	0	0	0	0	0	0	0	0	0	0	0	0	0	0	0	0
68	0.68	0	0	0	0	0	0	0	0	0	0	0	0	0	0	0	0	0	0	0	0	0	0	0	0	0	0	0	0	0	0	0	0	0	0	0	0	0	0	0	0	0	0	0	0	0	0	0	0	0	-1	0	-2.0278	-17.891	16.968	0	0	0	0	0	0	0	0	0	2
69	0.69	0	0	0	0	0	0	0	0	0	0	0	0	0	0	0	0	0	0	0	0	0	0	0	0	0	0	0	0	0	0	0	0	0	0	0	0	0	0	0	0	0	0	0	0	0	0	0	0	0	0	0	0	0	0	0	0	0	0	0	0	0	0	0	2
70	0.7	0	0	0	0	0	0	0	0	0	0	0	0	0	0	0	0	0	0	0	0	0	0	0	0	0	0	0	0	0	0	1	0	0	17.883	2.027	16.961	0	0	0	0	0	0	0	0	0	0	0	0	0	0	0	0	0	0	0	0	0	0	0	0	0	0	0	2
71	0.71	0	0	0	0	0	0	0	0	0	0	0	0	0	-1	0	-2.0366	-17.816	16.89	0	0	0	0	0	0	0	0	0	0	0	0	0	0	0	0	0	0	0	0	0	0	0	0	10.996	-10.996	19.046	0	0	0	0	-1	0	-2.0278	-17.891	16.968	0	0	0	0	0	0	0	0	0	0
72	0.72	0	0	0	0	0	0	0	0	0	0	0	0	0	0	0	0	0	0	0	0	0	0	0	0	0	0	0	0	0	0	0	0	0	0	0	0	0	0	0	0	0	0	0	0	0	0	0	0	0	-1	0	-2.0278	-17.891	16.968	0	0	0	0	0	0	0	0	0	2
73	0.73	0	0	0	0	0	0	0	0	0	0	0	0	0	0	0	0	0	0	0	0	0	0	0	0	0	0	0	0	0	0	0	0	0	0	0	0	0	0	0	0	0	0	0	0	0	0	0	0	0	-1	0	-2.0278	-17.891	16.968	0	0	0	0	0	0	0	0	0	0
74	0.74	0	0	0	0	0	0	0	0	0	0	0	0	0	0	0	0	0	0	0	0	0	0	0	0	0	0	0	0	0	0	0	0	0	0	0	0	0	0	0	0	0	0	10.996	-10.996	19.046	0	0	0	0	-1	0	-2.0278	-17.891	16.968	0	0	0	0	0	0	0	0	0	0
75	0.75	0	0	0	0	0	0	0	0	0	0	0	0	0	0	0	0	0	0	0	0	0	0	0	0	10.989	-10.989	19.033	0	0	0	0	0	0	0	0	0	0	0	0	0	0	0	10.996	-10.996	19.046	0	0	0	0	-1	0	-2.0278	-17.891	16.968	0	0	0	0	0	0	0	0	0	2
76	0.76	0	0	0	0	0	0	0	0	0	0	0	0	0	0	0	0	0	0	0	0	0	0	0	0	0	0	0	0	0	0	0	0	0	0	0	0	0	0	0	0	0	0	0	0	0	0	0	0	0	-1	0	-2.0278	-17.891	16.968	0	0	0	1	0	0	17.482	2.0162	16.566	2
77	0.77	0	0	0	0	0	0	0	0	0	0	0	0	0	0	0	0	0	0	0	0	0	0	0	0	0	0	0	0	0	0	0	0	0	0	0	0	0	0	0	0	0	0	10.996	-10.996	19.046	0	0	0	0	-1	0	-2.0278	-17.891	16.968	0	0	0	0	0	0	0	0	0	2
78	0.78	0	0	0	0	-1	0	-2.0364	-17.814	16.888	0	0	0	0	0	0	0	0	0	0	0	0	0	0	0	0	0	0	0	0	0	0	0	0	0	0	0	0	0	0	0	0	0	0	0	0	0	0	0	0	-1	0	-2.0278	-17.891	16.968	0	0	0	0	0	0	0	0	0	2
79	0.79	0	0	0	0	0	0	0	0	0	0	0	0	0	0	0	0	0	0	0	0	0	0	0	0	0	0	0	0	0	0	0	0	0	0	0	0	0	0	0	0	0	0	10.996	-10.996	19.046	0	0	0	0	-1	0	-2.0278	-17.891	16.968	0	0	0	0	0	0	0	0	0	2
80	0.8	0	0	0	0	0	0	0	0	0	0	0	0	0	-1	0	-2.0372	-17.821	16.895	0	0	0	0	0	0	0	0	0	0	0	0	0	0	0	0	0	0	0	0	0	0	0	0	10.996	-10.996	19.046	0	0	0	0	0	0	0	0	0	0	0	0	0	0	0	0	0	0	0
81	0.81	0	0	0	0	0	0	0	0	0	0	0	0	0	0	0	0	0	0	0	0	0	0	0	0	0	0	0	0	0	0	0	0	0	10.991	-10.991	19.037	0	0	0	0	0	0	0	0	0	0	0	0	0	-1	0	-2.0278	-17.891	16.968	0	0	0	0	0	0	0	0	0	2
82	0.82	0	0	0	0	0	0	0	0	0	0	0	0	0	0	0	0	0	0	0	0	0	0	0	0	0	0	0	0	0	0	0	0	0	0	0	0	0	0	0	0	0	0	10.996	-10.996	19.046	0	0	0	0	-1	0	-2.0278	-17.891	16.968	0	0	0	0	0	0	0	0	0	0
83	0.83	0	0	0	0	0	0	0	0	0	0	0	0	0	0	0	0	0	0	0	0	0	0	0	0	0	0	0	0	0	0	0	0	0	0	0	0	0	0	0	0	0	0	0	0	0	0	0	0	0	-1	0	-2.0278	-17.891	16.968	0	0	0	0	0	0	0	0	0	2
84	0.84	0	0	0	0	0	0	0	0	0	0	0	0	0	0	0	0	0	0	0	0	0	0	0	0	0	0	0	0	0	0	0	0	0	0	0	0	0	0	0	0	0	0	10.996	-10.996	19.046	0	0	0	0	-1	0	-2.0278	-17.891	16.968	0	0	0	0	0	0	0	0	0	2
85	0.85	0	0	0	0	0	0	0	0	0	0	0	0	0	0	0	0	0	0	0	0	0	0	0	0	0	0	0	0	0	0	0	0	0	0	0	0	0	0	0	0	0	0	10.996	-10.996	19.046	0	0	0	0	-1	0	-2.0278	-17.891	16.968	0	0	0	0	0	0	0	0	0	0
86	0.86	0	0	0	0	0	0	0	0	0	0	0	0	0	0	0	0	0	0	0	0	0	0	0	0	0	0	0	0	0	0	0	0	0	0	0	0	0	0	0	0	0	0	10.996	-10.996	19.046	0	0	0	0	-1	0	-2.0278	-17.891	16.968	0	0	0	0	0	0	0	0	0	2
87	0.87	0	0	0	0	0	0	0	0	0	0	0	0	0	0	0	0	0	0	0	0	0	0	0	0	0	0	0	0	0	0	0	0	0	0	0	0	0	0	0	0	0	0	10.996	-10.996	19.046	0	0	0	0	-1	0	-2.0278	-17.891	16.968	0	0	0	0	0	0	0	0	0	2
88	0.88	0	0	0	0	0	0	0	0	0	0	0	0	0	0	0	0	0	0	0	0	0	0	0	0	0	0	0	0	0	0	0	0	0	0	0	0	0	0	0	0	0	0	0	0	0	0	0	0	0	-1	0	-2.0278	-17.891	16.968	0	0	0	0	0	0	0	0	0	0
89	0.89	0	0	0	0	0	0	0	0	0	0	0	0	0	0	0	0	0	0	0	0	0	0	0	0	0	0	0	0	0	0	0	0	0	0	0	0	0	0	0	0	0	0	10.996	-10.996	19.046	0	0	0	0	-1	0	-2.0278	-17.891	16.968	0	0	0	0	0	0	0	0	0	2
90	0.9	0	0	0	0	0	0	0	0	0	0	0	0	0	-1	0	-2.0366	-17.816	16.89	0	0	0	0	0	0	0	0	0	0	0	0	0	0	0	0	0	0	0	0	0	0	0	0	0	0	0	0	0	0	0	-1	0	-2.0278	-17.891	16.968	0	0	0	0	0	0	0	0	0	0
91	0.91	0	0	0	0	0	0	0	0	0	0	0	0	0	0	0	0	0	0	0	0	0	0	0	0	0	0	0	0	0	0	0	0	0	0	0	0	0	0	0	0	0	0	0	0	0	0	0	0	0	-1	0	-2.0278	-17.891	16.968	0	0	0	1	0	0	17.47	2.0148	16.554	2
92	0.92	0	0	0	0	0	0	0	0	0	0	0	0	0	-1	0	-2.0372	-17.821	16.895	0	0	0	0	0	0	0	0	0	0	0	0	0	0	0	0	0	0	0	0	0	0	0	0	0	0	0	0	0	0	0	-1	0	-2.0278	-17.891	16.968	0	0	0	0	0	0	0	0	0	0
93	0.93	0	0	0	0	0	0	0	0	0	0	0	0	0	0	0	0	0	0	0	0	0	0	0	0	0	0	0	0	0	0	0	0	0	0	0	0	0	0	0	0	-1	0	-2.0279	-17.891	16.969	0	0	0	0	-1	0	-2.0278	-17.891	16.968	0	0	0	0	0	0	0	0	0	0
94	0.94	0	0	0	0	0	0	0	0	0	0	0	0	0	0	0	0	0	0	0	0	0	0	0	0	0	0	0	0	0	0	0	0	0	10.991	-10.991	19.037	0	0	0	0	0	0	0	0	0	0	0	0	0	0	0	0	0	0	0	0	0	0	0	0	0	0	0	2
95	0.95	0	0	0	0	0	0	0	0	0	0	0	0	0	0	0	0	0	0	0	0	0	0	0	0	0	0	0	0	0	0	0	0	0	0	0	0	0	0	0	0	-1	0	-2.1508	-17.769	16.797	0	0	0	0	-1	0	-2.0278	-17.891	16.968	0	0	0	0	0	0	0	0	0	0
96	0.96	0	0	0	0	0	0	0	0	0	0	0	0	0	0	0	0	0	0	0	0	0	0	0	0	10.989	-10.989	19.033	0	0	0	0	0	0	0	0	0	0	0	0	0	0	0	0	0	0	0	0	0	0	0	0	0	0	0	0	0	0	1	0	0	17.47	2.0148	16.554	2
97	0.97	0	0	0	0	0	0	0	0	0	0	0	0	0	0	0	0	0	0	0	0	0	0	0	0	0	0	0	0	0	0	0	0	0	0	0	0	0	0	0	0	0	0	10.996	-10.996	19.046	0	0	0	0	-1	0	-2.0278	-17.891	16.968	0	0	0	0	0	0	0	0	0	0
98	0.98	0	0	0	0	0	0	0	0	0	0	0	0	0	-1	0	-2.0366	-17.816	16.89	0	0	0	0	0	0	10.989	-10.989	19.033	0	0	0	0	0	0	0	0	0	0	0	0	0	0	0	10.996	-10.996	19.046	0	0	0	0	0	0	0	0	0	0	0	0	0	0	0	0	0	0	2
99	0.99	0	0	0	0	0	0	0	0	0	0	0	0	0	0	0	0	0	0	0	0	0	0	0	0	0	0	0	0	0	0	0	0	0	0	0	0	0	0	0	0	0	0	0	0	0	0	0	0	0	0	0	0	0	0	0	0	0	0	0	0	0	0	0	2
100	1	0	0	0	0	0	0	0	0	0	0	0	0	0	0	0	0	0	0	0	0	0	0	0	0	0	0	0	0	0	0	0	0	0	0	0	0	0	0	0	0	0	0	10.996	-10.996	19.046	0	0	0	0	-1	0	-2.0278	-17.891	16.968	0	0	0	0	0	0	0	0	0	2
101	1.01	0	0	0	0	0	0	0	0	0	0	0	0	0	0	0	0	0	0	0	0	0	0	0	0	0	0	0	0	0	0	0	0	0	0	0	0	0	0	0	0	0	0	0	0	0	0	0	0	0	-1	0	-2.0278	-17.891	16.968	0	0	0	1	0	0	17.47	2.0148	16.554	2
102	1.02	0	0	0	0	0	0	0	0	0	0	0	0	0	0	0	0	0	0	0	0	0	0	0	0	0	0	0	0	0	0	0	0	0	0	0	0	0	0	0	0	0	0	10.996	-10.996	19.046	0	0	0	0	-1	0	-2.0278	-17.891	16.968	0	0	0	1	0	0	17.47	2.0148	16.554	2
103	1.03	0	0	0	0	0	0	0	0	0	0	0	0	0	-1	0	-2.0366	-17.816	16.89	0	0	0	0	0	0	0	0	0	0	0	0	0	0	0	0	0	0	0	0	0	0	0	0	0	0	0	0	0	0	0	-1	0	-2.0278	-17.891	16.968	0	0	0	0	0	0	0	0	0	0
104	1.04	0	0	0	0	0	0	0	0	0	0	0	0	0	0	0	0	0	0	0	0	0	0	0	0	0	0	0	0	0	0	0	-1	0	-2.0265	-17.879	16.957	0	0	0	0	0	0	0	0	0	0	0	0	0	-1	0	-2.0278	-17.891	16.968	0	0	0	0	0	0	0	0	0	0
105	1.05	0	0	0	0	0	0	0	0	0	0	0	0	0	0	0	0	0	0	0	0	0	0	0	0	0	0	0	0	0	0	0	0	0	0	0	0	0	0	0	0	0	0	10.996	-10.996	19.046	0	0	0	0	0	0	0	0	0	0	0	0	0	0	0	0	0	0	0
106	1.06	0	0	0	0	0	0	0	0	0	0	0	0	0	0	0	0	0	0	0	0	0	0	0	0	0	0	0	0	0	0	0	0	0	0	0	0	0	0	0	0	0	0	0	0	0	0	0	0	0	-1	0	-2.0278	-17.891	16.968	0	0	0	0	0	0	0	0	0	0
107	1.07	0	0	0	0	0	0	0	0	0	0	0	0	0	-1	0	-2.0366	-17.816	16.89	0	0	0	0	0	0	0	0	0	0	0	0	0	0	0	0	0	0	0	0	0	0	0	0	0	0	0	0	0	0	0	0	0	0	0	0	0	0	0	0	0	0	0	0	0	2
108	1.08	0	0	0	0	0	0	0	0	0	0	0	0	0	0	0	0	0	0	0	0	0	0	0	0	10.989	-10.989	19.033	0	0	0	0	0	0	0	0	0	0	0	0	0	0	0	0	0	0	0	0	0	0	-1	0	-2.0278	-17.891	16.968	0	0	0	0	0	0	0	0	0	2
109	1.09	0	0	0	0	0	0	0	0	0	0	0	0	0	0	0	0	0	0	0	0	0	0	0	0	0	0	0	0	0	0	0	0	0	0	0	0	0	0	0	0	0	0	0	0	0	0	0	0	0	-1	0	-2.0278	-17.891	16.968	0	0	0	0	0	0	0	0	0	2
110	1.1	0	0	0	0	-1	0	-2.0364	-17.814	16.888	0	0	0	0	0	0	0	0	0	0	0	0	0	0	0	0	0	0	0	0	0	0	0	0	0	0	0	0	0	0	0	0	0	10.996	-10.996	19.046	0	0	0	0	-1	0	-2.0278	-17.891	16.968	0	0	0	0	0	0	0	0	0	2
111	1.11	0	0	0	0	0	0	0	0	0	0	0	0	0	0	0	0	0	0	0	0	0	0	0	0	0	0	0	0	0	0	0	0	0	0	0	0	0	0	0	0	0	0	0	0	0	0	0	0	0	-1	0	-2.0278	-17.891	16.968	0	0	0	0	0	0	0	0	0	2
112	1.12	0	0	0	0	-1	0	-2.0364	-17.814	16.888	0	0	0	0	0	0	0	0	0	0	0	0	0	0	0	0	0	0	0	0	0	0	0	0	0	0	0	0	0	0	0	0	0	10.996	-10.996	19.046	0	0	0	0	0	0	0	0	0	0	0	0	0	0	0	0	0	0	2
113	1.13	0	0	0	0	0	0	0	0	0	0	0	0	0	0	0	0	0	0	0	0	0	0	0	0	0	0	0	0	0	0	0	0	0	0	0	0	0	0	0	0	0	0	0	0	0	0	0	0	0	-1	0	-2.0278	-17.891	16.968	0	0	0	0	0	0	0	0	0	2
114	1.14	0	0	0	0	0	0	0	0	0	0	0	0	0	0	0	0	0	0	0	0	0	0	0	0	0	0	0	0	0	0	0	0	0	0	0	0	0	0	0	0	0	0	10.996	-10.996	19.046	0	0	0	0	-1	0	-2.0278	-17.891	16.968	0	0	0	0	0	0	0	0	0	2
115	1.15	0	0	0	0	0	0	0	0	0	0	0	0	0	0	0	0	0	0	0	0	0	0	0	0	0	0	0	0	0	0	0	0	0	0	0	0	0	0	0	0	-1	0	-2.0279	-17.891	16.969	0	0	0	0	-1	0	-2.0278	-17.891	16.968	0	0	0	0	0	0	0	0	0	0
116	1.16	0	0	0	0	0	0	0	0	0	0	0	0	0	0	0	0	0	0	0	0	0	0	0	0	0	0	0	0	0	0	0	0	0	0	0	0	0	0	0	0	0	0	0	0	0	0	0	0	0	-1	0	-2.0278	-17.891	16.968	0	0	0	0	0	0	0	0	0	2
117	1.17	0	0	0	0	0	0	0	0	0	0	0	0	0	-1	0	-2.0366	-17.816	16.89	0	0	0	0	0	0	0	0	0	0	0	0	0	0	0	0	0	0	0	0	0	0	0	0	10.996	-10.996	19.046	0	0	0	0	-1	0	-2.0278	-17.891	16.968	0	0	0	0	0	0	0	0	0	0
118	1.18	0	0	0	0	0	0	0	0	0	0	0	0	0	0	0	0	0	0	0	0	0	0	0	0	0	0	0	0	0	0	0	0	0	0	0	0	0	0	0	0	0	0	0	0	0	0	0	0	0	-1	0	-2.0278	-17.891	16.968	0	0	0	0	0	0	0	0	0	0
119	1.19	0	0	0	0	0	0	0	0	0	0	0	0	0	-1	0	-2.0366	-17.816	16.89	0	0	0	0	0	0	0	0	0	0	0	0	0	0	0	0	0	0	0	0	0	0	0	0	0	0	0	0	0	0	0	-1	0	-2.0278	-17.891	16.968	0	0	0	0	0	0	0	0	0	2
120	1.2	0	0	0	0	0	0	0	0	0	0	0	0	0	0	0	0	0	0	0	0	0	0	0	0	0	0	0	0	0	0	0	0	0	0	0	0	0	0	0	0	0	0	10.996	-10.996	19.046	0	0	0	0	0	0	0	0	0	0	0	0	0	0	0	0	0	0	2
121	1.21	0	0	0	0	0	0	0	0	0	0	0	0	0	-1	0	-2.0372	-17.821	16.895	0	0	0	0	0	0	0	0	0	0	0	0	0	0	0	0	0	0	0	0	0	0	0	0	0	0	0	0	0	0	0	-1	0	-2.0278	-17.891	16.968	0	0	0	0	0	0	0	0	0	2
122	1.22	0	0	0	0	0	0	0	0	0	0	0	0	0	0	0	0	0	0	0	0	0	0	0	0	0	0	0	0	0	0	0	0	0	0	0	0	0	0	0	0	-1	0	-2.1508	-17.769	16.797	0	0	0	0	-1	0	-2.0278	-17.891	16.968	0	0	0	0	0	0	0	0	0	2
123	1.23	0	0	0	0	0	0	0	0	0	0	0	0	0	0	0	0	0	0	0	0	0	0	0	0	10.989	-10.989	19.033	0	0	0	0	0	0	0	0	0	0	0	0	0	0	0	0	0	0	0	0	0	0	0	0	0	0	0	0	0	0	0	0	0	0	0	0	0
124	1.24	0	0	0	0	0	0	0	0	0	0	0	0	0	0	0	0	0	0	0	0	0	0	0	0	0	0	0	0	0	0	0	0	0	0	0	0	0	0	0	0	0	0	0	0	0	0	0	0	0	-1	0	-2.0278	-17.891	16.968	0	0	0	0	0	0	0	0	0	2
125	1.25	0	0	0	0	0	0	0	0	0	0	0	0	0	0	0	0	0	0	0	0	0	0	0	0	0	0	0	0	0	0	0	0	0	0	0	0	0	0	0	0	0	0	0	0	0	0	0	0	0	-1	0	-2.0278	-17.891	16.968	0	0	0	0	0	0	0	0	0	0
126	1.26	0	0	0	0	0	0	0	0	0	0	0	0	0	0	0	0	0	0	0	0	0	0	0	0	0	0	0	0	0	0	0	0	0	0	0	0	0	0	0	0	0	0	0	0	0	0	0	0	0	0	0	0	0	0	0	0	0	1	0	0	17.47	2.0148	16.554	2
127	1.27	0	0	0	0	0	0	0	0	0	0	0	0	0	-1	0	-2.0366	-17.816	16.89	0	0	0	0	0	0	0	0	0	0	0	0	0	0	0	0	0	0	0	0	0	0	0	0	10.996	-10.996	19.046	0	0	0	0	-1	0	-2.0278	-17.891	16.968	0	0	0	0	0	0	0	0	0	0
128	1.28	0	0	0	0	0	0	0	0	0	0	0	0	0	0	0	0	0	0	0	0	0	0	0	0	0	0	0	0	0	0	0	0	0	0	0	0	0	0	0	0	0	0	0	0	0	0	0	0	0	-1	0	-2.0278	-17.891	16.968	0	0	0	0	0	0	0	0	0	2
129	1.29	0	0	0	0	0	0	10.917	-10.917	18.908	0	0	0	0	0	0	0	0	0	0	0	0	0	0	0	0	0	0	0	0	0	0	0	0	0	0	0	0	0	0	0	0	0	0	0	0	0	0	0	0	-1	0	-2.0278	-17.891	16.968	0	0	0	0	0	0	0	0	0	2
130	1.3	0	0	0	0	0	0	0	0	0	0	0	0	0	0	0	0	0	0	0	0	0	0	0	0	0	0	0	0	0	0	0	0	0	0	0	0	0	0	0	0	0	0	0	0	0	0	0	0	0	-1	0	-2.0278	-17.891	16.968	0	0	0	0	0	0	0	0	0	0
131	1.31	0	0	0	0	0	0	0	0	0	0	0	0	0	0	0	0	0	0	0	0	0	0	0	0	0	0	0	0	0	0	0	0	0	0	0	0	0	0	0	1	0	0	17.883	2.027	16.961	0	0	0	0	0	0	0	0	0	0	0	0	0	0	0	0	0	0	2
132	1.32	0	0	0	0	0	0	0	0	0	0	0	0	0	0	0	0	0	0	0	0	0	0	0	0	0	0	0	0	0	0	0	0	0	0	0	0	0	0	0	0	0	0	10.996	-10.996	19.046	0	0	0	0	0	0	0	0	0	0	0	0	0	0	0	0	0	0	0
133	1.33	0	0	0	0	-1	0	-2.0364	-17.814	16.888	0	0	0	0	0	0	0	0	0	0	0	0	0	0	0	0	0	0	0	0	0	0	0	0	0	0	0	0	0	0	0	0	0	0	0	0	0	0	0	0	-1	0	-2.0278	-17.891	16.968	0	0	0	0	0	0	0	0	0	0
134	1.34	0	0	0	0	0	0	0	0	0	0	0	0	0	0	0	0	0	0	0	0	0	0	0	0	0	0	0	0	0	0	0	0	0	0	0	0	0	0	0	0	-1	0	-2.1508	-17.769	16.797	0	0	0	0	-1	0	-2.0278	-17.891	16.968	0	0	0	0	0	0	0	0	0	2
135	1.35	0	0	0	0	0	0	0	0	0	0	0	0	0	0	0	0	0	0	0	0	0	0	0	0	0	0	0	0	0	0	0	-1	0	-2.0265	-17.879	16.957	0	0	0	0	0	0	0	0	0	0	0	0	0	-1	0	-2.0278	-17.891	16.968	0	0	0	0	0	0	0	0	0	2
136	1.36	0	0	0	0	0	0	0	0	0	0	0	0	0	0	0	0	0	0	0	0	0	0	0	0	0	0	0	0	0	0	0	0	0	0	0	0	0	0	0	0	0	0	0	0	0	0	0	0	0	0	0	0	0	0	0	0	0	0	0	0	0	0	0	2
137	1.37	0	0	0	0	0	0	0	0	0	0	0	0	0	0	0	0	0	0	0	0	0	0	0	0	0	0	0	0	0	0	0	0	0	0	0	0	0	0	0	0	0	0	10.996	-10.996	19.046	0	0	0	0	-1	0	-2.0278	-17.891	16.968	0	0	0	0	0	0	0	0	0	2
138	1.38	0	0	0	0	-1	0	-2.0364	-17.814	16.888	0	0	0	0	0	0	0	0	0	0	0	0	0	0	0	0	0	0	0	0	0	0	0	0	0	0	0	0	0	0	0	0	0	0	0	0	0	0	0	0	-1	0	-2.0278	-17.891	16.968	0	0	0	0	0	0	0	0	0	2
139	1.39	0	0	0	0	0	0	0	0	0	0	0	0	0	0	0	0	0	0	0	0	0	0	0	0	10.989	-10.989	19.033	0	0	0	0	0	0	0	0	0	0	0	0	0	0	0	10.996	-10.996	19.046	0	0	0	0	-1	0	-2.0278	-17.891	16.968	0	0	0	1	0	0	17.47	2.0148	16.554	2
140	1.4	0	0	0	0	0	0	0	0	0	0	0	0	0	0	0	0	0	0	0	0	0	0	0	0	0	0	0	0	0	0	0	0	0	0	0	0	0	0	0	0	-1	0	-2.0279	-17.891	16.969	0	0	0	0	-1	0	-2.0278	-17.891	16.968	0	0	0	0	0	0	0	0	0	0
141	1.41	0	0	0	0	0	0	0	0	0	0	0	0	0	0	0	0	0	0	0	0	0	0	0	0	0	0	0	0	0	0	0	0	0	0	0	0	0	0	0	0	0	0	0	0	0	0	0	0	0	0	0	0	0	0	0	0	0	0	0	0	0	0	0	2
142	1.42	0	0	0	0	0	0	0	0	0	0	0	0	0	0	0	0	0	0	0	0	0	0	0	0	0	0	0	0	0	0	0	0	0	0	0	0	0	0	0	0	-1	0	-2.1508	-17.769	16.797	0	0	0	0	-1	0	-2.0278	-17.891	16.968	0	0	0	1	0	0	17.47	2.0148	16.554	0
143	1.43	0	0	0	0	0	0	0	0	0	0	0	0	0	0	0	0	0	0	0	0	0	0	0	0	0	0	0	0	0	0	1	0	0	17.883	2.027	16.961	0	0	0	0	0	0	0	0	0	0	0	0	0	-1	0	-2.0278	-17.891	16.968	0	0	0	0	0	0	0	0	0	2
144	1.44	0	0	0	0	0	0	0	0	0	0	0	0	0	0	0	0	0	0	0	0	0	0	0	0	0	0	0	0	0	0	1	0	0	17.883	2.027	16.961	0	0	0	0	0	0	10.996	-10.996	19.046	0	0	0	0	-1	0	-2.0278	-17.891	16.968	0	0	0	0	0	0	0	0	0	2
145	1.45	0	0	0	0	0	0	0	0	0	0	0	0	0	0	0	0	0	0	0	0	0	0	0	0	0	0	0	0	0	0	0	-1	0	-2.0265	-17.879	16.957	0	0	0	0	0	0	0	0	0	0	0	0	0	0	0	0	0	0	0	0	0	0	0	0	0	0	0	2
146	1.46	0	0	0	0	0	0	0	0	0	0	0	0	0	0	0	0	0	0	0	0	0	0	0	0	10.989	-10.989	19.033	0	0	0	0	0	0	0	0	0	0	0	0	0	0	0	0	0	0	0	0	0	0	0	0	0	0	0	0	0	0	1	0	0	17.47	2.0148	16.554	2
147	1.47	0	0	0	0	-1	0	-2.0364	-17.814	16.888	0	0	0	0	0	0	0	0	0	0	0	0	0	0	0	0	0	0	0	0	0	0	0	0	0	0	0	0	0	0	0	0	0	0	0	0	0	0	0	0	-1	0	-2.0278	-17.891	16.968	0	0	0	0	0	0	0	0	0	0
148	1.48	0	0	0	0	0	0	0	0	0	0	0	0	0	0	0	0	0	0	0	0	0	0	0	0	0	0	0	0	0	0	0	0	0	0	0	0	0	0	0	0	0	0	0	0	0	0	0	0	0	0	0	0	0	0	0	0	0	0	0	0	0	0	0	2
149	1.49	0	0	0	0	0	0	0	0	0	0	0	0	0	0	0	0	0	0	0	0	0	0	0	0	0	0	0	0	0	0	0	0	0	0	0	0	0	0	0	0	0	0	10.996	-10.996	19.046	0	0	0	0	-1	0	-2.0278	-17.891	16.968	0	0	0	0	0	0	0	0	0	2
150	1.5	0	0	0	0	0	0	0	0	0	0	0	0	0	0	0	0	0	0	0	0	0	0	0	0	0	0	0	0	0	0	0	-1	0	-2.0265	-17.879	16.957	0	0	0	0	0	0	0	0	0	0	0	0	0	0	0	0	0	0	0	0	0	0	0	0	0	0	0	0
151	1.51	0	0	0	0	0	0	0	0	0	0	0	0	0	0	0	0	0	0	0	0	0	0	0	0	0	0	0	0	0	0	0	0	0	0	0	0	0	0	0	0	0	0	10.996	-10.996	19.046	0	0	0	0	-1	0	-2.0278	-17.891	16.968	0	0	0	0	0	0	0	0	0	2
152	1.52	0	0	0	0	0	0	0	0	0	0	0	0	0	0	0	0	0	0	0	0	0	0	0	0	0	0	0	0	0	0	0	0	0	0	0	0	0	0	0	0	0	0	0	0	0	0	0	0	0	0	0	0	0	0	0	0	0	0	0	0	0	0	0	2
153	1.53	0	0	0	0	-1	0	-2.0364	-17.814	16.888	0	0	0	0	0	0	0	0	0	0	0	0	0	0	0	10.989	-10.989	19.033	0	0	0	0	0	0	0	0	0	0	0	0	0	0	0	0	0	0	0	0	0	0	-1	0	-2.0278	-17.891	16.968	0	0	0	0	0	0	0	0	0	2
154	1.54	0	0	0	0	0	0	0	0	0	0	0	0	0	0	0	0	0	0	0	0	0	0	0	0	0	0	0	0	0	0	0	0	0	0	0	0	0	0	0	0	0	0	0	0	0	0	0	0	0	0	0	0	0	0	0	0	0	0	0	0	0	0	0	2
155	1.55	0	0	0	0	0	0	0	0	0	0	0	0	0	0	0	0	0	0	0	0	0	0	0	0	0	0	0	0	0	0	0	0	0	0	0	0	0	0	0	0	0	0	0	0	0	0	0	0	0	-1	0	-2.0278	-17.891	16.968	0	0	0	0	0	0	0	0	0	2
156	1.56	0	0	0	0	0	0	0	0	0	0	0	0	0	0	0	0	0	0	0	0	0	0	0	0	0	0	0	0	0	0	0	0	0	0	0	0	0	0	0	0	0	0	0	0	0	0	0	0	0	-1	0	-2.0278	-17.891	16.968	0	0	0	0	0	0	0	0	0	0
157	1.57	0	0	0	0	0	0	0	0	0	0	0	0	0	0	0	0	0	0	0	0	0	0	0	0	0	0	0	0	0	0	0	0	0	0	0	0	0	0	0	0	0	0	10.996	-10.996	19.046	0	0	0	0	-1	0	-2.0278	-17.891	16.968	0	0	0	0	0	0	0	0	0	2
158	1.58	0	0	0	0	0	0	0	0	0	0	0	0	0	0	0	0	0	0	0	0	0	0	0	0	0	0	0	0	0	0	0	0	0	0	0	0	0	0	0	0	0	0	0	0	0	0	0	0	0	0	0	0	0	0	0	0	0	0	0	0	0	0	0	0
159	1.59	0	0	0	0	0	0	0	0	0	0	0	0	0	0	0	0	0	0	0	0	0	0	0	0	0	0	0	0	0	0	1	0	0	17.883	2.027	16.961	0	0	0	0	0	0	0	0	0	0	0	0	0	-1	0	-2.0278	-17.891	16.968	0	0	0	0	0	0	0	0	0	2
160	1.6	0	0	0	0	0	0	0	0	0	0	0	0	0	0	0	0	0	0	0	0	0	0	0	0	0	0	0	0	0	0	0	0	0	0	0	0	0	0	0	0	0	0	0	0	0	0	0	0	0	-1	0	-2.0278	-17.891	16.968	0	0	0	0	0	0	0	0	0	0
161	1.61	0	0	0	0	0	0	0	0	0	0	0	0	0	0	0	0	0	0	0	0	0	0	0	0	0	0	0	0	0	0	0	0	0	0	0	0	0	0	0	0	0	0	0	0	0	0	0	0	0	-1	0	-2.0278	-17.891	16.968	0	0	0	1	0	0	17.47	2.0148	16.554	0
162	1.62	0	0	0	0	0	0	0	0	0	0	0	0	0	0	0	0	0	0	0	0	0	0	0	0	0	0	0	0	0	0	0	0	0	0	0	0	0	0	0	0	0	0	10.996	-10.996	19.046	0	0	0	0	-1	0	-2.0278	-17.891	16.968	0	0	0	0	0	0	0	0	0	0
163	1.63	0	0	0	0	0	0	0	0	0	0	0	0	0	0	0	0	0	0	0	0	0	0	0	0	0	0	0	0	0	0	0	0	0	0	0	0	0	0	0	0	0	0	0	0	0	0	0	0	0	-1	0	-2.0278	-17.891	16.968	0	0	0	1	0	0	17.47	2.0148	16.554	0
164	1.64	0	0	0	0	0	0	0	0	0	0	0	0	0	0	0	0	0	0	0	0	0	0	0	0	0	0	0	0	0	0	0	0	0	0	0	0	0	0	0	0	0	0	10.996	-10.996	19.046	0	0	0	0	-1	0	-2.0278	-17.891	16.968	0	0	0	0	0	0	0	0	0	2
165	1.65	0	0	0	0	0	0	0	0	0	0	0	0	0	0	0	0	0	0	0	0	0	0	0	0	0	0	0	0	0	0	0	0	0	0	0	0	0	0	0	0	0	0	10.996	-10.996	19.046	0	0	0	0	0	0	0	0	0	0	0	0	0	0	0	0	0	0	2
166	1.66	0	0	0	0	0	0	0	0	0	0	0	0	0	0	0	0	0	0	0	0	0	0	0	0	0	0	0	0	0	0	1	0	0	17.883	2.027	16.961	0	0	0	0	0	0	0	0	0	0	0	0	0	-1	0	-2.0278	-17.891	16.968	0	0	0	0	0	0	0	0	0	0
167	1.67	0	0	0	0	-1	0	-2.0364	-17.814	16.888	0	0	0	0	0	0	0	0	0	0	0	0	0	0	0	0	0	0	0	0	0	0	0	0	0	0	0	0	0	0	0	-1	0	-2.1508	-17.769	16.797	0	0	0	0	-1	0	-2.0278	-17.891	16.968	0	0	0	0	0	0	0	0	0	0
168	1.68	0	0	0	0	0	0	0	0	0	0	0	0	0	0	0	0	0	0	0	0	0	0	0	0	0	0	0	0	0	0	0	0	0	0	0	0	0	0	0	0	0	0	0	0	0	0	0	0	0	-1	0	-2.0278	-17.891	16.968	0	0	0	0	0	0	0	0	0	2
169	1.69	0	0	0	0	0	0	0	0	0	0	0	0	0	0	0	0	0	0	0	0	0	0	0	0	0	0	0	0	0	0	0	0	0	0	0	0	0	0	0	0	0	0	0	0	0	0	0	0	0	-1	0	-2.0278	-17.891	16.968	0	0	0	0	0	0	0	0	0	2
170	1.7	0	0	0	0	0	0	0	0	0	0	0	0	0	0	0	0	0	0	0	0	0	0	0	0	0	0	0	0	0	0	1	0	0	17.883	2.027	16.961	0	0	0	0	0	0	10.996	-10.996	19.046	0	0	0	0	0	0	0	0	0	0	0	0	0	0	0	0	0	0	0
171	1.71	0	0	0	0	0	0	0	0	0	0	0	0	0	0	0	0	0	0	0	0	0	0	0	0	0	0	0	0	0	0	0	0	0	0	0	0	0	0	0	0	0	0	0	0	0	0	0	0	0	-1	0	-2.0278	-17.891	16.968	0	0	0	0	0	0	0	0	0	0
172	1.72	0	0	0	0	0	0	0	0	0	0	0	0	0	0	0	0	0	0	0	0	0	0	-1	0	-2.0266	-17.88	16.957	0	0	0	0	0	0	0	0	0	0	0	0	0	0	0	10.996	-10.996	19.046	0	0	0	0	-1	0	-2.0278	-17.891	16.968	0	0	0	0	0	0	0	0	0	0
173	1.73	0	0	0	0	0	0	0	0	0	0	0	0	0	0	0	0	0	0	0	0	0	0	0	0	0	0	0	0	0	0	0	0	0	0	0	0	0	0	0	0	0	0	0	0	0	0	0	0	0	-1	0	-2.0278	-17.891	16.968	0	0	0	1	0	0	17.47	2.0148	16.554	0
174	1.74	0	0	0	0	0	0	0	0	0	0	0	0	0	0	0	0	0	0	0	0	0	0	0	0	0	0	0	0	0	0	0	0	0	0	0	0	0	0	0	0	0	0	10.996	-10.996	19.046	0	0	0	0	-1	0	-2.0278	-17.891	16.968	0	0	0	1	0	0	17.47	2.0148	16.554	0
175	1.75	0	0	0	0	0	0	0	0	0	0	0	0	0	0	0	0	0	0	0	0	0	0	0	0	0	0	0	0	0	0	0	0	0	0	0	0	0	0	0	0	0	0	10.996	-10.996	19.046	0	0	0	0	-1	0	-2.0278	-17.891	16.968	0	0	0	0	0	0	0	0	0	0
176	1.76	0	0	0	0	0	0	0	0	0	0	0	0	0	0	0	0	0	0	0	0	0	0	0	0	10.989	-10.989	19.033	0	0	0	0	0	0	0	0	0	0	0	0	0	0	0	0	0	0	0	0	0	0	-1	0	-2.0278	-17.891	16.968	0	0	0	0	0	0	0	0	0	0
177	1.77	0	0	0	0	0	0	0	0	0	0	0	0	0	0	0	0	0	0	0	0	0	0	0	0	0	0	0	0	0	0	0	0	0	0	0	0	0	0	0	0	0	0	10.996	-10.996	19.046	0	0	0	0	-1	0	-2.0278	-17.891	16.968	0	0	0	0	0	0	0	0	0	0
178	1.78	0	0	0	0	0	0	0	0	0	0	0	0	0	0	0	0	0	0	0	0	0	0	0	0	0	0	0	0	0	0	0	0	0	0	0	0	0	0	0	0	0	0	10.996	-10.996	19.046	0	0	0	0	-1	0	-2.0278	-17.891	16.968	0	0	0	0	0	0	0	0	0	0
179	1.79	0	0	0	0	-1	0	-2.0364	-17.814	16.888	0	0	0	0	0	0	0	0	0	0	0	0	0	0	0	0	0	0	0	0	0	0	0	0	0	0	0	0	0	0	0	0	0	10.996	-10.996	19.046	0	0	0	0	-1	0	-2.0278	-17.891	16.968	0	0	0	0	0	0	10.93	-10.93	18.931	2
180	1.8	0	0	0	0	0	0	0	0	0	0	0	0	0	0	0	0	0	0	0	0	0	0	0	0	0	0	0	0	0	0	0	0	0	0	0	0	0	0	0	0	0	0	10.996	-10.996	19.046	0	0	0	0	-1	0	-2.0278	-17.891	16.968	0	0	0	0	0	0	10.93	-10.93	18.931	0
181	1.81	0	0	0	0	0	0	0	0	0	0	0	0	0	0	0	0	0	0	0	0	0	0	0	0	10.989	-10.989	19.033	0	0	0	0	0	0	0	0	0	0	0	0	0	0	0	0	0	0	0	0	0	0	0	0	0	0	0	0	0	0	1	0	0	17.47	2.0148	16.554	0
182	1.82	0	0	0	0	0	0	0	0	0	0	0	0	0	0	0	0	0	0	0	0	0	0	0	0	0	0	0	0	0	0	0	0	0	0	0	0	0	0	0	0	0	0	0	0	0	0	0	0	0	-1	0	-2.0278	-17.891	16.968	0	0	0	0	0	0	0	0	0	2
183	1.83	0	0	0	0	0	0	0	0	0	0	0	0	0	0	0	0	0	0	0	0	0	0	0	0	0	0	0	0	0	0	0	0	0	0	0	0	0	0	0	0	0	0	10.996	-10.996	19.046	0	0	0	0	-1	0	-2.0278	-17.891	16.968	0	0	0	1	0	0	17.47	2.0148	16.554	0
184	1.84	0	0	0	0	0	0	0	0	0	0	0	0	0	0	0	0	0	0	0	0	0	0	0	0	10.989	-10.989	19.033	0	0	0	0	0	0	0	0	0	0	0	0	0	0	0	10.996	-10.996	19.046	0	0	0	0	-1	0	-2.0278	-17.891	16.968	0	0	0	0	0	0	0	0	0	2
185	1.85	0	0	0	0	0	0	0	0	0	0	0	0	0	0	0	0	0	0	0	0	0	0	0	0	0	0	0	0	0	0	0	0	0	0	0	0	0	0	0	0	0	0	10.996	-10.996	19.046	0	0	0	0	-1	0	-2.0278	-17.891	16.968	0	0	0	0	0	0	0	0	0	0
186	1.86	0	0	0	0	0	0	0	0	0	0	0	0	0	0	0	0	0	0	0	0	0	0	0	0	0	0	0	0	0	0	0	0	0	0	0	0	0	0	0	0	0	0	10.996	-10.996	19.046	0	0	0	0	-1	0	-2.0278	-17.891	16.968	0	0	0	1	0	0	17.47	2.0148	16.554	0
187	1.87	0	0	0	0	0	0	0	0	0	0	0	0	0	0	0	0	0	0	0	0	0	0	0	0	0	0	0	0	0	0	0	0	0	0	0	0	0	0	0	0	0	0	10.996	-10.996	19.046	0	0	0	0	0	0	0	0	0	0	0	0	0	0	0	0	0	0	0
188	1.88	0	0	0	0	0	0	0	0	0	0	0	0	0	0	0	0	0	0	0	0	0	0	0	0	10.989	-10.989	19.033	0	0	0	0	0	0	0	0	0	0	0	0	0	0	0	10.996	-10.996	19.046	0	0	0	0	0	0	0	0	0	0	0	0	0	0	0	0	0	0	0
189	1.89	0	0	0	0	0	0	0	0	0	0	0	0	0	0	0	0	0	0	0	0	0	0	0	0	0	0	0	0	0	0	1	0	0	17.883	2.027	16.961	0	0	0	0	0	0	10.996	-10.996	19.046	0	0	0	0	0	0	0	0	0	0	0	0	0	0	0	0	0	0	2
190	1.9	0	0	0	0	0	0	0	0	0	0	0	0	0	0	0	0	0	0	0	0	0	0	0	0	0	0	0	0	0	0	0	0	0	0	0	0	0	0	0	0	0	0	0	0	0	0	0	0	0	-1	0	-2.0278	-17.891	16.968	0	0	0	1	0	0	17.47	2.0148	16.554	2
191	1.91	0	0	0	0	0	0	0	0	0	0	0	0	0	0	0	0	0	0	0	0	0	0	0	0	0	0	0	0	0	0	0	0	0	0	0	0	0	0	0	0	0	0	10.996	-10.996	19.046	0	0	0	0	-1	0	-2.0278	-17.891	16.968	0	0	0	0	0	0	0	0	0	2
192	1.92	0	0	0	0	0	0	0	0	0	0	0	0	0	0	0	0	0	0	0	0	0	0	0	0	0	0	0	0	0	0	0	0	0	0	0	0	0	0	0	0	0	0	10.996	-10.996	19.046	0	0	0	0	-1	0	-2.0278	-17.891	16.968	0	0	0	0	0	0	0	0	0	0
193	1.93	0	0	0	0	0	0	0	0	0	0	0	0	0	0	0	0	0	0	0	0	0	0	0	0	0	0	0	0	0	0	0	0	0	0	0	0	0	0	0	0	0	0	0	0	0	0	0	0	0	0	0	0	0	0	0	0	0	0	0	0	0	0	0	0
194	1.94	0	0	0	0	0	0	0	0	0	0	0	0	0	0	0	0	0	0	0	0	0	0	0	0	0	0	0	0	0	0	0	0	0	0	0	0	0	0	0	0	0	0	10.996	-10.996	19.046	0	0	0	0	-1	0	-2.0278	-17.891	16.968	0	0	0	0	0	0	0	0	0	2
195	1.95	0	0	0	0	0	0	0	0	0	0	0	0	0	0	0	0	0	0	0	0	0	0	0	0	0	0	0	0	0	0	0	0	0	0	0	0	0	0	0	0	0	0	10.996	-10.996	19.046	0	0	0	0	0	0	0	0	0	0	0	0	0	0	0	0	0	0	2
196	1.96	0	0	0	0	0	0	0	0	0	0	0	0	0	0	0	0	0	0	0	0	0	0	0	0	0	0	0	0	0	0	0	0	0	0	0	0	0	0	0	0	0	0	0	0	0	0	0	0	0	-1	0	-2.0278	-17.891	16.968	0	0	0	1	0	0	17.471	2.0135	16.556	0
197	1.97	0	0	0	0	-1	0	-2.0364	-17.814	16.888	0	0	0	0	-1	0	-2.0366	-17.816	16.89	0	0	0	0	0	0	0	0	0	0	0	0	0	0	0	0	0	0	0	0	0	0	0	0	10.996	-10.996	19.046	0	0	0	0	0	0	0	0	0	0	0	0	0	0	0	0	0	0	0
198	1.98	0	0	0	0	0	0	0	0	0	0	0	0	0	0	0	0	0	0	0	0	0	0	0	0	0	0	0	0	0	0	0	0	0	0	0	0	0	0	0	0	0	0	0	0	0	0	0	0	0	-1	0	-2.0278	-17.891	16.968	0	0	0	0	0	0	0	0	0	2
199	1.99	0	0	0	0	0	0	0	0	0	0	0	0	0	0	0	0	0	0	0	0	0	0	0	0	0	0	0	0	0	0	0	0	0	0	0	0	0	0	0	0	0	0	0	0	0	0	0	0	0	-1	0	-2.0278	-17.891	16.968	0	0	0	0	0	0	0	0	0	0
200	2	0	0	0	0	0	0	0	0	0	0	0	0	0	0	0	0	0	0	0	0	0	0	0	0	0	0	0	0	0	0	0	0	0	0	0	0	0	0	0	0	0	0	10.996	-10.996	19.046	0	0	0	0	0	0	0	0	0	0	0	0	1	0	0	17.47	2.0148	16.554	2
201	2.01	0	0	0	0	0	0	0	0	0	0	0	0	0	0	0	0	0	0	0	0	0	0	0	0	10.989	-10.989	19.033	0	0	0	0	0	0	10.991	-10.991	19.037	0	0	0	0	0	0	0	0	0	0	0	0	0	-1	0	-2.0278	-17.891	16.968	0	0	0	0	0	0	10.93	-10.93	18.931	0
202	2.02	0	0	0	0	-1	0	-2.0364	-17.814	16.888	0	0	0	0	-1	0	-2.0366	-17.816	16.89	0	0	0	0	0	0	0	0	0	0	0	0	0	0	0	0	0	0	0	0	0	0	0	0	10.996	-10.996	19.046	0	0	0	0	0	0	0	0	0	0	0	0	0	0	0	0	0	0	2
203	2.03	0	0	0	0	0	0	0	0	0	0	0	0	0	0	0	0	0	0	0	0	0	0	0	0	10.989	-10.989	19.033	0	0	0	0	0	0	0	0	0	0	0	0	0	0	0	0	0	0	0	0	0	0	-1	0	-2.0278	-17.891	16.968	0	0	0	0	0	0	0	0	0	0
204	2.04	0	0	0	0	-1	0	-2.0364	-17.814	16.888	0	0	0	0	0	0	0	0	0	0	0	0	0	0	0	10.989	-10.989	19.033	0	0	0	1	0	0	17.883	2.027	16.961	0	0	0	0	0	0	0	0	0	0	0	0	0	0	0	0	0	0	0	0	0	0	0	0	0	0	0	0
205	2.05	0	0	0	0	0	0	0	0	0	0	0	0	0	0	0	0	0	0	0	0	0	0	0	0	0	0	0	0	0	0	0	0	0	0	0	0	0	0	0	0	-1	0	-2.1508	-17.769	16.797	0	0	0	0	0	0	0	0	0	0	0	0	0	0	0	0	0	0	0
206	2.06	0	0	0	0	0	0	0	0	0	0	0	0	0	0	0	0	0	0	0	0	0	0	0	0	10.989	-10.989	19.033	0	0	0	0	0	0	0	0	0	0	0	0	0	0	0	0	0	0	0	0	0	0	0	0	0	0	0	0	0	0	0	0	0	0	0	0	2
207	2.07	0	0	0	0	-1	0	-2.0364	-17.814	16.888	0	0	0	0	0	0	0	0	0	0	0	0	0	0	0	0	0	0	0	0	0	0	0	0	0	0	0	0	0	0	0	0	0	10.996	-10.996	19.046	0	0	0	0	-1	0	-2.0278	-17.891	16.968	0	0	0	0	0	0	0	0	0	0
208	2.08	0	0	0	0	0	0	0	0	0	0	0	0	0	0	0	0	0	0	0	0	0	0	0	0	0	0	0	0	0	0	0	0	0	0	0	0	0	0	0	0	0	0	0	0	0	0	0	0	0	-1	0	-2.0278	-17.891	16.968	0	0	0	0	0	0	0	0	0	2
209	2.09	0	0	0	0	0	0	0	0	0	0	0	0	0	0	0	0	0	0	0	0	0	0	0	0	0	0	0	0	0	0	0	0	0	0	0	0	0	0	0	0	0	0	10.996	-10.996	19.046	0	0	0	0	-1	0	-2.0278	-17.891	16.968	0	0	0	0	0	0	0	0	0	2
210	2.1	0	0	0	0	0	0	0	0	0	0	0	0	0	0	0	0	0	0	0	0	0	0	0	0	0	0	0	0	0	0	0	0	0	0	0	0	0	0	0	0	0	0	10.996	-10.996	19.046	0	0	0	0	-1	0	-2.0278	-17.891	16.968	0	0	0	0	0	0	0	0	0	0
211	2.11	0	0	0	0	0	0	0	0	0	0	0	0	0	0	0	0	0	0	0	0	0	0	0	0	10.989	-10.989	19.033	0	0	0	0	0	0	0	0	0	0	0	0	0	0	0	0	0	0	0	0	0	0	0	0	0	0	0	0	0	0	1	0	0	17.47	2.0148	16.554	2
212	2.12	0	0	0	0	0	0	0	0	0	0	0	0	0	0	0	0	0	0	0	0	0	0	0	0	0	0	0	0	0	0	0	0	0	0	0	0	0	0	0	0	0	0	10.996	-10.996	19.046	0	0	0	0	-1	0	-2.0278	-17.891	16.968	0	0	0	0	0	0	0	0	0	0
213	2.13	0	0	0	0	0	0	0	0	0	0	0	0	0	0	0	0	0	0	0	0	0	0	0	0	0	0	0	0	0	0	0	0	0	0	0	0	0	0	0	0	0	0	10.996	-10.996	19.046	0	0	0	0	-1	0	-2.0278	-17.891	16.968	0	0	0	1	0	0	17.47	2.0148	16.554	0
214	2.14	0	0	0	0	-1	0	-2.0364	-17.814	16.888	0	0	0	0	0	0	0	0	0	0	0	0	0	0	0	10.989	-10.989	19.033	0	0	0	0	0	0	0	0	0	0	0	0	0	0	0	0	0	0	0	0	0	0	0	0	0	0	0	0	0	0	0	0	0	0	0	0	2
215	2.15	0	0	0	0	0	0	0	0	0	0	0	0	0	-1	0	-2.0366	-17.816	16.89	0	0	0	0	0	0	0	0	0	0	0	0	0	0	0	0	0	0	0	0	0	0	0	0	10.996	-10.996	19.046	0	0	0	0	-1	0	-2.0278	-17.891	16.968	0	0	0	0	0	0	0	0	0	2
216	2.16	0	0	0	0	-1	0	-2.0364	-17.814	16.888	0	0	0	0	0	0	0	0	0	0	0	0	0	0	0	10.989	-10.989	19.033	0	0	0	1	0	0	17.883	2.027	16.961	0	0	0	0	0	0	10.996	-10.996	19.046	0	0	0	0	-1	0	-2.0278	-17.891	16.968	0	0	0	1	0	0	17.47	2.0148	16.554	0
217	2.17	0	0	0	0	0	0	0	0	0	0	0	0	0	0	0	0	0	0	0	0	0	0	0	0	0	0	0	0	0	0	0	0	0	0	0	0	0	0	0	0	-1	0	-2.1508	-17.769	16.797	0	0	0	0	-1	0	-2.0278	-17.891	16.968	0	0	0	0	0	0	0	0	0	0
218	2.18	0	0	0	0	0	0	0	0	0	0	0	0	0	0	0	0	0	0	0	0	0	0	0	0	0	0	0	0	0	0	1	0	0	17.883	2.027	16.961	0	0	0	0	0	0	0	0	0	0	0	0	0	-1	0	-2.0278	-17.891	16.968	0	0	0	0	0	0	0	0	0	2
219	2.19	0	0	0	0	0	0	0	0	0	0	0	0	0	0	0	0	0	0	0	0	0	0	0	0	0	0	0	0	0	0	0	0	0	0	0	0	0	0	0	0	0	0	10.996	-10.996	19.046	0	0	0	0	-1	0	-2.0278	-17.891	16.968	0	0	0	1	0	0	17.47	2.0148	16.554	0
220	2.2	0	0	0	0	0	0	0	0	0	0	0	0	0	0	0	0	0	0	0	0	0	0	0	0	0	0	0	0	0	0	0	-1	0	-2.0265	-17.879	16.957	0	0	0	0	0	0	0	0	0	0	0	0	0	-1	0	-2.0278	-17.891	16.968	0	0	0	0	0	0	0	0	0	0
221	2.21	0	0	0	0	0	0	0	0	0	0	0	0	0	0	0	0	0	0	0	0	0	0	0	0	0	0	0	0	0	0	1	0	0	17.883	2.027	16.961	0	0	0	0	0	0	0	0	0	0	0	0	0	-1	0	-2.0278	-17.891	16.968	0	0	0	0	0	0	0	0	0	2
222	2.22	0	0	0	0	-1	0	-2.0364	-17.814	16.888	0	0	0	0	-1	0	-2.0366	-17.816	16.89	0	0	0	0	0	0	0	0	0	0	0	0	0	0	0	0	0	0	0	0	0	0	0	0	10.996	-10.996	19.046	0	0	0	0	-1	0	-2.0278	-17.891	16.968	0	0	0	0	0	0	0	0	0	0
223	2.23	0	0	0	0	0	0	0	0	0	0	0	0	0	0	0	0	0	0	0	0	0	0	0	0	0	0	0	0	0	0	0	0	0	0	0	0	0	0	0	0	0	0	0	0	0	0	0	0	0	-1	0	-2.0278	-17.891	16.968	0	0	0	0	0	0	10.93	-10.93	18.931	0
224	2.24	0	0	0	0	0	0	0	0	0	0	0	0	0	0	0	0	0	0	0	0	0	0	0	0	0	0	0	0	0	0	0	0	0	0	0	0	0	0	0	0	0	0	10.996	-10.996	19.046	0	0	0	0	-1	0	-2.0278	-17.891	16.968	0	0	0	0	0	0	0	0	0	2
225	2.25	0	0	0	0	0	0	0	0	0	0	0	0	0	0	0	0	0	0	0	0	0	0	0	0	0	0	0	0	0	0	0	0	0	0	0	0	0	0	0	0	0	0	10.996	-10.996	19.046	0	0	0	0	0	0	0	0	0	0	0	0	0	0	0	0	0	0	0
226	2.26	0	0	0	0	0	0	0	0	0	0	0	0	0	0	0	0	0	0	0	0	0	0	0	0	10.989	-10.989	19.033	0	0	0	0	0	0	0	0	0	0	0	0	0	0	0	10.996	-10.996	19.046	0	0	0	0	0	0	0	0	0	0	0	0	1	0	0	17.47	2.0148	16.554	0
227	2.27	0	0	0	0	0	0	0	0	0	0	0	0	0	-1	0	-2.0366	-17.816	16.89	0	0	0	0	0	0	0	0	0	0	0	0	0	0	0	0	0	0	0	0	0	0	0	0	10.996	-10.996	19.046	0	0	0	0	-1	0	-2.0278	-17.891	16.968	0	0	0	0	0	0	0	0	0	2
228	2.28	0	0	0	0	0	0	0	0	0	0	0	0	0	0	0	0	0	0	0	0	0	0	0	0	0	0	0	0	0	0	0	0	0	0	0	0	0	0	0	0	0	0	0	0	0	0	0	0	0	-1	0	-2.0278	-17.891	16.968	0	0	0	1	0	0	17.47	2.0148	16.554	2
229	2.29	0	0	0	0	0	0	0	0	0	0	0	0	0	0	0	0	0	0	0	0	0	0	0	0	0	0	0	0	0	0	0	0	0	0	0	0	0	0	0	0	0	0	0	0	0	0	0	0	0	-1	0	-2.0278	-17.891	16.968	0	0	0	0	0	0	0	0	0	2
230	2.3	0	0	0	0	0	0	0	0	0	0	0	0	0	0	0	0	0	0	0	0	0	0	0	0	0	0	0	0	0	0	0	0	0	0	0	0	0	0	0	0	0	0	10.996	-10.996	19.046	0	0	0	0	0	0	0	0	0	0	0	0	0	0	0	0	0	0	0
231	2.31	0	0	0	0	0	0	0	0	0	0	0	0	0	-1	0	-2.0366	-17.816	16.89	0	0	0	0	0	0	0	0	0	0	0	0	0	0	0	0	0	0	0	0	0	0	0	0	0	0	0	0	0	0	0	-1	0	-2.0278	-17.891	16.968	0	0	0	1	0	0	17.47	2.0148	16.554	2
232	2.32	0	0	0	0	0	0	0	0	0	0	0	0	0	0	0	0	0	0	0	0	0	0	0	0	0	0	0	0	0	0	1	0	0	17.883	2.027	16.961	0	0	0	0	0	0	10.996	-10.996	19.046	0	0	0	0	-1	0	-2.0278	-17.891	16.968	0	0	0	0	0	0	0	0	0	0
233	2.33	0	0	0	0	0	0	0	0	0	0	0	0	0	-1	0	-2.0366	-17.816	16.89	0	0	0	0	0	0	0	0	0	0	0	0	0	0	0	0	0	0	0	0	0	0	0	0	10.996	-10.996	19.046	0	0	0	0	-1	0	-2.0278	-17.891	16.968	0	0	0	1	0	0	17.47	2.0148	16.554	2
234	2.34	0	0	0	0	0	0	0	0	0	0	0	0	0	0	0	0	0	0	0	0	0	0	0	0	10.989	-10.989	19.033	0	0	0	0	0	0	0	0	0	0	0	0	0	0	0	10.996	-10.996	19.046	0	0	0	0	-1	0	-2.0278	-17.891	16.968	0	0	0	0	0	0	0	0	0	2
235	2.35	0	0	0	0	0	0	0	0	0	0	0	0	0	0	0	0	0	0	0	0	0	0	0	0	0	0	0	0	0	0	0	0	0	0	0	0	0	0	0	0	0	0	10.996	-10.996	19.046	0	0	0	0	-1	0	-2.0278	-17.891	16.968	0	0	0	0	0	0	0	0	0	0
236	2.36	0	0	0	0	0	0	0	0	0	0	0	0	0	0	0	0	0	0	0	0	0	0	0	0	0	0	0	0	0	0	0	0	0	0	0	0	0	0	0	0	0	0	0	0	0	0	0	0	0	-1	0	-2.0278	-17.891	16.968	0	0	0	0	0	0	0	0	0	0
237	2.37	0	0	0	0	0	0	0	0	0	0	0	0	0	0	0	0	0	0	0	0	0	0	0	0	0	0	0	0	0	0	0	0	0	0	0	0	0	0	0	0	0	0	10.996	-10.996	19.046	0	0	0	0	-1	0	-2.0278	-17.891	16.968	0	0	0	0	0	0	0	0	0	0
238	2.38	0	0	0	0	0	0	0	0	0	0	0	0	0	0	0	0	0	0	0	0	0	0	0	0	0	0	0	0	0	0	0	0	0	0	0	0	0	0	0	0	0	0	0	0	0	0	0	0	0	0	0	0	0	0	0	0	0	0	0	0	0	0	0	2
239	2.39	0	0	0	0	0	0	0	0	0	0	0	0	0	0	0	0	0	0	0	0	0	0	0	0	0	0	0	0	0	0	1	0	0	17.883	2.027	16.961	0	0	0	0	0	0	10.996	-10.996	19.046	0	0	0	0	0	0	0	0	0	0	0	0	0	0	0	0	0	0	2
240	2.4	0	0	0	0	0	0	0	0	0	0	0	0	0	-1	0	-2.0372	-17.821	16.895	0	0	0	0	0	0	0	0	0	0	0	0	0	0	0	0	0	0	0	0	0	0	-1	0	-2.0279	-17.891	16.969	0	0	0	0	-1	0	-2.0278	-17.891	16.968	0	0	0	0	0	0	0	0	0	0
241	2.41	0	0	0	0	0	0	0	0	0	0	0	0	0	0	0	0	0	0	0	0	0	0	0	0	0	0	0	0	0	0	0	0	0	0	0	0	0	0	0	0	0	0	10.996	-10.996	19.046	0	0	0	0	-1	0	-2.0278	-17.891	16.968	0	0	0	0	0	0	0	0	0	2
242	2.42	0	0	0	0	0	0	0	0	0	0	0	0	0	0	0	0	0	0	0	0	0	0	0	0	0	0	0	0	0	0	0	0	0	0	0	0	0	0	0	0	-1	0	-2.0279	-17.891	16.969	0	0	0	0	0	0	0	0	0	0	0	0	0	0	0	0	0	0	2
243	2.43	0	0	0	0	0	0	0	0	0	0	0	0	0	0	0	0	0	0	0	0	0	0	0	0	0	0	0	0	0	0	0	0	0	0	0	0	0	0	0	0	-1	0	-2.1508	-17.769	16.797	0	0	0	0	0	0	0	0	0	0	0	0	1	0	0	17.47	2.0148	16.554	2
244	2.44	0	0	0	0	0	0	0	0	0	0	0	0	0	0	0	0	0	0	0	0	0	0	0	0	10.989	-10.989	19.033	0	0	0	0	0	0	0	0	0	0	0	0	0	0	0	10.996	-10.996	19.046	0	0	0	0	-1	0	-2.0278	-17.891	16.968	0	0	0	0	0	0	0	0	0	0
245	2.45	0	0	0	0	0	0	0	0	0	0	0	0	0	0	0	0	0	0	0	0	0	0	0	0	0	0	0	0	0	0	0	0	0	0	0	0	0	0	0	0	0	0	10.996	-10.996	19.046	0	0	0	0	-1	0	-2.0278	-17.891	16.968	0	0	0	1	0	0	17.47	2.0148	16.554	2
246	2.46	0	0	0	0	0	0	0	0	0	0	0	0	0	0	0	0	0	0	0	0	0	0	0	0	10.989	-10.989	19.033	0	0	0	1	0	0	17.883	2.027	16.961	0	0	0	0	0	0	0	0	0	0	0	0	0	-1	0	-2.0278	-17.891	16.968	0	0	0	0	0	0	0	0	0	0
247	2.47	0	0	0	0	0	0	0	0	0	0	0	0	0	0	0	0	0	0	0	0	0	0	0	0	10.989	-10.989	19.033	0	0	0	0	0	0	0	0	0	0	0	0	0	0	0	10.996	-10.996	19.046	0	0	0	0	-1	0	-2.0278	-17.891	16.968	0	0	0	0	0	0	0	0	0	2
248	2.48	0	0	0	0	0	0	0	0	0	0	0	0	0	0	0	0	0	0	0	0	0	0	0	0	0	0	0	0	0	0	1	0	0	17.883	2.027	16.961	0	0	0	0	0	0	0	0	0	0	0	0	0	-1	0	-2.0278	-17.891	16.968	0	0	0	0	0	0	0	0	0	0
249	2.49	0	0	0	0	0	0	0	0	0	0	0	0	0	0	0	0	0	0	0	0	0	0	0	0	10.989	-10.989	19.033	0	0	0	1	0	0	17.883	2.027	16.961	0	0	0	0	0	0	0	0	0	0	0	0	0	-1	0	-2.0278	-17.891	16.968	0	0	0	1	0	0	17.47	2.0148	16.554	0
250	2.5	0	0	0	0	0	0	0	0	0	0	0	0	0	-1	0	-2.0366	-17.816	16.89	0	0	0	0	0	0	0	0	0	0	0	0	0	0	0	0	0	0	0	0	0	0	0	0	0	0	0	0	0	0	0	-1	0	-2.0278	-17.891	16.968	0	0	0	0	0	0	0	0	0	2
251	2.51	0	0	0	0	0	0	0	0	0	0	0	0	0	-1	0	-2.0372	-17.821	16.895	0	0	0	0	0	0	10.989	-10.989	19.033	0	0	0	0	0	0	0	0	0	0	0	0	0	0	0	0	0	0	0	0	0	0	0	0	0	0	0	0	0	0	0	0	0	0	0	0	2
252	2.52	0	0	0	0	0	0	0	0	0	0	0	0	0	0	0	0	0	0	0	0	0	0	0	0	0	0	0	0	0	0	0	0	0	0	0	0	0	0	0	0	-1	0	-2.1508	-17.769	16.797	0	0	0	0	-1	0	-2.0278	-17.891	16.968	0	0	0	1	0	0	17.47	2.0148	16.554	2
253	2.53	0	0	0	0	0	0	0	0	0	0	0	0	0	0	0	0	0	0	0	0	0	0	0	0	0	0	0	0	0	0	0	0	0	0	0	0	0	0	0	0	0	0	0	0	0	0	0	0	0	-1	0	-2.0278	-17.891	16.968	0	0	0	0	0	0	0	0	0	2
254	2.54	0	0	0	0	0	0	0	0	0	0	0	0	0	0	0	0	0	0	0	0	0	0	0	0	10.989	-10.989	19.033	0	0	0	0	0	0	0	0	0	0	0	0	0	0	0	10.996	-10.996	19.046	0	0	0	0	0	0	0	0	0	0	0	0	0	0	0	0	0	0	0
255	2.55	0	0	0	0	0	0	0	0	0	0	0	0	0	0	0	0	0	0	0	0	0	0	0	0	0	0	0	0	0	0	0	0	0	0	0	0	0	0	0	0	-1	0	-2.1508	-17.769	16.797	0	0	0	0	-1	0	-2.0278	-17.891	16.968	0	0	0	0	0	0	0	0	0	0
256	2.56	0	0	0	0	0	0	0	0	0	0	0	0	0	0	0	0	0	0	0	0	0	0	0	0	10.989	-10.989	19.033	0	0	0	0	0	0	0	0	0	0	0	0	0	0	0	0	0	0	0	0	0	0	-1	0	-2.0278	-17.891	16.968	0	0	0	1	0	0	17.47	2.0148	16.554	0
257	2.57	0	0	0	0	-1	0	-2.0364	-17.814	16.888	0	0	0	0	0	0	0	0	0	0	0	0	0	0	0	0	0	0	0	0	0	0	0	0	0	0	0	0	0	0	0	-1	0	-2.1508	-17.769	16.797	0	0	0	0	-1	0	-2.0278	-17.891	16.968	0	0	0	0	0	0	0	0	0	2
258	2.58	0	0	0	0	0	0	0	0	0	0	0	0	0	0	0	0	0	0	0	0	0	0	0	0	10.989	-10.989	19.033	0	0	0	1	0	0	17.883	2.027	16.961	0	0	0	0	0	0	0	0	0	0	0	0	0	0	0	0	0	0	0	0	0	1	0	0	17.47	2.0148	16.554	2
259	2.59	0	0	0	0	0	0	0	0	0	0	0	0	0	0	0	0	0	0	0	0	0	0	0	0	0	0	0	0	0	0	0	0	0	0	0	0	0	0	0	0	0	0	0	0	0	0	0	0	0	0	0	0	0	0	0	0	0	0	0	0	0	0	0	2
260	2.6	0	0	0	0	0	0	0	0	0	0	0	0	0	-1	0	-8.7632	-30.947	27.628	0	0	0	0	0	0	0	0	0	0	0	0	0	-1	0	-2.0265	-17.879	16.957	0	0	0	0	0	0	10.996	-10.996	19.046	0	0	0	0	-1	0	-2.0278	-17.891	16.968	0	0	0	0	0	0	0	0	0	2
261	2.61	0	0	0	0	0	0	0	0	0	0	0	0	0	0	0	0	0	0	0	0	0	0	0	0	10.989	-10.989	19.033	0	0	0	0	0	0	0	0	0	0	0	0	0	0	0	0	0	0	0	0	0	0	-1	0	-2.0278	-17.891	16.968	0	0	0	1	0	0	17.47	2.0148	16.554	2
262	2.62	0	0	0	0	0	0	0	0	0	0	0	0	0	0	0	0	0	0	0	0	0	0	0	0	0	0	0	0	0	0	0	0	0	0	0	0	0	0	0	0	-1	0	-2.1508	-17.769	16.797	0	0	0	0	-1	0	-2.0278	-17.891	16.968	0	0	0	0	0	0	0	0	0	2
263	2.63	0	0	0	0	0	0	0	0	0	0	0	0	0	0	0	0	0	0	0	0	0	0	0	0	10.989	-10.989	19.033	0	0	0	0	0	0	0	0	0	0	0	0	0	0	0	10.996	-10.996	19.046	0	0	0	0	-1	0	-2.0278	-17.891	16.968	0	0	0	1	0	0	17.47	2.0148	16.554	2
264	2.64	0	0	0	0	0	0	0	0	0	0	0	0	0	0	0	0	0	0	0	0	0	0	0	0	10.989	-10.989	19.033	0	0	0	0	0	0	0	0	0	0	0	0	0	0	0	0	0	0	0	0	0	0	-1	0	-2.0278	-17.891	16.968	0	0	0	1	0	0	17.47	2.0148	16.554	2
265	2.65	0	0	0	0	0	0	0	0	0	0	0	0	0	0	0	0	0	0	0	0	0	0	0	0	0	0	0	0	0	0	0	0	0	0	0	0	0	0	0	0	-1	0	-2.1508	-17.769	16.797	0	0	0	0	0	0	0	0	0	0	0	0	0	0	0	0	0	0	2
266	2.66	0	0	0	0	0	0	0	0	0	0	0	0	0	0	0	0	0	0	0	0	0	0	0	0	0	0	0	0	0	0	0	0	0	0	0	0	0	0	0	0	0	0	0	0	0	0	0	0	0	-1	0	-2.0278	-17.891	16.968	0	0	0	0	0	0	0	0	0	2
267	2.67	0	0	0	0	0	0	0	0	0	0	0	0	0	-1	0	-2.0366	-17.816	16.89	0	0	0	0	0	0	0	0	0	0	0	0	0	0	0	0	0	0	0	0	0	0	0	0	10.996	-10.996	19.046	0	0	0	0	0	0	0	0	0	0	0	0	0	0	0	0	0	0	0
268	2.68	0	0	0	0	0	0	0	0	0	0	0	0	0	0	0	0	0	0	0	0	0	0	0	0	10.989	-10.989	19.033	0	0	0	0	0	0	0	0	0	0	0	0	0	0	0	0	0	0	0	0	0	0	-1	0	-2.0278	-17.891	16.968	0	0	0	1	0	0	17.47	2.0148	16.554	2
269	2.69	0	0	0	0	0	0	0	0	0	0	0	0	0	-1	0	-2.0372	-17.821	16.895	0	0	0	0	0	0	0	0	0	0	0	0	1	0	0	17.883	2.027	16.961	0	0	0	0	0	0	0	0	0	0	0	0	0	0	0	0	0	0	0	0	0	0	0	0	0	0	0	2
270	2.7	0	0	0	0	0	0	0	0	0	0	0	0	0	-1	0	-2.0366	-17.816	16.89	0	0	0	0	0	0	0	0	0	0	0	0	0	0	0	0	0	0	0	0	0	0	0	0	10.996	-10.996	19.046	0	0	0	0	-1	0	-2.0278	-17.891	16.968	0	0	0	0	0	0	10.93	-10.93	18.931	0
271	2.71	0	0	0	0	0	0	0	0	0	0	0	0	0	0	0	0	0	0	0	0	0	0	0	0	10.989	-10.989	19.033	0	0	0	0	0	0	0	0	0	0	0	0	0	0	0	0	0	0	0	0	0	0	-1	0	-2.0278	-17.891	16.968	0	0	0	0	0	0	0	0	0	0
272	2.72	0	0	0	0	0	0	0	0	0	0	0	0	0	0	0	0	0	0	0	0	0	0	0	0	10.989	-10.989	19.033	0	0	0	0	0	0	0	0	0	0	0	0	0	0	0	10.996	-10.996	19.046	0	0	0	0	0	0	0	0	0	0	0	0	0	0	0	0	0	0	2
273	2.73	0	0	0	0	0	0	0	0	0	0	0	0	0	0	0	0	0	0	0	0	0	0	0	0	10.989	-10.989	19.033	0	0	0	0	0	0	0	0	0	0	0	0	0	0	0	0	0	0	0	0	0	0	-1	0	-2.0278	-17.891	16.968	0	0	0	0	0	0	0	0	0	2
274	2.74	0	0	0	0	0	0	0	0	0	0	0	0	0	0	0	0	0	0	0	0	0	0	0	0	0	0	0	0	0	0	0	0	0	0	0	0	0	0	0	0	0	0	0	0	0	0	0	0	0	-1	0	-2.0278	-17.891	16.968	0	0	0	0	0	0	0	0	0	2
275	2.75	0	0	0	0	-1	0	-2.0364	-17.814	16.888	0	0	0	0	0	0	0	0	0	0	0	0	0	0	0	0	0	0	0	0	0	0	0	0	0	0	0	0	0	0	0	0	0	0	0	0	0	0	0	0	-1	0	-2.0278	-17.891	16.968	0	0	0	0	0	0	0	0	0	0
276	2.76	0	0	0	0	0	0	0	0	0	0	0	0	0	0	0	0	0	0	0	0	0	0	0	0	10.989	-10.989	19.033	0	0	0	0	0	0	0	0	0	0	0	0	0	0	0	0	0	0	0	0	0	0	-1	0	-2.0278	-17.891	16.968	0	0	0	0	0	0	0	0	0	2
277	2.77	0	0	0	0	0	0	0	0	0	0	0	0	0	0	0	0	0	0	0	0	0	0	0	0	0	0	0	0	0	0	0	0	0	0	0	0	0	0	0	0	-1	0	-2.0279	-17.891	16.969	0	0	0	0	-1	0	-2.0278	-17.891	16.968	0	0	0	0	0	0	0	0	0	0
278	2.78	0	0	0	0	0	0	0	0	0	0	0	0	0	0	0	0	0	0	0	0	0	0	0	0	10.989	-10.989	19.033	0	0	0	0	0	0	0	0	0	0	0	0	0	0	0	0	0	0	0	0	0	0	-1	0	-2.0278	-17.891	16.968	0	0	0	1	0	0	17.47	2.0148	16.554	0
279	2.79	0	0	0	0	0	0	0	0	0	0	0	0	0	0	0	0	0	0	0	0	0	0	0	0	0	0	0	0	0	0	0	0	0	0	0	0	0	0	0	0	0	0	0	0	0	0	0	0	0	-1	0	-2.0278	-17.891	16.968	0	0	0	0	0	0	0	0	0	2
280	2.8	0	0	0	0	0	0	0	0	0	0	0	0	0	-1	0	-2.0366	-17.816	16.89	0	0	0	0	0	0	0	0	0	0	0	0	0	0	0	0	0	0	0	0	0	0	0	0	10.996	-10.996	19.046	0	0	0	0	0	0	0	0	0	0	0	0	0	0	0	0	0	0	2
281	2.81	0	0	0	0	0	0	10.917	-10.917	18.908	0	0	0	0	0	0	0	0	0	0	0	0	0	0	0	0	0	0	0	0	0	1	0	0	17.883	2.027	16.961	0	0	0	0	0	0	0	0	0	0	0	0	0	-1	0	-2.0278	-17.891	16.968	0	0	0	1	0	0	17.47	2.0148	16.554	2
282	2.82	0	0	0	0	0	0	0	0	0	0	0	0	0	0	0	0	0	0	0	0	0	0	0	0	0	0	0	0	0	0	0	0	0	0	0	0	0	0	0	0	0	0	10.996	-10.996	19.046	0	0	0	0	-1	0	-2.0278	-17.891	16.968	0	0	0	1	0	0	17.47	2.0148	16.554	0
283	2.83	0	0	0	0	0	0	0	0	0	0	0	0	0	0	0	0	0	0	0	0	0	0	0	0	0	0	0	0	0	0	0	0	0	0	0	0	0	0	0	0	0	0	10.996	-10.996	19.046	0	0	0	0	-1	0	-2.0278	-17.891	16.968	0	0	0	1	0	0	17.47	2.0148	16.554	2
284	2.84	0	0	0	0	0	0	0	0	0	0	0	0	0	0	0	0	0	0	0	0	0	0	0	0	0	0	0	0	0	0	0	0	0	0	0	0	0	0	0	0	0	0	0	0	0	0	0	0	0	-1	0	-2.0278	-17.891	16.968	0	0	0	0	0	0	0	0	0	2
285	2.85	0	0	0	0	0	0	0	0	0	0	0	0	0	0	0	0	0	0	0	0	0	0	0	0	0	0	0	0	0	0	1	0	0	17.883	2.027	16.961	0	0	0	0	-1	0	-2.1508	-17.769	16.797	0	0	0	0	-1	0	-2.0278	-17.891	16.968	0	0	0	0	0	0	0	0	0	2
286	2.86	0	0	0	0	0	0	0	0	0	0	0	0	0	0	0	0	0	0	0	0	0	0	0	0	10.989	-10.989	19.033	0	0	0	1	0	0	17.883	2.027	16.961	0	0	0	0	-1	0	-2.1508	-17.769	16.797	0	0	0	0	-1	0	-2.0278	-17.891	16.968	0	0	0	1	0	0	17.47	2.0148	16.554	0
287	2.87	0	0	0	0	0	0	0	0	0	0	0	0	0	-1	0	-8.7632	-30.947	27.628	0	0	0	0	0	0	0	0	0	0	0	0	0	0	0	0	0	0	0	0	0	0	0	0	0	0	0	0	0	0	0	-1	0	-2.0278	-17.891	16.968	0	0	0	0	0	0	0	0	0	0
288	2.88	0	0	0	0	0	0	0	0	0	0	0	0	0	0	0	0	0	0	0	0	0	0	0	0	0	0	0	0	0	0	0	0	0	0	0	0	0	0	0	0	0	0	10.996	-10.996	19.046	0	0	0	0	-1	0	-2.0278	-17.891	16.968	0	0	0	1	0	0	17.47	2.0148	16.554	2
289	2.89	0	0	0	0	0	0	0	0	0	0	0	0	0	0	0	0	0	0	0	0	0	0	0	0	0	0	0	0	0	0	1	0	0	17.761	2.1499	16.789	0	0	0	0	0	0	0	0	0	0	0	0	0	-1	0	-2.0278	-17.891	16.968	0	0	0	1	0	0	17.47	2.0148	16.554	0
290	2.9	0	0	0	0	0	0	0	0	0	0	0	0	0	0	0	0	0	0	0	0	0	0	0	0	0	0	0	0	0	0	0	0	0	0	0	0	0	0	0	0	0	0	10.996	-10.996	19.046	0	0	0	0	-1	0	-2.0278	-17.891	16.968	0	0	0	0	0	0	0	0	0	2
291	2.91	0	0	0	0	0	0	0	0	0	0	0	0	0	-1	0	-2.0372	-17.821	16.895	0	0	0	0	0	0	0	0	0	0	0	0	1	0	0	17.883	2.027	16.961	0	0	0	0	0	0	0	0	0	0	0	0	0	-1	0	-2.0278	-17.891	16.968	0	0	0	1	0	0	30.423	8.5595	27.174	2
292	2.92	0	0	0	0	0	0	0	0	0	0	0	0	0	0	0	0	0	0	0	0	0	0	0	0	10.989	-10.989	19.033	0	0	0	0	0	0	0	0	0	0	0	0	0	0	0	10.996	-10.996	19.046	0	0	0	0	-1	0	-2.0278	-17.891	16.968	0	0	0	0	0	0	0	0	0	2
293	2.93	0	0	0	0	0	0	0	0	0	0	0	0	0	0	0	0	0	0	0	0	0	0	0	0	10.989	-10.989	19.033	0	0	0	0	0	0	0	0	0	0	0	0	0	0	0	0	0	0	0	0	0	0	-1	0	-2.0278	-17.891	16.968	0	0	0	0	0	0	0	0	0	0
294	2.94	0	0	0	0	0	0	0	0	0	0	0	0	0	0	0	0	0	0	0	0	0	0	0	0	10.989	-10.989	19.033	0	0	0	0	0	0	0	0	0	0	0	0	0	0	0	0	0	0	0	0	0	0	-1	0	-2.0278	-17.891	16.968	0	0	0	0	0	0	0	0	0	2
295	2.95	0	0	0	0	0	0	0	0	0	0	0	0	0	0	0	0	0	0	0	0	0	0	0	0	0	0	0	0	0	0	0	0	0	0	0	0	0	0	0	0	0	0	0	0	0	0	0	0	0	-1	0	-2.0278	-17.891	16.968	0	0	0	1	0	0	17.47	2.0148	16.554	2
296	2.96	0	0	0	0	0	0	0	0	0	0	0	0	0	0	0	0	0	0	0	0	0	0	0	0	0	0	0	0	0	0	1	0	0	17.883	2.027	16.961	0	0	0	0	0	0	0	0	0	0	0	0	0	-1	0	-2.0278	-17.891	16.968	0	0	0	1	0	0	17.47	2.0148	16.554	0
297	2.97	0	0	0	0	0	0	10.917	-10.917	18.908	0	0	0	0	-1	0	-2.0366	-17.816	16.89	0	0	0	0	0	0	0	0	0	0	0	0	0	0	0	0	0	0	0	0	0	0	-1	0	-2.1508	-17.769	16.797	0	0	0	0	0	0	0	0	0	0	0	0	0	0	0	0	0	0	0
298	2.98	0	0	0	0	0	0	0	0	0	0	0	0	0	0	0	0	0	0	0	0	0	0	0	0	0	0	0	0	0	0	1	0	0	17.883	2.027	16.961	0	0	0	0	0	0	0	0	0	0	0	0	0	-1	0	-2.0278	-17.891	16.968	0	0	0	0	0	0	0	0	0	0
299	2.99	0	0	0	0	0	0	0	0	0	0	0	0	0	0	0	0	0	0	0	0	0	0	0	0	10.989	-10.989	19.033	0	0	0	0	0	0	0	0	0	0	0	0	0	0	0	0	0	0	0	0	0	0	-1	0	-2.0278	-17.891	16.968	0	0	0	0	0	0	0	0	0	2
300	3	0	0	0	0	0	0	0	0	0	0	0	0	0	0	0	0	0	0	0	0	0	0	0	0	0	0	0	0	0	0	0	0	0	0	0	0	0	0	0	0	0	0	0	0	0	0	0	0	0	0	0	10.994	-10.994	19.042	0	0	0	0	0	0	0	0	0	0
301	3.01	0	0	0	0	0	0	0	0	0	0	0	0	0	0	0	0	0	0	0	0	0	0	0	0	0	0	0	0	0	0	0	0	0	0	0	0	0	0	0	0	0	0	10.996	-10.996	19.046	0	0	0	0	0	0	0	0	0	0	0	0	1	0	0	17.47	2.0148	16.554	2
302	3.02	0	0	0	0	0	0	0	0	0	0	0	0	0	0	0	0	0	0	0	0	0	0	0	0	10.989	-10.989	19.033	0	0	0	0	0	0	0	0	0	0	0	0	0	0	0	10.996	-10.996	19.046	0	0	0	0	-1	0	-2.0278	-17.891	16.968	0	0	0	0	0	0	0	0	0	2
303	3.03	0	0	0	0	0	0	0	0	0	0	0	0	0	0	0	0	0	0	0	0	0	0	0	0	10.989	-10.989	19.033	0	0	0	1	0	0	17.883	2.027	16.961	0	0	0	0	0	0	0	0	0	0	0	0	0	-1	0	-2.0278	-17.891	16.968	0	0	0	0	0	0	0	0	0	2
304	3.04	0	0	0	0	0	0	0	0	0	0	0	0	0	0	0	0	0	0	0	0	0	0	0	0	0	0	0	0	0	0	1	0	0	17.883	2.027	16.961	0	0	0	0	-1	0	-2.0279	-17.891	16.969	0	0	0	0	0	0	0	0	0	0	0	0	0	0	0	0	0	0	2
305	3.05	0	0	0	0	0	0	0	0	0	0	0	0	0	0	0	0	0	0	0	0	0	0	0	0	0	0	0	0	0	0	0	0	0	0	0	0	0	0	0	0	0	0	10.996	-10.996	19.046	0	0	0	0	-1	0	-2.0278	-17.891	16.968	0	0	0	1	0	0	17.47	2.0148	16.554	2
306	3.06	0	0	0	0	0	0	0	0	0	0	0	0	0	0	0	0	0	0	0	0	0	0	0	0	0	0	0	0	0	0	0	0	0	0	0	0	0	0	0	0	0	0	0	0	0	0	0	0	0	-1	0	-2.0278	-17.891	16.968	0	0	0	0	0	0	0	0	0	2
307	3.07	0	0	0	0	0	0	0	0	0	0	0	0	0	0	0	0	0	0	0	0	0	0	0	0	0	0	0	0	0	0	0	0	0	0	0	0	0	0	0	0	0	0	0	0	0	0	0	0	0	-1	0	-2.0278	-17.891	16.968	0	0	0	0	0	0	0	0	0	2
308	3.08	0	0	0	0	0	0	0	0	0	0	0	0	0	0	0	0	0	0	0	0	0	0	0	0	0	0	0	0	0	0	0	0	0	0	0	0	0	0	0	0	0	0	10.996	-10.996	19.046	0	0	0	0	-1	0	-2.0278	-17.891	16.968	0	0	0	0	0	0	0	0	0	0
309	3.09	0	0	0	0	0	0	10.917	-10.917	18.908	0	0	0	0	0	0	0	0	0	0	0	0	0	0	0	10.989	-10.989	19.033	0	0	0	1	0	0	17.883	2.027	16.961	0	0	0	0	0	0	0	0	0	0	0	0	0	-1	0	-2.0278	-17.891	16.968	0	0	0	0	0	0	0	0	0	2
310	3.1	0	0	0	0	0	0	0	0	0	0	0	0	0	0	0	0	0	0	0	0	0	0	0	0	0	0	0	0	0	0	0	0	0	0	0	0	0	0	0	0	-1	0	-2.0279	-17.891	16.969	0	0	0	0	-1	0	-2.0278	-17.891	16.968	0	0	0	0	0	0	0	0	0	2
311	3.11	0	0	0	0	0	0	0	0	0	0	0	0	0	0	0	0	0	0	0	0	0	0	0	0	10.989	-10.989	19.033	0	0	0	0	0	0	10.991	-10.991	19.037	0	0	0	0	-1	0	-2.0279	-17.891	16.969	0	0	0	0	-1	0	-2.0278	-17.891	16.968	0	0	0	0	0	0	0	0	0	2
312	3.12	0	0	0	0	0	0	0	0	0	0	0	0	0	0	0	0	0	0	0	0	0	0	0	0	0	0	0	0	0	0	0	0	0	0	0	0	0	0	0	0	0	0	10.996	-10.996	19.046	0	0	0	0	-1	0	-2.0278	-17.891	16.968	0	0	0	0	0	0	0	0	0	2
313	3.13	0	0	0	0	0	0	0	0	0	0	0	0	0	0	0	0	0	0	0	0	0	0	0	0	0	0	0	0	0	0	0	0	0	0	0	0	0	0	0	0	0	0	0	0	0	0	0	0	0	-1	0	-2.0278	-17.891	16.968	0	0	0	1	0	0	17.47	2.0148	16.554	2
314	3.14	0	0	0	0	0	0	0	0	0	0	0	0	0	0	0	0	0	0	0	0	0	0	0	0	0	0	0	0	0	0	0	0	0	0	0	0	0	0	0	0	0	0	10.996	-10.996	19.046	0	0	0	0	-1	0	-2.0278	-17.891	16.968	0	0	0	1	0	0	17.47	2.0148	16.554	0
315	3.15	0	0	0	0	0	0	0	0	0	0	0	0	0	0	0	0	0	0	0	0	0	0	0	0	0	0	0	0	0	0	0	0	0	0	0	0	0	0	0	0	0	0	0	0	0	0	0	0	0	-1	0	-2.0278	-17.891	16.968	0	0	0	0	0	0	0	0	0	2
316	3.16	0	0	0	0	-1	0	-2.0364	-17.814	16.888	0	0	0	0	0	0	0	0	0	0	0	0	0	0	0	0	0	0	0	0	0	1	0	0	17.761	2.1499	16.789	0	0	0	0	0	0	0	0	0	0	0	0	0	-1	0	-2.0278	-17.891	16.968	0	0	0	1	0	0	17.47	2.0148	16.554	0
317	3.17	0	0	0	0	0	0	0	0	0	0	0	0	0	0	0	0	0	0	0	0	0	0	0	0	0	0	0	0	0	0	0	0	0	0	0	0	0	0	0	0	-1	0	-2.1508	-17.769	16.797	0	0	0	0	-1	0	-2.0278	-17.891	16.968	0	0	0	0	0	0	0	0	0	2
318	3.18	0	0	0	0	0	0	0	0	0	0	0	0	0	0	0	0	0	0	0	0	0	0	0	0	0	0	0	0	0	0	0	0	0	0	0	0	0	0	0	0	0	0	0	0	0	0	0	0	0	0	0	0	0	0	0	0	0	1	0	0	17.47	2.0148	16.554	2
319	3.19	0	0	0	0	-1	0	-2.0364	-17.814	16.888	0	0	0	0	0	0	0	0	0	0	0	0	0	0	0	0	0	0	0	0	0	1	0	0	17.761	2.1499	16.789	0	0	0	0	0	0	0	0	0	0	0	0	0	-1	0	-2.0278	-17.891	16.968	0	0	0	0	0	0	0	0	0	2
320	3.2	0	0	0	0	0	0	0	0	0	0	0	0	0	0	0	0	0	0	0	0	0	0	0	0	0	0	0	0	0	0	0	0	0	0	0	0	0	0	0	0	0	0	10.996	-10.996	19.046	0	0	0	0	0	0	0	0	0	0	0	0	0	0	0	0	0	0	2
321	3.21	0	0	0	0	0	0	0	0	0	0	0	0	0	0	0	0	0	0	0	0	0	0	0	0	0	0	0	0	0	0	0	0	0	0	0	0	0	0	0	0	0	0	0	0	0	0	0	0	0	-1	0	-2.0278	-17.891	16.968	0	0	0	0	0	0	10.93	-10.93	18.931	0
322	3.22	0	0	0	0	0	0	0	0	0	0	0	0	0	-1	0	-2.0366	-17.816	16.89	0	0	0	0	0	0	0	0	0	0	0	0	0	0	0	0	0	0	0	0	0	0	-1	0	-2.1508	-17.769	16.797	0	0	0	0	-1	0	-2.0278	-17.891	16.968	0	0	0	1	0	0	17.47	2.0148	16.554	0
323	3.23	0	0	0	0	0	0	0	0	0	0	0	0	0	0	0	0	0	0	0	0	0	0	0	0	0	0	0	0	0	0	0	0	0	0	0	0	0	0	0	0	0	0	10.996	-10.996	19.046	0	0	0	0	-1	0	-2.0278	-17.891	16.968	0	0	0	0	0	0	0	0	0	0
324	3.24	0	0	0	0	0	0	0	0	0	0	0	0	0	0	0	0	0	0	0	0	0	0	0	0	0	0	0	0	0	0	0	0	0	0	0	0	0	0	0	0	0	0	0	0	0	0	0	0	0	-1	0	-2.0278	-17.891	16.968	0	0	0	0	0	0	0	0	0	2
325	3.25	0	0	0	0	0	0	0	0	0	0	0	0	0	0	0	0	0	0	0	0	0	0	0	0	0	0	0	0	0	0	0	0	0	0	0	0	0	0	0	0	0	0	10.996	-10.996	19.046	0	0	0	0	0	0	0	0	0	0	0	0	0	0	0	0	0	0	0
326	3.26	0	0	0	0	0	0	0	0	0	0	0	0	0	0	0	0	0	0	0	0	0	0	0	0	10.989	-10.989	19.033	0	0	0	0	0	0	0	0	0	0	0	0	0	0	0	0	0	0	0	0	0	0	-1	0	-2.0278	-17.891	16.968	0	0	0	0	0	0	0	0	0	0
327	3.27	0	0	0	0	0	0	0	0	0	0	0	0	0	0	0	0	0	0	0	0	0	0	0	0	10.989	-10.989	19.033	0	0	0	0	0	0	0	0	0	0	0	0	0	0	0	10.996	-10.996	19.046	0	0	0	0	-1	0	-2.0278	-17.891	16.968	0	0	0	0	0	0	0	0	0	0
328	3.28	0	0	0	0	0	0	0	0	0	0	0	0	0	0	0	0	0	0	0	0	0	0	0	0	0	0	0	0	0	0	0	-1	0	-2.0265	-17.879	16.957	0	0	0	0	0	0	10.996	-10.996	19.046	0	0	0	0	-1	0	-2.0278	-17.891	16.968	0	0	0	0	0	0	0	0	0	2
329	3.29	0	0	0	0	0	0	0	0	0	0	0	0	0	0	0	0	0	0	0	0	0	1	-1	0	7.5473	-27.454	31.904	0	0	0	0	0	0	0	0	0	0	0	0	0	0	0	10.996	-10.996	19.046	0	0	0	0	-1	0	-2.0278	-17.891	16.968	0	0	0	0	0	0	0	0	0	0
330	3.3	0	0	0	0	0	0	0	0	0	0	0	0	0	0	0	0	0	0	0	0	0	0	0	0	0	0	0	0	0	0	0	0	0	0	0	0	0	0	0	0	0	0	10.996	-10.996	19.046	0	0	0	0	-1	0	-2.0278	-17.891	16.968	0	0	0	0	0	0	0	0	0	2
331	3.31	0	0	0	0	0	0	0	0	0	0	0	0	0	0	0	0	0	0	0	0	0	0	0	0	10.989	-10.989	19.033	0	0	0	0	0	0	0	0	0	0	0	0	0	0	0	0	0	0	0	0	0	0	-1	0	-2.0278	-17.891	16.968	0	0	0	1	0	0	17.47	2.0148	16.554	0
332	3.32	0	0	0	0	0	0	0	0	0	0	0	0	0	0	0	0	0	0	0	0	0	0	0	0	0	0	0	0	0	0	0	0	0	0	0	0	0	0	0	0	0	0	10.996	-10.996	19.046	0	0	0	0	-1	0	-2.0278	-17.891	16.968	0	0	0	0	0	0	0	0	0	2
333	3.33	0	0	0	0	0	0	0	0	0	0	0	0	0	0	0	0	0	0	0	0	0	0	0	0	0	0	0	0	0	0	0	0	0	0	0	0	0	0	0	0	0	0	0	0	0	0	0	0	0	-1	0	-2.0278	-17.891	16.968	0	0	0	0	0	0	0	0	0	0
334	3.34	0	0	0	0	0	0	0	0	0	0	0	0	0	0	0	0	0	0	0	0	0	0	0	0	0	0	0	0	0	0	0	0	0	0	0	0	0	0	0	0	0	0	10.996	-10.996	19.046	0	0	0	0	-1	0	-2.0278	-17.891	16.968	0	0	0	1	0	0	17.47	2.0148	16.554	2
335	3.35	0	0	0	0	0	0	0	0	0	0	0	0	0	0	0	0	0	0	0	0	0	0	0	0	0	0	0	0	0	0	0	0	0	0	0	0	0	0	0	0	0	0	10.996	-10.996	19.046	0	0	0	0	-1	0	-2.0278	-17.891	16.968	0	0	0	0	0	0	0	0	0	0
336	3.36	0	0	0	0	0	0	0	0	0	0	0	0	0	0	0	0	0	0	0	0	0	0	0	0	10.989	-10.989	19.033	0	0	0	0	0	0	0	0	0	0	0	0	0	0	0	0	0	0	0	0	0	0	-1	0	-2.0278	-17.891	16.968	0	0	0	0	0	0	0	0	0	2
337	3.37	0	0	0	0	0	0	0	0	0	0	0	0	0	-1	0	-2.0372	-17.821	16.895	0	0	0	0	0	0	0	0	0	0	0	0	0	0	0	0	0	0	0	0	0	0	0	0	10.996	-10.996	19.046	0	0	0	0	0	0	0	0	0	0	0	0	0	0	0	0	0	0	0
338	3.38	0	0	0	0	0	0	0	0	0	0	0	0	0	0	0	0	0	0	0	0	0	0	0	0	0	0	0	0	0	0	1	0	0	17.761	2.1499	16.789	0	0	0	0	0	0	10.996	-10.996	19.046	0	0	0	0	-1	0	-2.0278	-17.891	16.968	0	0	0	0	0	0	0	0	0	0
339	3.39	0	0	0	0	0	0	0	0	0	0	0	0	0	0	0	0	0	0	0	0	0	0	0	0	10.989	-10.989	19.033	0	0	0	0	-1	0	-2.0265	-17.879	16.957	0	0	0	0	0	0	10.996	-10.996	19.046	0	0	0	0	0	0	0	0	0	0	0	0	0	0	0	0	0	0	2
340	3.4	0	0	0	0	0	0	0	0	0	0	0	0	0	0	0	0	0	0	0	0	0	0	0	0	0	0	0	0	0	0	0	0	0	0	0	0	0	0	0	0	0	0	10.996	-10.996	19.046	0	0	0	0	-1	0	-2.0278	-17.891	16.968	0	0	0	0	0	0	0	0	0	0
341	3.41	0	0	0	0	0	0	0	0	0	0	0	0	0	0	0	0	0	0	0	0	0	0	0	0	0	0	0	0	0	0	1	0	0	17.883	2.027	16.961	0	0	0	0	0	0	0	0	0	0	0	0	1	-1	0	7.5503	-27.469	31.921	0	0	0	0	0	0	0	0	0	2
342	3.42	0	0	0	0	0	0	0	0	0	0	0	0	0	0	0	0	0	0	0	0	0	0	0	0	10.989	-10.989	19.033	0	0	0	0	0	0	0	0	0	0	0	0	0	0	0	10.996	-10.996	19.046	0	0	0	0	0	0	0	0	0	0	0	0	0	0	0	0	0	0	2
343	3.43	0	0	0	0	0	0	0	0	0	0	0	0	0	0	0	0	0	0	0	0	0	0	0	0	10.989	-10.989	19.033	0	0	0	1	0	0	17.883	2.027	16.961	0	0	0	0	0	0	10.996	-10.996	19.046	0	0	0	0	-1	0	-2.0278	-17.891	16.968	0	0	0	0	0	0	0	0	0	0
344	3.44	0	0	0	0	0	0	0	0	0	0	0	0	0	0	0	0	0	0	0	0	0	0	0	0	0	0	0	0	0	0	0	0	0	0	0	0	0	0	0	0	0	0	10.996	-10.996	19.046	0	0	0	0	-1	0	-2.0278	-17.891	16.968	0	0	0	0	0	0	0	0	0	2
345	3.45	0	0	0	0	0	0	0	0	0	0	0	0	0	0	0	0	0	0	0	0	0	0	0	0	0	0	0	0	0	0	1	-1	0	7.5496	-27.455	31.907	0	0	0	0	0	0	10.996	-10.996	19.046	0	0	0	0	-1	0	-2.0278	-17.891	16.968	0	0	0	0	0	0	0	0	0	2
346	3.46	0	0	0	0	0	0	0	0	0	0	0	0	0	0	0	0	0	0	0	0	0	0	0	0	10.989	-10.989	19.033	0	0	0	1	0	0	17.883	2.027	16.961	0	0	0	0	0	0	10.996	-10.996	19.046	0	0	0	0	0	0	10.994	-10.994	19.042	0	0	0	0	0	0	0	0	0	0
347	3.47	0	0	0	0	0	0	0	0	0	0	0	0	0	0	0	0	0	0	0	0	0	0	0	0	0	0	0	0	0	0	0	0	0	0	0	0	0	0	0	0	0	0	10.996	-10.996	19.046	0	0	0	0	-1	0	-2.0278	-17.891	16.968	0	0	0	0	0	0	0	0	0	2
348	3.48	0	0	0	0	0	0	0	0	0	0	0	0	0	-1	0	-2.0366	-17.816	16.89	0	0	0	0	0	0	0	0	0	0	0	0	0	0	0	0	0	0	0	0	0	0	0	0	10.996	-10.996	19.046	0	0	0	0	-1	0	-2.0278	-17.891	16.968	0	0	0	1	0	0	17.47	2.0148	16.554	2
349	3.49	0	0	0	0	0	0	0	0	0	0	0	0	0	0	0	0	0	0	0	0	0	0	0	0	10.989	-10.989	19.033	0	0	0	0	0	0	0	0	0	0	0	0	0	0	0	0	0	0	0	0	0	0	-1	0	-2.0278	-17.891	16.968	0	0	0	0	0	0	0	0	0	2
350	3.5	0	0	0	0	0	0	0	0	0	0	0	0	0	0	0	0	0	0	0	0	0	0	0	0	0	0	0	0	0	0	0	-1	0	-2.0265	-17.879	16.957	0	0	0	0	0	0	10.996	-10.996	19.046	0	0	0	0	-1	0	-2.0278	-17.891	16.968	0	0	0	0	0	0	0	0	0	0
351	3.51	0	0	0	0	0	0	10.917	-10.917	18.908	0	0	0	0	0	0	0	0	0	0	0	0	0	0	0	0	0	0	0	0	0	0	0	0	0	0	0	0	0	0	0	0	0	0	0	0	0	0	0	0	-1	0	-2.0278	-17.891	16.968	0	0	0	0	0	0	0	0	0	2
352	3.52	0	0	0	0	0	0	0	0	0	0	0	0	0	0	0	0	0	0	0	0	0	0	0	0	0	0	0	0	0	0	0	0	0	0	0	0	0	0	0	0	0	0	10.996	-10.996	19.046	0	0	0	0	-1	0	-2.0278	-17.891	16.968	0	0	0	0	0	0	0	0	0	2
353	3.53	0	0	0	0	0	0	0	0	0	0	0	0	0	0	0	0	0	0	0	0	0	0	0	0	0	0	0	0	0	0	0	0	0	0	0	0	0	0	0	0	0	0	10.996	-10.996	19.046	0	0	0	0	0	0	0	0	0	0	0	0	0	0	0	0	0	0	0
354	3.54	0	0	0	0	0	0	10.917	-10.917	18.908	0	0	0	0	0	0	0	0	0	0	0	0	0	0	0	0	0	0	0	0	0	0	-1	0	-2.0265	-17.879	16.957	0	0	0	0	0	0	10.996	-10.996	19.046	0	0	0	0	-1	0	-2.0278	-17.891	16.968	0	0	0	0	0	0	0	0	0	2
355	3.55	0	0	0	0	0	0	0	0	0	0	0	0	0	0	0	0	0	0	0	0	0	0	0	0	0	0	0	0	0	0	0	0	0	0	0	0	0	0	0	0	0	0	0	0	0	0	0	0	0	-1	0	-2.0278	-17.891	16.968	0	0	0	0	0	0	0	0	0	0
356	3.56	0	0	0	0	0	0	0	0	0	0	0	0	0	-1	0	-2.0372	-17.821	16.895	0	0	0	0	0	0	10.989	-10.989	19.033	0	0	0	1	0	0	17.883	2.027	16.961	0	0	0	0	0	0	0	0	0	0	0	0	0	-1	0	-2.0278	-17.891	16.968	0	0	0	0	0	0	0	0	0	0
357	3.57	0	0	0	0	-1	0	-2.0364	-17.814	16.888	0	0	0	0	0	0	0	0	0	0	0	0	0	0	0	0	0	0	0	0	0	1	0	0	17.883	2.027	16.961	0	0	0	0	-1	0	-2.1508	-17.769	16.797	0	0	0	0	-1	0	-2.0278	-17.891	16.968	0	0	0	0	0	0	0	0	0	0
358	3.58	0	0	0	0	0	0	0	0	0	0	0	0	0	0	0	0	0	0	0	0	0	0	0	0	10.989	-10.989	19.033	0	0	0	0	0	0	0	0	0	0	0	0	0	0	0	10.996	-10.996	19.046	0	0	0	0	0	0	0	0	0	0	0	0	0	0	0	0	0	0	0
359	3.59	0	0	0	0	0	0	0	0	0	0	0	0	0	0	0	0	0	0	0	0	0	0	0	0	0	0	0	0	0	0	0	0	0	0	0	0	0	0	0	0	0	0	10.996	-10.996	19.046	0	0	0	0	-1	0	-2.0278	-17.891	16.968	0	0	0	0	0	0	0	0	0	2
360	3.6	0	0	0	0	0	0	0	0	0	0	0	0	0	-1	0	-2.0372	-17.821	16.895	0	0	0	0	0	0	0	0	0	0	0	0	0	0	0	0	0	0	0	0	0	0	0	0	10.996	-10.996	19.046	0	0	0	0	-1	0	-2.0278	-17.891	16.968	0	0	0	0	0	0	0	0	0	0
361	3.61	0	0	0	0	0	0	0	0	0	0	0	0	0	0	0	0	0	0	0	0	0	0	0	0	0	0	0	0	0	0	0	0	0	0	0	0	0	0	0	0	0	0	0	0	0	0	0	0	0	-1	0	-2.0278	-17.891	16.968	0	0	0	1	0	0	17.47	2.0148	16.554	2
362	3.62	0	0	0	0	0	0	0	0	0	0	0	0	0	0	0	0	0	0	0	0	0	0	0	0	0	0	0	0	0	0	0	0	0	0	0	0	0	0	0	0	0	0	10.996	-10.996	19.046	0	0	0	0	-1	0	-2.0278	-17.891	16.968	0	0	0	0	0	0	0	0	0	0
363	3.63	0	0	0	0	0	0	0	0	0	0	0	0	0	0	0	0	0	0	0	0	0	0	0	0	0	0	0	0	0	0	1	0	0	17.883	2.027	16.961	0	0	0	0	-1	0	-2.0279	-17.891	16.969	0	0	0	0	-1	0	-2.0278	-17.891	16.968	0	0	0	0	0	0	0	0	0	0
364	3.64	0	0	0	0	0	0	10.917	-10.917	18.908	0	0	0	0	0	0	0	0	0	0	0	0	0	0	0	0	0	0	0	0	0	0	-1	0	-2.0265	-17.879	16.957	0	0	0	0	0	0	10.996	-10.996	19.046	0	0	0	0	-1	0	-2.0278	-17.891	16.968	0	0	0	0	0	0	0	0	0	0
365	3.65	0	0	0	0	0	0	0	0	0	0	0	0	0	0	0	0	0	0	0	0	0	0	0	0	0	0	0	0	0	0	0	0	0	0	0	0	0	0	0	0	0	0	10.996	-10.996	19.046	0	0	0	0	-1	0	-2.0278	-17.891	16.968	0	0	0	0	0	0	0	0	0	2
366	3.66	0	0	0	0	0	0	0	0	0	0	0	0	0	0	0	0	0	0	0	0	0	0	0	0	0	0	0	0	0	0	1	0	0	17.883	2.027	16.961	0	0	0	0	0	0	10.996	-10.996	19.046	0	0	0	0	-1	0	-2.0278	-17.891	16.968	0	0	0	1	0	0	17.47	2.0148	16.554	2
367	3.67	0	0	0	0	0	0	0	0	0	0	0	0	0	0	0	0	0	0	0	0	0	0	0	0	0	0	0	0	0	0	0	0	0	0	0	0	0	0	0	0	-1	0	-2.1508	-17.769	16.797	0	0	0	0	-1	0	-2.0278	-17.891	16.968	0	0	0	0	0	0	0	0	0	0
368	3.68	0	0	0	0	0	0	0	0	0	0	0	0	0	0	0	0	0	0	0	0	0	0	0	0	10.989	-10.989	19.033	0	0	0	1	0	0	17.883	2.027	16.961	0	0	0	0	0	0	0	0	0	0	0	0	0	0	0	0	0	0	0	0	0	0	0	0	0	0	0	2
369	3.69	0	0	0	1	-1	0	7.4664	-27.317	31.716	0	0	0	0	0	0	0	0	0	0	0	0	0	0	0	0	0	0	0	0	0	1	0	0	17.883	2.027	16.961	0	0	0	0	0	0	0	0	0	0	0	0	0	0	0	0	0	0	0	0	0	0	0	0	0	0	0	0
370	3.7	0	0	0	0	0	0	0	0	0	0	0	0	0	0	0	0	0	0	0	0	0	0	0	0	0	0	0	0	0	0	0	0	0	0	0	0	0	0	0	0	0	0	10.996	-10.996	19.046	0	0	0	0	-1	0	-2.0278	-17.891	16.968	0	0	0	0	0	0	0	0	0	2
371	3.71	0	0	0	0	0	0	0	0	0	0	0	0	0	0	0	0	0	0	0	0	0	0	0	0	10.989	-10.989	19.033	0	0	0	1	0	0	17.883	2.027	16.961	0	0	0	0	0	0	0	0	0	0	0	0	0	0	0	0	0	0	0	0	0	0	0	0	0	0	0	2
372	3.72	0	0	0	0	0	0	0	0	0	0	0	0	0	0	0	0	0	0	0	0	0	0	0	0	0	0	0	0	0	0	0	0	0	0	0	0	0	0	0	0	0	0	10.996	-10.996	19.046	0	0	0	0	0	0	0	0	0	0	0	0	0	0	0	0	0	0	0
373	3.73	0	0	0	0	0	0	0	0	0	0	0	0	0	0	0	0	0	0	0	0	0	0	0	0	0	0	0	0	0	0	0	0	0	0	0	0	0	0	0	0	0	0	10.996	-10.996	19.046	0	0	0	0	0	0	0	0	0	0	0	0	0	0	0	0	0	0	0
374	3.74	0	0	0	0	0	0	0	0	0	0	0	0	0	0	0	0	0	0	0	0	0	0	0	0	10.989	-10.989	19.033	0	0	0	0	0	0	0	0	0	0	0	0	0	0	0	10.996	-10.996	19.046	0	0	0	0	0	0	0	0	0	0	0	0	0	0	0	0	0	0	0
375	3.75	0	0	0	0	0	0	0	0	0	0	0	0	0	-1	0	-2.0366	-17.816	16.89	0	0	0	0	0	0	10.989	-10.989	19.033	0	0	0	0	0	0	0	0	0	0	0	0	0	0	0	10.996	-10.996	19.046	0	0	0	0	-1	0	-2.0278	-17.891	16.968	0	0	0	0	0	0	0	0	0	0
376	3.76	0	0	0	0	0	0	0	0	0	0	0	0	0	0	0	0	0	0	0	0	0	0	0	0	0	0	0	0	0	0	0	0	0	0	0	0	0	0	0	0	0	0	10.996	-10.996	19.046	0	0	0	0	-1	0	-2.0278	-17.891	16.968	0	0	0	0	0	0	10.93	-10.93	18.931	2
377	3.77	0	0	0	0	0	0	0	0	0	0	0	0	0	0	0	0	0	0	0	0	0	0	0	0	0	0	0	0	0	0	0	0	0	0	0	0	0	0	0	0	0	0	10.996	-10.996	19.046	0	0	0	0	-1	0	-2.0278	-17.891	16.968	0	0	0	0	0	0	0	0	0	2
378	3.78	0	0	0	0	0	0	0	0	0	0	0	0	0	0	0	0	0	0	0	0	0	0	0	0	0	0	0	0	0	0	0	0	0	0	0	0	0	0	0	0	0	0	10.996	-10.996	19.046	0	0	0	0	-1	0	-2.0278	-17.891	16.968	0	0	0	0	0	0	0	0	0	0
379	3.79	0	0	0	0	0	0	0	0	0	0	0	0	0	0	0	0	0	0	0	0	0	0	0	0	10.989	-10.989	19.033	0	0	0	0	0	0	0	0	0	0	0	0	0	0	0	10.996	-10.996	19.046	0	0	0	0	-1	0	-2.0278	-17.891	16.968	0	0	0	0	0	0	0	0	0	2
380	3.8	0	0	0	0	0	0	0	0	0	0	0	0	0	0	0	0	0	0	0	0	0	0	0	0	0	0	0	0	0	0	0	0	0	0	0	0	0	0	0	0	-1	0	-2.1508	-17.769	16.797	0	0	0	0	-1	0	-2.0278	-17.891	16.968	0	0	0	0	0	0	0	0	0	0
381	3.81	0	0	0	0	0	0	0	0	0	0	0	0	0	0	0	0	0	0	0	0	0	0	0	0	0	0	0	0	0	0	1	0	0	17.883	2.027	16.961	0	0	0	0	0	0	10.996	-10.996	19.046	0	0	0	0	-1	0	-2.0278	-17.891	16.968	0	0	0	0	0	0	0	0	0	0
382	3.82	0	0	0	0	0	0	0	0	0	0	0	0	0	-1	0	-2.0372	-17.821	16.895	0	0	0	0	0	0	0	0	0	0	0	0	0	0	0	0	0	0	0	0	0	0	0	0	10.996	-10.996	19.046	0	0	0	0	-1	0	-2.0278	-17.891	16.968	0	0	0	0	0	0	0	0	0	0
383	3.83	0	0	0	0	0	0	0	0	0	0	0	0	0	-1	0	-2.0366	-17.816	16.89	0	0	0	0	0	0	0	0	0	0	0	0	0	0	0	0	0	0	0	0	0	0	0	0	10.996	-10.996	19.046	0	0	0	0	-1	0	-2.0278	-17.891	16.968	0	0	0	0	0	0	0	0	0	0
384	3.84	0	0	0	0	0	0	0	0	0	0	0	0	0	0	0	0	0	0	0	0	0	0	0	0	0	0	0	0	0	0	0	0	0	0	0	0	0	0	0	0	0	0	10.996	-10.996	19.046	0	0	0	0	-1	0	-2.0278	-17.891	16.968	0	0	0	0	0	0	0	0	0	0
385	3.85	0	0	0	0	0	0	0	0	0	0	0	0	0	0	0	0	0	0	0	0	0	0	0	0	0	0	0	0	0	0	0	-1	0	-2.0265	-17.879	16.957	0	0	0	0	-1	0	-2.1508	-17.769	16.797	0	0	0	0	-1	0	-2.0278	-17.891	16.968	0	0	0	0	0	0	0	0	0	0
386	3.86	0	0	0	0	0	0	0	0	0	0	0	0	0	0	0	0	0	0	0	0	0	0	0	0	0	0	0	0	0	0	0	-1	0	-2.0265	-17.879	16.957	0	0	0	0	0	0	0	0	0	0	0	0	0	-1	0	-2.0278	-17.891	16.968	0	0	0	1	0	0	17.47	2.0148	16.554	0
387	3.87	0	0	0	0	0	0	0	0	0	0	0	0	0	0	0	0	0	0	0	0	0	0	0	0	0	0	0	0	0	0	0	0	0	0	0	0	0	0	0	0	0	0	10.996	-10.996	19.046	0	0	0	0	-1	0	-2.0278	-17.891	16.968	0	0	0	0	0	0	0	0	0	0
388	3.88	0	0	0	0	0	0	0	0	0	0	0	0	0	0	0	0	0	0	0	0	0	0	0	0	0	0	0	0	0	0	1	0	0	17.883	2.027	16.961	0	0	0	0	0	0	10.996	-10.996	19.046	0	0	0	0	0	0	0	0	0	0	0	0	0	0	0	0	0	0	0
389	3.89	0	0	0	0	0	0	0	0	0	0	0	0	0	0	0	0	0	0	0	0	0	0	0	0	10.989	-10.989	19.033	0	0	0	0	0	0	0	0	0	0	0	0	0	0	0	0	0	0	0	0	0	0	-1	0	-2.0278	-17.891	16.968	0	0	0	0	0	0	0	0	0	2
390	3.9	0	0	0	0	0	0	0	0	0	0	0	0	0	0	0	0	0	0	0	0	0	0	0	0	0	0	0	0	0	0	0	0	0	0	0	0	0	0	0	0	-1	0	-2.1508	-17.769	16.797	0	0	0	0	0	0	0	0	0	0	0	0	0	0	0	0	0	0	0
391	3.91	0	0	0	0	0	0	10.917	-10.917	18.908	0	0	0	0	0	0	0	0	0	0	0	0	0	0	0	0	0	0	0	0	0	0	0	0	0	0	0	0	0	0	0	0	0	0	0	0	0	0	0	0	-1	0	-2.0278	-17.891	16.968	0	0	0	0	0	0	0	0	0	0
392	3.92	0	0	0	0	0	0	0	0	0	0	0	0	0	0	0	0	0	0	0	0	0	0	0	0	0	0	0	0	0	0	0	0	0	0	0	0	0	0	0	0	0	0	10.996	-10.996	19.046	0	0	0	0	-1	0	-2.0278	-17.891	16.968	0	0	0	0	0	0	0	0	0	2
393	3.93	0	0	0	0	0	0	0	0	0	0	0	0	0	0	0	0	0	0	0	0	0	0	0	0	0	0	0	0	0	0	0	0	0	0	0	0	0	0	0	0	0	0	10.996	-10.996	19.046	0	0	0	0	-1	0	-2.0278	-17.891	16.968	0	0	0	0	0	0	0	0	0	2
394	3.94	0	0	0	0	-1	0	-2.0364	-17.814	16.888	0	0	0	0	0	0	0	0	0	0	0	0	0	0	0	0	0	0	0	0	0	1	0	0	17.883	2.027	16.961	0	0	0	0	0	0	10.996	-10.996	19.046	0	0	0	0	-1	0	-2.0278	-17.891	16.968	0	0	0	1	0	0	17.47	2.0148	16.554	2
395	3.95	0	0	0	0	0	0	0	0	0	0	0	0	0	0	0	0	0	0	0	0	0	0	0	0	0	0	0	0	0	0	0	0	0	0	0	0	0	0	0	0	0	0	10.996	-10.996	19.046	0	0	0	0	-1	0	-2.0278	-17.891	16.968	0	0	0	0	0	0	0	0	0	0
396	3.96	0	0	0	0	0	0	0	0	0	0	0	0	0	0	0	0	0	0	0	0	0	0	0	0	0	0	0	0	0	0	0	0	0	0	0	0	0	0	0	0	0	0	10.996	-10.996	19.046	0	0	0	0	-1	0	-2.0278	-17.891	16.968	0	0	0	0	0	0	0	0	0	0
397	3.97	0	0	0	0	0	0	0	0	0	0	0	0	0	0	0	0	0	0	0	0	0	0	0	0	0	0	0	0	0	0	0	0	0	0	0	0	0	0	0	0	0	0	10.996	-10.996	19.046	0	0	0	0	0	0	0	0	0	0	0	0	0	0	0	0	0	0	0
398	3.98	0	0	0	0	0	0	0	0	0	0	0	0	0	0	0	0	0	0	0	0	0	0	0	0	0	0	0	0	0	0	0	-1	0	-2.0265	-17.879	16.957	0	0	0	0	-1	0	-2.1508	-17.769	16.797	0	0	0	0	-1	0	-2.0278	-17.891	16.968	0	0	0	0	0	0	0	0	0	0
399	3.99	0	0	0	1	-1	0	7.4664	-27.317	31.716	0	0	0	0	-1	0	-2.0366	-17.816	16.89	0	0	0	0	0	0	0	0	0	0	0	0	0	0	0	0	0	0	0	0	0	0	0	0	0	0	0	0	0	0	0	-1	0	-2.0278	-17.891	16.968	0	0	0	0	0	0	0	0	0	0
400	4	0	0	0	0	0	0	0	0	0	0	0	0	0	0	0	0	0	0	0	0	0	0	0	0	0	0	0	0	0	0	0	0	0	0	0	0	0	0	0	0	0	0	10.996	-10.996	19.046	0	0	0	0	0	0	0	0	0	0	0	0	1	0	0	17.47	2.0148	16.554	2
401	4.01	0	0	0	0	0	0	0	0	0	0	0	0	0	-1	0	-2.0366	-17.816	16.89	0	0	0	0	0	0	0	0	0	0	0	0	1	0	0	17.883	2.027	16.961	0	0	0	0	0	0	10.996	-10.996	19.046	0	0	0	0	-1	0	-2.0278	-17.891	16.968	0	0	0	1	0	0	17.47	2.0148	16.554	0
402	4.02	0	0	0	0	0	0	0	0	0	0	0	0	0	0	0	0	0	0	0	0	0	0	0	0	0	0	0	0	0	0	0	0	0	0	0	0	0	0	0	0	-1	0	-2.1508	-17.769	16.797	0	0	0	0	-1	0	-2.0278	-17.891	16.968	0	0	0	0	0	0	0	0	0	0
403	4.03	0	0	0	0	0	0	10.917	-10.917	18.908	0	0	0	0	0	0	0	0	0	0	0	0	0	0	0	0	0	0	0	0	0	0	0	0	0	0	0	0	0	0	0	-1	0	-2.0279	-17.891	16.969	0	0	0	0	-1	0	-2.0278	-17.891	16.968	0	0	0	1	0	0	17.47	2.0148	16.554	2
404	4.04	0	0	0	0	0	0	0	0	0	0	0	0	0	0	0	0	0	0	0	0	0	0	0	0	0	0	0	0	0	0	0	0	0	0	0	0	0	0	0	0	0	0	10.996	-10.996	19.046	0	0	0	0	0	0	0	0	0	0	0	0	0	0	0	0	0	0	0
405	4.05	0	0	0	0	0	0	0	0	0	0	0	0	0	-1	0	-2.0366	-17.816	16.89	0	0	0	0	0	0	0	0	0	0	0	0	0	0	0	0	0	0	0	0	0	0	0	0	10.996	-10.996	19.046	0	0	0	0	-1	0	-2.0278	-17.891	16.968	0	0	0	0	0	0	0	0	0	0
406	4.06	0	0	0	0	0	0	0	0	0	0	0	0	0	0	0	0	0	0	0	0	0	0	0	0	10.989	-10.989	19.033	0	0	0	1	0	0	17.883	2.027	16.961	0	0	0	0	0	0	0	0	0	0	0	0	0	-1	0	-2.0278	-17.891	16.968	0	0	0	0	0	0	10.93	-10.93	18.931	0
407	4.07	0	0	0	0	0	0	0	0	0	0	0	0	0	0	0	0	0	0	0	0	0	0	0	0	0	0	0	0	0	0	0	0	0	0	0	0	0	0	0	0	-1	0	-2.1508	-17.769	16.797	0	0	0	0	-1	0	-2.0278	-17.891	16.968	0	0	0	0	0	0	0	0	0	0
408	4.08	0	0	0	0	0	0	0	0	0	0	0	0	0	0	0	0	0	0	0	0	0	0	0	0	0	0	0	0	0	0	1	0	0	17.883	2.027	16.961	0	0	0	0	0	0	0	0	0	0	0	0	0	-1	0	-2.0278	-17.891	16.968	0	0	0	1	0	0	17.47	2.0148	16.554	0
409	4.09	0	0	0	0	0	0	0	0	0	0	0	0	0	0	0	0	0	0	0	0	0	0	0	0	0	0	0	0	0	0	0	0	0	0	0	0	0	0	0	0	0	0	10.996	-10.996	19.046	0	0	0	0	-1	0	-2.0278	-17.891	16.968	0	0	0	0	0	0	0	0	0	2
410	4.1	0	0	0	0	-1	0	-2.0364	-17.814	16.888	0	0	0	0	0	0	0	0	0	0	0	0	0	0	0	0	0	0	0	0	0	0	0	0	0	0	0	0	0	0	0	0	0	10.996	-10.996	19.046	0	0	0	0	0	0	0	0	0	0	0	0	0	0	0	0	0	0	0
411	4.11	0	0	0	0	0	0	10.917	-10.917	18.908	0	0	0	0	0	0	0	0	0	0	0	0	0	0	0	0	0	0	0	0	0	1	0	0	17.883	2.027	16.961	0	0	0	0	0	0	0	0	0	0	0	0	0	-1	0	-2.0278	-17.891	16.968	0	0	0	1	0	0	17.47	2.0148	16.554	0
412	4.12	0	0	0	0	0	0	0	0	0	0	0	0	0	0	0	0	0	0	0	0	0	0	0	0	0	0	0	0	0	0	0	0	0	0	0	0	0	0	0	0	-1	0	-2.1508	-17.769	16.797	0	0	0	0	-1	0	-2.0278	-17.891	16.968	0	0	0	0	0	0	0	0	0	2
413	4.13	0	0	0	0	0	0	0	0	0	0	0	0	0	0	0	0	0	0	0	0	0	0	0	0	0	0	0	0	0	0	0	0	0	0	0	0	0	0	0	0	0	0	10.996	-10.996	19.046	0	0	0	0	0	0	0	0	0	0	0	0	0	0	0	0	0	0	0
414	4.14	0	0	0	0	0	0	0	0	0	0	0	0	0	-1	0	-2.0372	-17.821	16.895	0	0	0	0	0	0	0	0	0	0	0	0	0	0	0	0	0	0	0	0	0	0	0	0	0	0	0	0	0	0	0	-1	0	-2.0278	-17.891	16.968	0	0	0	1	0	0	17.47	2.0148	16.554	2
415	4.15	0	0	0	0	0	0	0	0	0	0	0	0	0	0	0	0	0	0	0	0	0	0	0	0	0	0	0	0	0	0	0	0	0	0	0	0	0	0	0	0	0	0	10.996	-10.996	19.046	0	0	0	0	-1	0	-2.0278	-17.891	16.968	0	0	0	0	0	0	0	0	0	0
416	4.16	0	0	0	0	0	0	10.917	-10.917	18.908	0	0	0	0	0	0	0	0	0	0	0	0	0	0	0	0	0	0	0	0	0	0	0	0	0	0	0	0	0	0	0	0	0	0	0	0	0	0	0	0	0	0	0	0	0	0	0	0	1	0	0	17.47	2.0148	16.554	0
417	4.17	0	0	0	0	0	0	0	0	0	0	0	0	0	-1	0	-2.0366	-17.816	16.89	0	0	0	0	0	0	0	0	0	0	0	0	0	0	0	0	0	0	0	0	0	0	0	0	10.996	-10.996	19.046	0	0	0	0	-1	0	-2.0278	-17.891	16.968	0	0	0	0	0	0	0	0	0	0
418	4.18	0	0	0	0	0	0	0	0	0	0	0	0	0	-1	0	-2.0372	-17.821	16.895	0	0	0	0	0	0	0	0	0	0	0	0	0	0	0	0	0	0	0	0	0	0	0	0	0	0	0	0	0	0	0	0	0	0	0	0	0	0	0	0	0	0	0	0	0	0
419	4.19	0	0	0	0	0	0	0	0	0	0	0	0	0	0	0	0	0	0	0	0	0	0	0	0	0	0	0	0	0	0	0	0	0	0	0	0	0	0	0	0	0	0	0	0	0	0	0	0	0	-1	0	-2.0278	-17.891	16.968	0	0	0	1	0	0	17.47	2.0148	16.554	0
420	4.2	0	0	0	0	0	0	0	0	0	0	0	0	0	0	0	0	0	0	0	0	0	0	0	0	0	0	0	0	0	0	0	0	0	0	0	0	0	0	0	0	-1	0	-2.0279	-17.891	16.969	0	0	0	0	-1	0	-2.0278	-17.891	16.968	0	0	0	0	0	0	0	0	0	0
421	4.21	0	0	0	0	0	0	0	0	0	0	0	0	0	-1	0	-2.0372	-17.821	16.895	0	0	0	0	0	0	0	0	0	0	0	0	1	0	0	17.883	2.027	16.961	0	0	0	0	0	0	10.996	-10.996	19.046	0	0	0	0	0	0	0	0	0	0	0	0	0	0	0	0	0	0	2
422	4.22	0	0	0	0	0	0	0	0	0	0	0	0	0	0	0	0	0	0	0	0	0	0	0	0	0	0	0	0	0	0	0	0	0	0	0	0	0	0	0	0	0	0	10.996	-10.996	19.046	0	0	0	0	-1	0	-2.0278	-17.891	16.968	0	0	0	0	0	0	0	0	0	0
423	4.23	0	0	0	0	0	0	0	0	0	0	0	0	0	0	0	0	0	0	0	0	0	0	0	0	0	0	0	0	0	0	0	-1	0	-2.0265	-17.879	16.957	0	0	0	0	0	0	0	0	0	0	0	0	0	-1	0	-2.0278	-17.891	16.968	0	0	0	0	0	0	0	0	0	0
424	4.24	0	0	0	0	0	0	0	0	0	0	0	0	0	0	0	0	0	0	0	0	0	0	0	0	0	0	0	0	0	0	0	0	0	0	0	0	0	0	0	0	0	0	0	0	0	0	0	0	0	-1	0	-2.0278	-17.891	16.968	0	0	0	0	0	0	0	0	0	2
425	4.25	0	0	0	0	0	0	0	0	0	0	0	0	0	0	0	0	0	0	0	0	0	0	0	0	0	0	0	0	0	0	0	0	0	0	0	0	0	0	0	0	-1	0	-2.1508	-17.769	16.797	0	0	0	0	-1	0	-2.0278	-17.891	16.968	0	0	0	0	0	0	0	0	0	0
426	4.26	0	0	0	0	0	0	10.917	-10.917	18.908	0	0	0	0	0	0	0	0	0	0	0	0	0	0	0	0	0	0	0	0	0	0	-1	0	-2.0265	-17.879	16.957	0	0	0	0	0	0	10.996	-10.996	19.046	0	0	0	0	-1	0	-2.0278	-17.891	16.968	0	0	0	1	0	0	17.47	2.0148	16.554	0
427	4.27	0	0	0	0	0	0	0	0	0	0	0	0	0	0	0	0	0	0	0	0	0	0	0	0	0	0	0	0	0	0	0	0	0	0	0	0	0	0	0	0	0	0	10.996	-10.996	19.046	0	0	0	0	-1	0	-2.0278	-17.891	16.968	0	0	0	0	0	0	0	0	0	2
428	4.28	0	0	0	0	0	0	0	0	0	0	0	0	0	0	0	0	0	0	0	0	0	0	0	0	0	0	0	0	0	0	1	0	0	17.883	2.027	16.961	0	0	0	0	0	0	0	0	0	0	0	0	0	-1	0	-2.0278	-17.891	16.968	0	0	0	1	0	0	17.47	2.0148	16.554	2
429	4.29	0	0	0	0	0	0	0	0	0	0	0	0	0	0	0	0	0	0	0	0	0	0	0	0	0	0	0	0	0	0	0	-1	0	-2.0265	-17.879	16.957	0	0	0	0	0	0	0	0	0	0	0	0	0	-1	0	-2.0278	-17.891	16.968	0	0	0	0	0	0	0	0	0	0
430	4.3	0	0	0	0	0	0	0	0	0	0	0	0	0	-1	0	-2.0366	-17.816	16.89	0	0	0	0	-1	0	-2.0266	-17.88	16.957	0	0	0	0	0	0	0	0	0	0	0	0	0	0	0	0	0	0	0	0	0	0	-1	0	-2.0278	-17.891	16.968	0	0	0	0	0	0	0	0	0	2
431	4.31	0	0	0	0	0	0	0	0	0	0	0	0	0	0	0	0	0	0	0	0	0	0	0	0	0	0	0	0	0	0	0	0	0	0	0	0	0	0	0	0	0	0	10.996	-10.996	19.046	0	0	0	0	-1	0	-2.0278	-17.891	16.968	0	0	0	0	0	0	0	0	0	0
432	4.32	0	0	0	0	0	0	0	0	0	0	0	0	0	0	0	0	0	0	0	0	0	0	0	0	0	0	0	0	0	0	0	0	0	0	0	0	0	0	0	0	-1	0	-2.1508	-17.769	16.797	0	0	0	0	-1	0	-2.0278	-17.891	16.968	0	0	0	0	0	0	0	0	0	2
433	4.33	0	0	0	0	-1	0	-2.0364	-17.814	16.888	0	0	0	0	0	0	0	0	0	0	0	0	0	0	0	0	0	0	0	0	0	1	0	0	17.883	2.027	16.961	0	0	0	0	0	0	10.996	-10.996	19.046	0	0	0	0	0	0	0	0	0	0	0	0	1	0	0	17.47	2.0148	16.554	2
434	4.34	0	0	0	0	0	0	0	0	0	0	0	0	0	0	0	0	0	0	0	0	0	0	0	0	0	0	0	0	0	0	1	0	0	17.883	2.027	16.961	0	0	0	0	0	0	10.996	-10.996	19.046	0	0	0	0	-1	0	-2.0278	-17.891	16.968	0	0	0	0	0	0	0	0	0	0
435	4.35	0	0	0	0	0	0	0	0	0	0	0	0	0	0	0	0	0	0	0	0	0	0	0	0	0	0	0	0	0	0	0	-1	0	-2.0265	-17.879	16.957	0	0	0	0	-1	0	-2.1508	-17.769	16.797	0	0	0	0	0	0	0	0	0	0	0	0	0	0	0	0	0	0	0
436	4.36	0	0	0	0	0	0	0	0	0	0	0	0	0	0	0	0	0	0	0	0	0	0	0	0	0	0	0	0	0	0	0	-1	0	-2.0265	-17.879	16.957	0	0	0	0	0	0	10.996	-10.996	19.046	0	0	0	0	-1	0	-2.0278	-17.891	16.968	0	0	0	0	0	0	0	0	0	0
437	4.37	0	0	0	0	0	0	0	0	0	0	0	0	0	-1	0	-2.0372	-17.821	16.895	0	0	0	0	0	0	0	0	0	0	0	0	0	0	0	0	0	0	0	0	0	0	0	0	0	0	0	0	0	0	0	-1	0	-2.0278	-17.891	16.968	0	0	0	0	0	0	0	0	0	2
438	4.38	0	0	0	0	0	0	0	0	0	0	0	0	0	-1	0	-2.0372	-17.821	16.895	0	0	0	0	0	0	0	0	0	0	0	0	1	0	0	17.883	2.027	16.961	0	0	0	0	0	0	10.996	-10.996	19.046	0	0	0	0	-1	0	-2.0278	-17.891	16.968	0	0	0	0	0	0	0	0	0	2
439	4.39	0	0	0	0	0	0	0	0	0	0	0	0	0	0	0	0	0	0	0	0	0	0	0	0	0	0	0	0	0	0	0	-1	0	-2.0265	-17.879	16.957	0	0	0	0	0	0	10.996	-10.996	19.046	0	0	0	0	-1	0	-2.0278	-17.891	16.968	0	0	0	0	0	0	0	0	0	2
440	4.4	0	0	0	0	0	0	0	0	0	0	0	0	0	0	0	0	0	0	0	0	0	0	0	0	10.989	-10.989	19.033	0	0	0	0	0	0	0	0	0	0	0	0	0	0	0	10.996	-10.996	19.046	0	0	0	0	-1	0	-2.0278	-17.891	16.968	0	0	0	0	0	0	0	0	0	0
441	4.41	0	0	0	0	0	0	0	0	0	0	0	0	0	-1	0	-2.0372	-17.821	16.895	0	0	0	0	0	0	0	0	0	0	0	0	1	0	0	17.883	2.027	16.961	0	0	0	0	0	0	10.996	-10.996	19.046	0	0	0	0	-1	0	-2.0278	-17.891	16.968	0	0	0	0	0	0	0	0	0	2
442	4.42	0	0	0	0	0	0	0	0	0	0	0	0	0	0	0	0	0	0	0	0	0	0	0	0	0	0	0	0	0	0	0	0	0	0	0	0	0	0	0	0	0	0	0	0	0	0	0	0	0	-1	0	-2.0278	-17.891	16.968	0	0	0	0	0	0	0	0	0	2
443	4.43	0	0	0	0	0	0	0	0	0	0	0	0	0	0	0	0	0	0	0	0	0	0	0	0	0	0	0	0	0	0	1	0	0	17.883	2.027	16.961	0	0	0	0	0	0	0	0	0	0	0	0	0	-1	0	-2.0278	-17.891	16.968	0	0	0	0	0	0	0	0	0	2
444	4.44	0	0	0	0	0	0	0	0	0	0	0	0	0	0	0	0	0	0	0	0	0	0	0	0	10.989	-10.989	19.033	0	0	0	0	0	0	0	0	0	0	0	0	0	-1	0	-2.0279	-17.891	16.969	0	0	0	0	-1	0	-2.0278	-17.891	16.968	0	0	0	0	0	0	0	0	0	2
445	4.45	0	0	0	0	0	0	0	0	0	0	0	0	0	-1	0	-2.0366	-17.816	16.89	0	0	0	0	0	0	0	0	0	0	0	0	1	0	0	17.883	2.027	16.961	0	0	0	0	0	0	10.996	-10.996	19.046	0	0	0	0	-1	0	-2.0278	-17.891	16.968	0	0	0	0	0	0	0	0	0	2
446	4.46	0	0	0	0	0	0	0	0	0	0	0	0	0	0	0	0	0	0	0	0	0	0	0	0	10.989	-10.989	19.033	0	0	0	0	0	0	10.991	-10.991	19.037	0	0	0	0	0	0	0	0	0	0	0	0	0	0	0	0	0	0	0	0	0	0	0	0	0	0	0	2
447	4.47	0	0	0	0	0	0	0	0	0	0	0	0	0	0	0	0	0	0	0	0	0	0	0	0	0	0	0	0	0	0	0	0	0	0	0	0	0	0	0	0	0	0	10.996	-10.996	19.046	0	0	0	0	-1	0	-2.0278	-17.891	16.968	0	0	0	0	0	0	0	0	0	2
448	4.48	0	0	0	0	0	0	0	0	0	0	0	0	0	0	0	0	0	0	0	0	0	0	0	0	0	0	0	0	0	0	0	0	0	0	0	0	0	0	0	0	0	0	0	0	0	0	0	0	0	-1	0	-2.0278	-17.891	16.968	0	0	0	0	0	0	0	0	0	2
449	4.49	0	0	0	0	0	0	10.917	-10.917	18.908	0	0	0	0	0	0	0	0	0	0	0	0	0	0	0	0	0	0	0	0	0	1	0	0	17.883	2.027	16.961	0	0	0	0	0	0	0	0	0	0	0	0	0	-1	0	-2.0278	-17.891	16.968	0	0	0	0	0	0	0	0	0	2
450	4.5	0	0	0	0	0	0	0	0	0	0	0	0	0	0	0	0	0	0	0	0	0	0	0	0	0	0	0	0	0	0	0	0	0	0	0	0	0	0	0	0	0	0	10.996	-10.996	19.046	0	0	0	0	-1	0	-2.0278	-17.891	16.968	0	0	0	0	0	0	0	0	0	0
451	4.51	0	0	0	0	0	0	0	0	0	0	0	0	0	0	0	0	0	0	0	0	0	0	0	0	0	0	0	0	0	0	0	0	0	0	0	0	0	0	0	0	0	0	10.996	-10.996	19.046	0	0	0	0	-1	0	-2.0278	-17.891	16.968	0	0	0	0	0	0	0	0	0	2
452	4.52	0	0	0	0	0	0	0	0	0	0	0	0	0	0	0	0	0	0	0	0	0	0	0	0	0	0	0	0	0	0	0	0	0	0	0	0	0	0	0	0	-1	0	-2.1508	-17.769	16.797	0	0	0	0	-1	0	-2.0278	-17.891	16.968	0	0	0	0	0	0	0	0	0	0
453	4.53	0	0	0	0	0	0	0	0	0	0	0	0	0	0	0	0	0	0	0	0	0	0	0	0	0	0	0	0	0	0	0	0	0	0	0	0	0	0	0	0	0	0	10.996	-10.996	19.046	0	0	0	0	-1	0	-2.0278	-17.891	16.968	0	0	0	0	0	0	0	0	0	0
454	4.54	0	0	0	0	0	0	0	0	0	0	0	0	0	0	0	0	0	0	0	0	0	0	0	0	0	0	0	0	0	0	0	0	0	0	0	0	0	0	0	0	0	0	0	0	0	0	0	0	0	-1	0	-2.0278	-17.891	16.968	0	0	0	0	0	0	0	0	0	0
455	4.55	0	0	0	0	0	0	0	0	0	0	0	0	0	0	0	0	0	0	0	0	0	0	0	0	0	0	0	0	0	0	0	-1	0	-2.0265	-17.879	16.957	0	0	0	0	0	0	10.996	-10.996	19.046	0	0	0	0	-1	0	-2.0278	-17.891	16.968	0	0	0	0	0	0	0	0	0	2
456	4.56	0	0	0	0	0	0	0	0	0	0	0	0	0	0	0	0	0	0	0	0	0	0	0	0	0	0	0	0	0	0	0	0	0	0	0	0	0	0	0	0	0	0	0	0	0	0	0	0	1	-1	0	7.5503	-27.469	31.921	0	0	0	0	0	0	0	0	0	0
457	4.57	0	0	0	0	0	0	0	0	0	0	0	0	0	-1	0	-2.0372	-17.821	16.895	0	0	0	0	0	0	0	0	0	0	0	0	0	0	0	0	0	0	0	0	0	0	0	0	10.996	-10.996	19.046	0	0	0	0	-1	0	-2.0278	-17.891	16.968	0	0	0	0	0	0	0	0	0	2
458	4.58	0	0	0	0	0	0	0	0	0	0	0	0	0	0	0	0	0	0	0	0	0	0	0	0	10.989	-10.989	19.033	0	0	0	0	-1	0	-2.0265	-17.879	16.957	0	0	0	0	0	0	10.996	-10.996	19.046	0	0	0	0	0	0	0	0	0	0	0	0	0	0	0	0	0	0	0
459	4.59	0	0	0	0	0	0	0	0	0	0	0	0	0	0	0	0	0	0	0	0	0	0	0	0	0	0	0	0	0	0	0	0	0	0	0	0	0	0	0	0	0	0	10.996	-10.996	19.046	0	0	0	0	-1	0	-2.0278	-17.891	16.968	0	0	0	0	0	0	0	0	0	0
460	4.6	0	0	0	0	0	0	0	0	0	0	0	0	0	-1	0	-2.0366	-17.816	16.89	0	0	0	0	0	0	0	0	0	0	0	0	0	0	0	11.258	-11.253	19.496	0	0	0	0	0	0	10.996	-10.996	19.046	0	0	0	0	-1	0	-2.0278	-17.891	16.968	0	0	0	0	0	0	0	0	0	2
461	4.61	0	0	0	0	0	0	0	0	0	0	0	0	0	0	0	0	0	0	0	0	0	0	0	0	0	0	0	0	0	0	1	0	0	17.883	2.027	16.961	0	0	0	0	0	0	10.996	-10.996	19.046	0	0	0	0	-1	0	-2.0278	-17.891	16.968	0	0	0	0	0	0	0	0	0	0
462	4.62	0	0	0	0	0	0	0	0	0	0	0	0	0	0	0	0	0	0	0	0	0	0	0	0	0	0	0	0	0	0	0	-1	0	-2.0265	-17.879	16.957	0	0	0	0	-1	0	-2.1508	-17.769	16.797	0	0	0	0	-1	0	-2.0278	-17.891	16.968	0	0	0	0	0	0	0	0	0	2
463	4.63	0	0	0	0	0	0	0	0	0	0	0	0	0	-1	0	-2.0372	-17.821	16.895	0	0	0	0	0	0	0	0	0	0	0	0	0	0	0	0	0	0	0	0	0	0	0	0	10.996	-10.996	19.046	0	0	0	0	0	0	10.994	-10.994	19.042	0	0	0	1	0	0	17.47	2.0148	16.554	0
464	4.64	0	0	0	0	0	0	0	0	0	0	0	0	0	0	0	0	0	0	0	0	0	0	0	0	10.989	-10.989	19.033	0	0	0	0	0	0	0	0	0	0	0	0	0	0	0	10.996	-10.996	19.046	0	0	0	0	-1	0	-2.0278	-17.891	16.968	0	0	0	0	0	0	0	0	0	2
465	4.65	0	0	0	0	0	0	0	0	0	0	0	0	0	0	0	0	0	0	0	0	0	0	0	0	0	0	0	0	0	0	0	0	0	0	0	0	0	0	0	0	-1	0	-2.1508	-17.769	16.797	0	0	0	0	0	0	0	0	0	0	0	0	0	0	0	0	0	0	2
466	4.66	0	0	0	0	0	0	0	0	0	0	0	0	0	0	0	0	0	0	0	0	0	0	0	0	0	0	0	0	0	0	1	0	0	17.761	2.1499	16.789	0	0	0	0	0	0	10.996	-10.996	19.046	0	0	0	0	0	0	0	0	0	0	0	0	1	0	0	30.423	8.5595	27.174	0
467	4.67	0	0	0	0	0	0	0	0	0	0	0	0	0	0	0	0	0	0	0	0	0	0	0	0	0	0	0	0	0	0	1	0	0	17.883	2.027	16.961	0	0	0	0	-1	0	-2.1508	-17.769	16.797	0	0	0	0	-1	0	-2.0278	-17.891	16.968	0	0	0	0	0	0	0	0	0	2
468	4.68	0	0	0	0	0	0	0	0	0	0	0	0	0	0	0	0	0	0	0	0	0	0	0	0	0	0	0	0	0	0	0	0	0	0	0	0	0	0	0	0	0	0	0	0	0	0	0	0	0	-1	0	-2.0278	-17.891	16.968	0	0	0	0	0	0	0	0	0	0
469	4.69	0	0	0	0	0	0	0	0	0	0	0	0	0	0	0	0	0	0	0	0	0	0	0	0	0	0	0	0	0	0	0	0	0	0	0	0	0	0	0	0	0	0	0	0	0	0	0	0	0	-1	0	-2.0278	-17.891	16.968	0	0	0	0	0	0	0	0	0	2
470	4.7	0	0	0	0	0	0	0	0	0	0	0	0	0	0	0	0	0	0	0	0	0	0	0	0	0	0	0	0	0	0	0	0	0	0	0	0	0	0	0	0	0	0	10.996	-10.996	19.046	0	0	0	0	-1	0	-2.0278	-17.891	16.968	0	0	0	0	0	0	0	0	0	0
471	4.71	0	0	0	0	0	0	0	0	0	0	0	0	0	0	0	0	0	0	0	0	0	0	0	0	10.989	-10.989	19.033	0	0	0	0	0	0	0	0	0	0	0	0	0	0	0	0	0	0	0	0	0	0	-1	0	-2.0278	-17.891	16.968	0	0	0	1	0	0	17.47	2.0148	16.554	2
472	4.72	0	0	0	0	0	0	0	0	0	0	0	0	0	-1	0	-2.0372	-17.821	16.895	0	0	0	0	0	0	0	0	0	0	0	0	0	0	0	0	0	0	0	0	0	0	0	0	10.996	-10.996	19.046	0	0	0	0	-1	0	-2.0278	-17.891	16.968	0	0	0	0	0	0	0	0	0	0
473	4.73	0	0	0	0	0	0	0	0	0	0	0	0	0	0	0	0	0	0	0	0	0	0	0	0	0	0	0	0	0	0	0	0	0	0	0	0	0	0	0	0	0	0	10.996	-10.996	19.046	0	0	0	0	-1	0	-2.0278	-17.891	16.968	0	0	0	0	0	0	0	0	0	2
474	4.74	0	0	0	0	0	0	0	0	0	0	0	0	0	0	0	0	0	0	0	0	0	0	0	0	0	0	0	0	0	0	0	0	0	0	0	0	0	0	0	0	0	0	10.996	-10.996	19.046	0	0	0	0	-1	0	-2.0278	-17.891	16.968	0	0	0	1	0	0	17.47	2.0148	16.554	0
475	4.75	0	0	0	0	0	0	0	0	0	0	0	0	0	-1	0	-2.0366	-17.816	16.89	0	0	0	0	-1	0	-2.0266	-17.88	16.957	0	0	0	0	0	0	0	0	0	0	0	0	0	-1	0	-2.1508	-17.769	16.797	0	0	0	0	0	0	0	0	0	0	0	0	0	0	0	0	0	0	2
476	4.76	0	0	0	0	0	0	0	0	0	0	0	0	0	0	0	0	0	0	0	0	0	0	0	0	0	0	0	0	0	0	0	0	0	0	0	0	0	0	0	0	-1	0	-2.0279	-17.891	16.969	0	0	0	0	-1	0	-2.0278	-17.891	16.968	0	0	0	0	0	0	0	0	0	0
477	4.77	0	0	0	0	0	0	0	0	0	0	0	0	0	0	0	0	0	0	0	0	0	0	0	0	0	0	0	0	0	0	0	0	0	0	0	0	0	0	0	0	0	0	10.996	-10.996	19.046	0	0	0	0	-1	0	-2.0278	-17.891	16.968	0	0	0	0	0	0	0	0	0	2
478	4.78	0	0	0	0	0	0	10.917	-10.917	18.908	0	0	0	0	0	0	0	0	0	0	0	0	0	0	0	0	0	0	0	0	0	0	0	0	0	0	0	0	0	0	0	0	0	0	0	0	0	0	0	0	-1	0	-2.0278	-17.891	16.968	0	0	0	1	0	0	17.47	2.0148	16.554	2
479	4.79	0	0	0	0	0	0	0	0	0	0	0	0	0	0	0	0	0	0	0	0	0	0	0	0	0	0	0	0	0	0	0	0	0	0	0	0	0	0	0	0	0	0	10.996	-10.996	19.046	0	0	0	0	-1	0	-2.0278	-17.891	16.968	0	0	0	0	0	0	0	0	0	2
480	4.8	0	0	0	0	0	0	10.917	-10.917	18.908	0	0	0	0	-1	0	-2.0366	-17.816	16.89	0	0	0	0	0	0	0	0	0	0	0	0	0	0	0	11.258	-11.253	19.496	0	0	0	0	0	0	10.996	-10.996	19.046	0	0	0	0	-1	0	-2.0278	-17.891	16.968	0	0	0	0	0	0	0	0	0	2
481	4.81	0	0	0	0	0	0	0	0	0	0	0	0	0	0	0	0	0	0	0	0	0	0	0	0	0	0	0	0	0	0	0	-1	0	-2.0265	-17.879	16.957	0	0	0	0	0	0	0	0	0	0	0	0	0	-1	0	-2.0278	-17.891	16.968	0	0	0	0	0	0	0	0	0	0
482	4.82	0	0	0	0	0	0	0	0	0	0	0	0	0	0	0	0	0	0	0	0	0	0	0	0	10.989	-10.989	19.033	0	0	0	0	0	0	0	0	0	0	0	0	0	0	0	0	0	0	0	0	0	0	-1	0	-2.0278	-17.891	16.968	0	0	0	0	0	0	0	0	0	0
483	4.83	0	0	0	0	0	0	0	0	0	0	0	0	0	0	0	0	0	0	0	0	0	0	0	0	0	0	0	0	0	0	0	0	0	0	0	0	0	0	0	0	0	0	0	0	0	0	0	0	1	-1	0	7.5503	-27.469	31.921	0	0	0	0	0	0	0	0	0	2
484	4.84	0	0	0	0	0	0	0	0	0	0	0	0	0	0	0	0	0	0	0	0	0	0	0	0	10.989	-10.989	19.033	0	0	0	0	0	0	11.258	-11.253	19.496	0	0	0	0	0	0	0	0	0	0	0	0	0	-1	0	-2.0278	-17.891	16.968	0	0	0	1	0	0	17.47	2.0148	16.554	2
485	4.85	0	0	0	0	0	0	0	0	0	0	0	0	0	0	0	0	0	0	0	0	0	0	0	0	0	0	0	0	0	0	0	0	0	0	0	0	0	0	0	0	-1	0	-2.0279	-17.891	16.969	0	0	0	1	-1	0	7.5503	-27.469	31.921	0	0	0	0	0	0	0	0	0	0
486	4.86	0	0	0	0	0	0	0	0	0	0	0	0	0	0	0	0	0	0	0	0	0	0	0	0	0	0	0	0	0	0	0	0	0	0	0	0	0	0	0	0	0	0	10.996	-10.996	19.046	0	0	0	0	0	0	0	0	0	0	0	0	1	0	0	17.471	2.0135	16.556	0
487	4.87	0	0	0	0	0	0	0	0	0	0	0	0	0	0	0	0	0	0	0	0	0	0	0	0	0	0	0	0	0	0	1	0	0	17.883	2.027	16.961	0	0	0	0	0	0	0	0	0	0	0	0	0	-1	0	-2.0278	-17.891	16.968	0	0	0	0	0	0	0	0	0	2
488	4.88	0	0	0	0	0	0	0	0	0	0	0	0	0	0	0	0	0	0	0	0	0	0	0	0	0	0	0	0	0	0	0	0	0	0	0	0	0	0	0	0	0	0	0	0	0	0	0	0	1	-1	0	7.5503	-27.469	31.921	0	0	0	1	0	0	17.47	2.0148	16.554	0
489	4.89	0	0	0	0	0	0	0	0	0	0	0	0	0	0	0	0	0	0	0	0	0	0	0	0	0	0	0	0	0	0	1	0	0	17.883	2.027	16.961	0	0	0	0	0	0	0	0	0	0	0	0	0	-1	0	-2.0278	-17.891	16.968	0	0	0	0	0	0	0	0	0	2
490	4.9	0	0	0	0	0	0	0	0	0	0	0	0	0	0	0	0	0	0	0	0	0	0	0	0	0	0	0	0	0	0	0	-1	0	-2.0265	-17.879	16.957	0	0	0	0	-1	0	-2.1508	-17.769	16.797	0	0	0	0	-1	0	-2.0278	-17.891	16.968	0	0	0	0	0	0	0	0	0	0
491	4.91	0	0	0	0	0	0	0	0	0	0	0	0	0	0	0	0	0	0	0	0	0	0	0	0	0	0	0	0	0	0	0	0	0	0	0	0	0	0	0	0	0	0	0	0	0	0	0	0	0	0	0	0	0	0	0	0	0	0	0	0	0	0	0	2
492	4.92	0	0	0	0	0	0	0	0	0	0	0	0	0	0	0	0	0	0	0	0	0	0	0	0	0	0	0	0	0	0	0	0	0	0	0	0	0	0	0	0	0	0	10.996	-10.996	19.046	0	0	0	0	-1	0	-2.0278	-17.891	16.968	0	0	0	0	0	0	0	0	0	0
493	4.93	0	0	0	0	0	0	0	0	0	0	0	0	0	0	0	0	0	0	0	0	0	0	0	0	10.989	-10.989	19.033	0	0	0	0	0	0	0	0	0	0	0	0	0	0	0	0	0	0	0	0	0	0	-1	0	-2.0278	-17.891	16.968	0	0	0	0	0	0	0	0	0	0
494	4.94	0	0	0	0	0	0	0	0	0	0	0	0	0	0	0	0	0	0	0	0	0	0	0	0	10.989	-10.989	19.033	0	0	0	0	0	0	11.258	-11.253	19.496	0	0	0	0	0	0	10.996	-10.996	19.046	0	0	0	0	-1	0	-2.0278	-17.891	16.968	0	0	0	0	0	0	0	0	0	2
495	4.95	0	0	0	0	0	0	0	0	0	0	0	0	0	-1	0	-2.0366	-17.816	16.89	0	0	0	0	0	0	0	0	0	0	0	0	0	-1	0	-2.0265	-17.879	16.957	0	0	0	0	0	0	10.996	-10.996	19.046	0	0	0	0	0	0	0	0	0	0	0	0	0	0	0	0	0	0	2
496	4.96	0	0	0	0	0	0	0	0	0	0	0	0	0	0	0	0	0	0	0	0	0	0	0	0	10.989	-10.989	19.033	0	0	0	1	0	0	17.883	2.027	16.961	0	0	0	0	0	0	0	0	0	0	0	0	0	-1	0	-2.0278	-17.891	16.968	0	0	0	1	0	0	17.47	2.0148	16.554	2
497	4.97	0	0	0	0	0	0	10.917	-10.917	18.908	0	0	0	0	0	0	0	0	0	0	0	0	0	0	0	0	0	0	0	0	0	0	0	0	0	0	0	0	0	0	0	0	0	10.996	-10.996	19.046	0	0	0	0	-1	0	-2.0278	-17.891	16.968	0	0	0	0	0	0	0	0	0	2
498	4.98	0	0	0	0	0	0	0	0	0	0	0	0	0	0	0	0	0	0	0	0	0	0	0	0	0	0	0	0	0	0	0	0	0	0	0	0	0	0	0	0	0	0	0	0	0	0	0	0	0	0	0	0	0	0	0	0	0	1	0	0	17.47	2.0148	16.554	2
499	4.99	0	0	0	0	0	0	0	0	0	0	0	0	0	0	0	0	0	0	0	0	0	0	0	0	0	0	0	0	0	0	0	0	0	0	0	0	0	0	0	0	0	0	0	0	0	0	0	0	0	0	0	0	0	0	0	0	0	0	0	0	0	0	0	2
500	5	0	0	0	0	0	0	0	0	0	0	0	0	0	0	0	0	0	0	0	0	0	0	0	0	0	0	0	0	0	0	0	0	0	0	0	0	0	0	0	0	0	0	10.996	-10.996	19.046	0	0	0	0	-1	0	-2.0278	-17.891	16.968	0	0	0	0	0	0	0	0	0	0
501	5.01	0	0	0	0	0	0	0	0	0	0	0	0	0	0	0	0	0	0	0	0	0	0	0	0	10.989	-10.989	19.033	0	0	0	1	0	0	17.883	2.027	16.961	0	0	0	0	0	0	0	0	0	0	0	0	0	-1	0	-2.0278	-17.891	16.968	0	0	0	1	0	0	17.47	2.0148	16.554	0
502	5.02	0	0	0	0	0	0	0	0	0	0	0	0	0	0	0	0	0	0	0	0	0	0	0	0	0	0	0	0	0	0	0	0	0	0	0	0	0	0	0	0	0	0	10.996	-10.996	19.046	0	0	0	0	0	0	0	0	0	0	0	0	0	0	0	0	0	0	0
503	5.03	0	0	0	0	0	0	0	0	0	0	0	0	0	0	0	0	0	0	0	0	0	0	0	0	0	0	0	0	0	0	1	0	0	17.883	2.027	16.961	0	0	0	0	0	0	0	0	0	0	0	0	0	0	0	0	0	0	0	0	0	1	0	0	17.47	2.0148	16.554	2
504	5.04	0	0	0	0	0	0	0	0	0	0	0	0	0	0	0	0	0	0	0	0	0	0	0	0	0	0	0	0	0	0	1	0	0	17.883	2.027	16.961	0	0	0	0	0	0	0	0	0	0	0	0	0	-1	0	-2.0278	-17.891	16.968	0	0	0	0	0	0	0	0	0	0
505	5.05	0	0	0	0	0	0	0	0	0	0	0	0	0	0	0	0	0	0	0	0	0	0	0	0	0	0	0	0	0	0	1	0	0	17.883	2.027	16.961	0	0	0	0	0	0	10.996	-10.996	19.046	0	0	0	0	0	0	0	0	0	0	0	0	0	0	0	0	0	0	2
506	5.06	0	0	0	0	0	0	0	0	0	0	0	0	0	0	0	0	0	0	0	0	0	0	0	0	0	0	0	0	0	0	0	0	0	11.258	-11.253	19.496	0	0	0	0	0	0	0	0	0	0	0	0	0	-1	0	-2.0278	-17.891	16.968	0	0	0	0	0	0	0	0	0	2
507	5.07	0	0	0	0	0	0	0	0	0	0	0	0	0	0	0	0	0	0	0	0	0	0	0	0	0	0	0	0	0	0	0	0	0	0	0	0	0	0	0	0	0	0	10.996	-10.996	19.046	0	0	0	0	0	0	0	0	0	0	0	0	0	0	0	0	0	0	0
508	5.08	0	0	0	0	0	0	0	0	0	0	0	0	0	0	0	0	0	0	0	0	0	0	0	0	0	0	0	0	0	0	0	-1	0	-2.0265	-17.879	16.957	0	0	0	0	0	0	0	0	0	0	0	0	0	-1	0	-2.0278	-17.891	16.968	0	0	0	0	0	0	0	0	0	0
509	5.09	0	0	0	0	0	0	0	0	0	0	0	0	0	0	0	0	0	0	0	0	0	0	0	0	0	0	0	0	0	0	0	0	0	0	0	0	0	0	0	0	0	0	0	0	0	0	0	0	0	0	0	10.994	-10.994	19.042	0	0	0	0	0	0	0	0	0	2
510	5.1	0	0	0	0	0	0	0	0	0	0	0	0	0	-1	0	-2.0372	-17.821	16.895	0	0	0	0	0	0	0	0	0	0	0	0	0	0	0	0	0	0	0	0	0	0	0	0	0	0	0	0	0	0	0	0	0	0	0	0	0	0	0	0	0	0	0	0	0	2
511	5.11	0	0	0	0	0	0	0	0	0	0	0	0	0	0	0	0	0	0	0	0	0	0	0	0	0	0	0	0	0	0	1	0	0	17.883	2.027	16.961	0	0	0	0	0	0	0	0	0	0	0	0	0	-1	0	-2.0278	-17.891	16.968	0	0	0	0	0	0	0	0	0	0
512	5.12	0	0	0	0	0	0	0	0	0	0	0	0	0	0	0	0	0	0	0	0	0	0	0	0	0	0	0	0	0	0	0	0	0	0	0	0	0	0	0	0	0	0	0	0	0	0	0	0	0	-1	0	-2.0278	-17.891	16.968	0	0	0	0	0	0	0	0	0	2
513	5.13	0	0	0	0	0	0	0	0	0	0	0	0	0	0	0	0	0	0	0	0	0	0	0	0	0	0	0	0	0	0	0	0	0	0	0	0	0	0	0	0	0	0	0	0	0	0	0	0	0	0	0	0	0	0	0	0	0	1	0	0	17.47	2.0148	16.554	0
514	5.14	0	0	0	0	0	0	0	0	0	0	0	0	0	0	0	0	0	0	0	0	0	0	0	0	0	0	0	0	0	0	0	0	0	0	0	0	0	0	0	0	0	0	0	0	0	0	0	0	0	-1	0	-2.0278	-17.891	16.968	0	0	0	1	0	0	17.47	2.0148	16.554	2
515	5.15	0	0	0	0	0	0	0	0	0	0	0	0	0	0	0	0	0	0	0	0	0	0	0	0	0	0	0	0	0	0	0	0	0	0	0	0	0	0	0	0	0	0	10.996	-10.996	19.046	0	0	0	0	-1	0	-2.0278	-17.891	16.968	0	0	0	0	0	0	0	0	0	0
516	5.16	0	0	0	0	0	0	0	0	0	0	0	0	0	0	0	0	0	0	0	0	0	0	0	0	0	0	0	0	0	0	1	0	0	17.883	2.027	16.961	0	0	0	0	0	0	0	0	0	0	0	0	0	0	0	10.994	-10.994	19.042	0	0	0	0	0	0	0	0	0	2
517	5.17	0	0	0	0	0	0	0	0	0	0	0	0	0	0	0	0	0	0	0	0	0	0	0	0	0	0	0	0	0	0	1	0	0	17.883	2.027	16.961	0	0	0	0	0	0	10.996	-10.996	19.046	0	0	0	0	-1	0	-2.0278	-17.891	16.968	0	0	0	0	0	0	0	0	0	0
518	5.18	0	0	0	0	0	0	0	0	0	0	0	0	0	0	0	0	0	0	0	0	0	0	0	0	0	0	0	0	0	0	1	0	0	17.883	2.027	16.961	0	0	0	0	0	0	0	0	0	0	0	0	1	-1	0	7.5503	-27.469	31.921	0	0	0	1	0	0	17.471	2.0135	16.556	2
519	5.19	0	0	0	0	0	0	0	0	0	0	0	0	0	0	0	0	0	0	0	0	0	0	0	0	10.989	-10.989	19.033	0	0	0	0	-1	0	-2.0265	-17.879	16.957	0	0	0	0	0	0	10.996	-10.996	19.046	0	0	0	0	0	0	10.994	-10.994	19.042	0	0	0	1	0	0	17.47	2.0148	16.554	2
520	5.2	0	0	0	0	0	0	0	0	0	0	0	0	0	0	0	0	0	0	0	0	0	0	0	0	0	0	0	0	0	0	0	0	0	0	0	0	0	0	0	0	0	0	0	0	0	0	0	0	0	-1	0	-2.0278	-17.891	16.968	0	0	0	0	0	0	0	0	0	2
521	5.21	0	0	0	0	0	0	0	0	0	0	0	0	0	-1	0	-2.0372	-17.821	16.895	0	0	0	0	0	0	0	0	0	0	0	0	1	0	0	17.883	2.027	16.961	0	0	0	0	0	0	0	0	0	0	0	0	1	-1	0	7.5503	-27.469	31.921	0	0	0	0	0	0	0	0	0	2
522	5.22	0	0	0	0	0	0	0	0	0	0	0	0	0	0	0	0	0	0	0	0	0	0	0	0	10.989	-10.989	19.033	0	0	0	0	0	0	0	0	0	0	0	0	0	0	0	0	0	0	0	0	0	0	-1	0	-2.0278	-17.891	16.968	0	0	0	0	0	0	0	0	0	2
523	5.23	0	0	0	0	0	0	0	0	0	0	0	0	0	0	0	0	0	0	0	0	0	0	0	0	0	0	0	0	0	0	1	0	0	17.883	2.027	16.961	0	0	0	0	0	0	0	0	0	0	0	0	1	-1	0	7.5503	-27.469	31.921	0	0	0	0	0	0	0	0	0	2
524	5.24	0	0	0	0	0	0	0	0	0	0	0	0	0	0	0	0	0	0	0	0	0	0	0	0	0	0	0	0	0	0	0	0	0	11.258	-11.253	19.496	0	0	0	0	0	0	0	0	0	0	0	0	0	-1	0	-2.0278	-17.891	16.968	0	0	0	1	0	0	17.47	2.0148	16.554	2
525	5.25	0	0	0	0	0	0	0	0	0	0	0	0	0	0	0	0	0	0	0	0	0	0	0	0	0	0	0	0	0	0	0	0	0	0	0	0	0	0	0	0	0	0	0	0	0	0	0	0	0	-1	0	-2.0278	-17.891	16.968	0	0	0	0	0	0	0	0	0	2
526	5.26	0	0	0	0	0	0	0	0	0	0	0	0	0	0	0	0	0	0	0	0	0	0	0	0	10.989	-10.989	19.033	0	0	0	0	0	0	0	0	0	0	0	0	0	0	0	0	0	0	0	0	0	0	-1	0	-2.0278	-17.891	16.968	0	0	0	1	0	0	17.47	2.0148	16.554	2
527	5.27	0	0	0	0	0	0	0	0	0	0	0	0	0	0	0	0	0	0	0	0	0	0	0	0	10.989	-10.989	19.033	0	0	0	0	0	0	0	0	0	0	0	0	0	0	0	10.996	-10.996	19.046	0	0	0	0	-1	0	-2.0278	-17.891	16.968	0	0	0	0	0	0	0	0	0	2
528	5.28	0	0	0	0	0	0	0	0	0	0	0	0	0	0	0	0	0	0	0	0	0	0	0	0	0	0	0	0	0	0	1	0	0	17.883	2.027	16.961	0	0	0	0	0	0	0	0	0	0	0	0	0	-1	0	-2.0278	-17.891	16.968	0	0	0	0	0	0	0	0	0	2
529	5.29	0	0	0	0	0	0	0	0	0	0	0	0	0	0	0	0	0	0	0	0	0	0	0	0	0	0	0	0	0	0	0	0	0	10.991	-10.991	19.037	0	0	0	0	0	0	0	0	0	0	0	0	1	-1	0	7.5503	-27.469	31.921	0	0	0	0	0	0	0	0	0	2
530	5.3	0	0	0	0	0	0	0	0	0	0	0	0	0	0	0	0	0	0	0	0	0	0	0	0	0	0	0	0	0	0	0	0	0	0	0	0	0	0	0	0	0	0	10.996	-10.996	19.046	0	0	0	0	-1	0	-2.0278	-17.891	16.968	0	0	0	0	0	0	0	0	0	2
531	5.31	0	0	0	0	0	0	0	0	0	0	0	0	0	0	0	0	0	0	0	0	0	0	0	0	10.989	-10.989	19.033	0	0	0	0	0	0	0	0	0	0	0	0	0	0	0	0	0	0	0	0	0	0	-1	0	-2.0278	-17.891	16.968	0	0	0	0	0	0	0	0	0	2
532	5.32	0	0	0	0	0	0	0	0	0	0	0	0	0	0	0	0	0	0	0	0	0	0	0	0	0	0	0	0	0	0	0	0	0	0	0	0	0	0	0	0	0	0	10.996	-10.996	19.046	0	0	0	0	-1	0	-2.0278	-17.891	16.968	0	0	0	0	0	0	0	0	0	0
533	5.33	0	0	0	0	0	0	0	0	0	0	0	0	0	0	0	0	0	0	0	0	0	0	0	0	0	0	0	0	0	0	1	0	0	17.883	2.027	16.961	0	0	0	0	0	0	10.996	-10.996	19.046	0	0	0	0	0	0	0	0	0	0	0	0	0	0	0	0	0	0	2
534	5.34	0	0	0	0	0	0	0	0	0	0	0	0	0	0	0	0	0	0	0	0	0	0	0	0	0	0	0	0	0	0	1	0	0	17.883	2.027	16.961	0	0	0	0	0	0	0	0	0	0	0	0	0	-1	0	-2.0278	-17.891	16.968	0	0	0	0	0	0	0	0	0	2
535	5.35	0	0	0	0	0	0	0	0	0	0	0	0	0	0	0	0	0	0	0	0	0	0	0	0	0	0	0	0	0	0	0	0	0	0	0	0	0	0	0	0	0	0	0	0	0	0	0	0	0	0	0	0	0	0	0	0	0	0	0	0	0	0	0	2
536	5.36	0	0	0	0	0	0	0	0	0	0	0	0	0	0	0	0	0	0	0	0	0	0	0	0	0	0	0	0	0	0	0	0	0	0	0	0	0	0	0	0	-1	0	-2.0279	-17.891	16.969	0	0	0	0	-1	0	-2.0278	-17.891	16.968	0	0	0	0	0	0	0	0	0	0
537	5.37	0	0	0	0	0	0	0	0	0	0	0	0	0	0	0	0	0	0	0	0	0	0	0	0	0	0	0	0	0	0	0	0	0	0	0	0	0	0	0	0	0	0	10.996	-10.996	19.046	0	0	0	0	-1	0	-2.0278	-17.891	16.968	0	0	0	0	0	0	0	0	0	2
538	5.38	0	0	0	0	0	0	10.917	-10.917	18.908	0	0	0	0	0	0	0	0	0	0	0	0	0	0	0	0	0	0	0	0	0	1	0	0	17.883	2.027	16.961	0	0	0	0	0	0	10.996	-10.996	19.046	0	0	0	0	0	0	0	0	0	0	0	0	0	0	0	0	0	0	0
539	5.39	0	0	0	0	0	0	0	0	0	0	0	0	0	0	0	0	0	0	0	0	0	0	0	0	0	0	0	0	0	0	1	0	0	17.883	2.027	16.961	0	0	0	0	0	0	0	0	0	0	0	0	0	-1	0	-2.0278	-17.891	16.968	0	0	0	0	0	0	0	0	0	2
540	5.4	0	0	0	0	0	0	0	0	0	0	0	0	0	0	0	0	0	0	0	0	0	0	0	0	10.989	-10.989	19.033	0	0	0	0	-1	0	-2.0265	-17.879	16.957	0	0	0	0	0	0	10.996	-10.996	19.046	0	0	0	0	-1	0	-2.0278	-17.891	16.968	0	0	0	0	0	0	0	0	0	0
541	5.41	0	0	0	0	0	0	0	0	0	0	0	0	0	0	0	0	0	0	0	0	0	0	0	0	0	0	0	0	0	0	0	0	0	0	0	0	0	0	0	0	0	0	0	0	0	0	0	0	0	0	0	0	0	0	0	0	0	1	0	0	17.47	2.0148	16.554	2
542	5.42	0	0	0	0	0	0	0	0	0	0	0	0	0	0	0	0	0	0	0	0	0	0	0	0	0	0	0	0	0	0	0	0	0	0	0	0	0	0	0	0	0	0	0	0	0	0	0	0	0	-1	0	-2.0278	-17.891	16.968	0	0	0	0	0	0	0	0	0	0
543	5.43	0	0	0	0	0	0	0	0	0	0	0	0	0	0	0	0	0	0	0	0	0	0	0	0	0	0	0	0	0	0	0	0	0	0	0	0	0	0	0	0	0	0	0	0	0	0	0	0	0	-1	0	-2.0278	-17.891	16.968	0	0	0	0	0	0	0	0	0	0
544	5.44	0	0	0	0	0	0	0	0	0	0	0	0	0	0	0	0	0	0	0	0	0	0	0	0	0	0	0	0	0	0	0	0	0	0	0	0	0	0	0	0	0	0	10.996	-10.996	19.046	0	0	0	0	-1	0	-2.0278	-17.891	16.968	0	0	0	1	0	0	17.47	2.0148	16.554	2
545	5.45	0	0	0	0	0	0	0	0	0	0	0	0	0	0	0	0	0	0	0	0	0	0	0	0	10.989	-10.989	19.033	0	0	0	0	-1	0	-2.0265	-17.879	16.957	0	0	0	0	0	0	10.996	-10.996	19.046	0	0	0	0	-1	0	-2.0278	-17.891	16.968	0	0	0	0	0	0	0	0	0	0
546	5.46	0	0	0	0	0	0	0	0	0	0	0	0	0	0	0	0	0	0	0	0	0	0	0	0	0	0	0	0	0	0	0	0	0	0	0	0	0	0	0	0	0	0	10.996	-10.996	19.046	0	0	0	1	-1	0	7.5503	-27.469	31.921	0	0	0	0	0	0	0	0	0	2
547	5.47	0	0	0	0	0	0	0	0	0	0	0	0	0	0	0	0	0	0	0	0	0	0	0	0	0	0	0	0	0	0	0	-1	0	-2.0265	-17.879	16.957	0	0	0	0	0	0	0	0	0	0	0	0	0	-1	0	-2.0278	-17.891	16.968	0	0	0	0	0	0	0	0	0	2
548	5.48	0	0	0	0	0	0	0	0	0	0	0	0	0	0	0	0	0	0	0	0	0	0	0	0	0	0	0	0	0	0	0	0	0	0	0	0	0	0	0	0	0	0	0	0	0	0	0	0	0	0	0	0	0	0	0	0	0	1	0	0	17.47	2.0148	16.554	0
549	5.49	0	0	0	0	0	0	0	0	0	0	0	0	0	0	0	0	0	0	0	0	0	0	0	0	10.989	-10.989	19.033	0	0	0	0	0	0	0	0	0	0	0	0	0	0	0	0	0	0	0	0	0	1	-1	0	7.5503	-27.469	31.921	0	0	0	0	0	0	0	0	0	2
550	5.5	0	0	0	0	0	0	0	0	0	0	0	0	0	0	0	0	0	0	0	0	0	0	0	0	0	0	0	0	0	0	0	0	0	0	0	0	0	0	0	0	0	0	10.996	-10.996	19.046	0	0	0	0	-1	0	-2.0278	-17.891	16.968	0	0	0	0	0	0	0	0	0	0
551	5.51	0	0	0	0	0	0	0	0	0	0	0	0	0	0	0	0	0	0	0	0	0	0	0	0	0	0	0	0	0	0	0	0	0	0	0	0	0	0	0	0	0	0	0	0	0	0	0	0	0	-1	0	-2.0278	-17.891	16.968	0	0	0	1	0	0	17.47	2.0148	16.554	2
552	5.52	0	0	0	0	0	0	0	0	0	0	0	0	0	-1	0	-2.0372	-17.821	16.895	0	0	0	0	0	0	0	0	0	0	0	0	0	0	0	0	0	0	0	0	0	0	0	0	10.996	-10.996	19.046	0	0	0	0	-1	0	-2.0278	-17.891	16.968	0	0	0	0	0	0	0	0	0	2
553	5.53	0	0	0	0	0	0	0	0	0	0	0	0	0	0	0	0	0	0	0	0	0	0	0	0	0	0	0	0	0	0	0	0	0	0	0	0	0	0	0	0	0	0	0	0	0	0	0	0	0	-1	0	-2.0278	-17.891	16.968	0	0	0	1	0	0	17.47	2.0148	16.554	0
554	5.54	0	0	0	0	0	0	0	0	0	0	0	0	0	0	0	0	0	0	0	0	0	0	0	0	10.989	-10.989	19.033	0	0	0	1	0	0	17.883	2.027	16.961	0	0	0	0	0	0	0	0	0	0	0	0	0	-1	0	-2.0278	-17.891	16.968	0	0	0	1	0	0	17.47	2.0148	16.554	2
555	5.55	0	0	0	0	0	0	0	0	0	0	0	0	0	0	0	0	0	0	0	0	0	0	0	0	0	0	0	0	0	0	0	0	0	0	0	0	0	0	0	0	0	0	10.996	-10.996	19.046	0	0	0	0	-1	0	-2.0278	-17.891	16.968	0	0	0	0	0	0	0	0	0	2
556	5.56	0	0	0	0	0	0	0	0	0	0	0	0	0	0	0	0	0	0	0	0	0	0	0	0	10.989	-10.989	19.033	0	0	0	0	0	0	10.991	-10.991	19.037	0	0	0	0	0	0	10.996	-10.996	19.046	0	0	0	0	-1	0	-2.0278	-17.891	16.968	0	0	0	1	0	0	17.47	2.0148	16.554	2
557	5.57	0	0	0	0	0	0	0	0	0	0	0	0	0	0	0	0	0	0	0	0	0	1	-1	0	7.5473	-27.454	31.904	0	0	0	0	0	0	0	0	0	0	0	0	0	0	0	0	0	0	0	0	0	0	-1	0	-2.0278	-17.891	16.968	0	0	0	0	0	0	0	0	0	2
558	5.58	0	0	0	0	0	0	0	0	0	0	0	0	0	0	0	0	0	0	0	0	0	0	0	0	0	0	0	0	0	0	0	0	0	0	0	0	0	0	0	0	0	0	0	0	0	0	0	0	0	-1	0	-2.0278	-17.891	16.968	0	0	0	1	0	0	17.47	2.0148	16.554	2
559	5.59	0	0	0	0	0	0	0	0	0	0	0	0	0	0	0	0	0	0	0	0	0	0	0	0	0	0	0	0	0	0	0	0	0	10.991	-10.991	19.037	0	0	0	0	0	0	10.996	-10.996	19.046	0	0	0	1	-1	0	7.5503	-27.469	31.921	0	0	0	1	0	0	17.47	2.0148	16.554	2
560	5.6	0	0	0	0	0	0	0	0	0	0	0	0	0	0	0	0	0	0	0	0	0	0	0	0	0	0	0	0	0	0	1	0	0	17.883	2.027	16.961	0	0	0	0	0	0	0	0	0	0	0	0	0	0	0	0	0	0	0	0	0	0	0	0	0	0	0	2
561	5.61	0	0	0	0	0	0	0	0	0	0	0	0	0	0	0	0	0	0	0	0	0	0	0	0	10.989	-10.989	19.033	0	0	0	0	0	0	0	0	0	0	0	0	0	0	0	10.996	-10.996	19.046	0	0	0	0	-1	0	-2.0278	-17.891	16.968	0	0	0	0	0	0	0	0	0	0
562	5.62	0	0	0	0	0	0	0	0	0	0	0	0	0	0	0	0	0	0	0	0	0	0	0	0	0	0	0	0	0	0	0	0	0	0	0	0	0	0	0	0	0	0	10.996	-10.996	19.046	0	0	0	0	-1	0	-2.0278	-17.891	16.968	0	0	0	0	0	0	0	0	0	2
563	5.63	0	0	0	0	0	0	0	0	0	0	0	0	0	0	0	0	0	0	0	0	0	0	0	0	0	0	0	0	0	0	0	0	0	0	0	0	0	0	0	0	0	0	0	0	0	0	0	0	0	-1	0	-2.0278	-17.891	16.968	0	0	0	0	0	0	0	0	0	2
564	5.64	0	0	0	0	0	0	0	0	0	0	0	0	0	0	0	0	0	0	0	0	0	0	0	0	0	0	0	0	0	0	0	0	0	0	0	0	0	0	0	0	0	0	0	0	0	0	0	0	0	0	0	10.994	-10.994	19.042	0	0	0	0	0	0	0	0	0	2
565	5.65	0	0	0	0	0	0	0	0	0	0	0	0	0	-1	0	-2.0366	-17.816	16.89	0	0	0	0	0	0	10.989	-10.989	19.033	0	0	0	0	0	0	0	0	0	0	0	0	0	0	0	0	0	0	0	0	0	0	0	0	0	0	0	0	0	0	0	0	0	0	0	0	2
566	5.66	0	0	0	0	0	0	10.917	-10.917	18.908	0	0	0	0	0	0	0	0	0	0	0	0	0	0	0	0	0	0	0	0	0	0	0	0	0	0	0	0	0	0	0	0	0	0	0	0	0	0	0	0	-1	0	-2.0278	-17.891	16.968	0	0	0	1	0	0	17.47	2.0148	16.554	2
567	5.67	0	0	0	0	0	0	0	0	0	0	0	0	0	0	0	0	0	0	0	0	0	0	0	0	0	0	0	0	0	0	0	0	0	0	0	0	0	0	0	0	0	0	0	0	0	0	0	0	0	-1	0	-2.0278	-17.891	16.968	0	0	0	0	0	0	0	0	0	2
568	5.68	0	0	0	0	0	0	0	0	0	0	0	0	0	0	0	0	0	0	0	0	0	0	0	0	0	0	0	0	0	0	0	0	0	0	0	0	0	0	0	0	0	0	0	0	0	0	0	0	0	-1	0	-2.0278	-17.891	16.968	0	0	0	0	0	0	0	0	0	2
569	5.69	0	0	0	0	0	0	10.917	-10.917	18.908	0	0	0	0	0	0	0	0	0	0	0	0	0	0	0	10.989	-10.989	19.033	0	0	0	0	-1	0	-2.0265	-17.879	16.957	0	0	0	0	0	0	0	0	0	0	0	0	0	-1	0	-2.0278	-17.891	16.968	0	0	0	0	0	0	0	0	0	2
570	5.7	0	0	0	0	0	0	0	0	0	0	0	0	0	0	0	0	0	0	0	0	0	0	0	0	10.989	-10.989	19.033	0	0	0	0	0	0	0	0	0	0	0	0	0	0	0	0	0	0	0	0	0	0	-1	0	-2.0278	-17.891	16.968	0	0	0	0	0	0	0	0	0	0
571	5.71	0	0	0	0	0	0	0	0	0	0	0	0	0	0	0	0	0	0	0	0	0	0	0	0	10.989	-10.989	19.033	0	0	0	0	0	0	10.991	-10.991	19.037	0	0	0	0	0	0	0	0	0	0	0	0	0	0	0	0	0	0	0	0	0	0	0	0	0	0	0	0
572	5.72	0	0	0	0	0	0	0	0	0	0	0	0	0	0	0	0	0	0	0	0	0	0	0	0	0	0	0	0	0	0	0	0	0	0	0	0	0	0	0	0	0	0	10.996	-10.996	19.046	0	0	0	0	-1	0	-2.0278	-17.891	16.968	0	0	0	0	0	0	0	0	0	2
573	5.73	0	0	0	0	0	0	0	0	0	0	0	0	0	0	0	0	0	0	0	0	0	0	0	0	10.989	-10.989	19.033	0	0	0	0	0	0	0	0	0	0	0	0	0	0	0	10.996	-10.996	19.046	0	0	0	0	0	0	0	0	0	0	0	0	0	0	0	0	0	0	0
574	5.74	0	0	0	0	0	0	0	0	0	0	0	0	0	0	0	0	0	0	0	0	0	0	0	0	0	0	0	0	0	0	0	0	0	0	0	0	0	0	0	0	0	0	0	0	0	0	0	0	0	-1	0	-2.0278	-17.891	16.968	0	0	0	0	0	0	0	0	0	2
575	5.75	0	0	0	0	0	0	0	0	0	0	0	0	0	0	0	0	0	0	0	0	0	0	0	0	0	0	0	0	0	0	0	0	0	0	0	0	0	0	0	0	0	0	0	0	0	0	0	0	0	-1	0	-2.0278	-17.891	16.968	0	0	0	0	0	0	0	0	0	2
576	5.76	0	0	0	0	0	0	0	0	0	0	0	0	0	0	0	0	0	0	0	0	0	0	0	0	0	0	0	0	0	0	0	0	0	0	0	0	0	0	0	0	0	0	0	0	0	0	0	0	0	-1	0	-2.0278	-17.891	16.968	0	0	0	1	0	0	17.471	2.0135	16.556	0
577	5.77	0	0	0	0	0	0	0	0	0	0	0	0	0	0	0	0	0	0	0	0	0	0	0	0	10.989	-10.989	19.033	0	0	0	0	0	0	0	0	0	0	0	0	0	0	0	0	0	0	0	0	0	0	0	0	0	0	0	0	0	0	0	0	0	0	0	0	2
578	5.78	0	0	0	0	0	0	0	0	0	0	0	0	0	0	0	0	0	0	0	0	0	0	0	0	0	0	0	0	0	0	0	0	0	0	0	0	0	0	0	0	0	0	0	0	0	0	0	0	0	-1	0	-2.0278	-17.891	16.968	0	0	0	1	0	0	17.47	2.0148	16.554	2
579	5.79	0	0	0	0	0	0	0	0	0	0	0	0	0	0	0	0	0	0	0	0	0	0	0	0	0	0	0	0	0	0	0	0	0	0	0	0	0	0	0	0	-1	0	-2.0279	-17.891	16.969	0	0	0	0	-1	0	-2.0278	-17.891	16.968	0	0	0	0	0	0	0	0	0	2
580	5.8	0	0	0	0	0	0	0	0	0	0	0	0	0	0	0	0	0	0	0	0	0	0	0	0	10.989	-10.989	19.033	0	0	0	0	0	0	0	0	0	0	0	0	0	0	0	10.996	-10.996	19.046	0	0	0	0	-1	0	-2.0278	-17.891	16.968	0	0	0	0	0	0	0	0	0	2
581	5.81	0	0	0	0	0	0	10.917	-10.917	18.908	0	0	0	0	0	0	0	0	0	0	0	0	0	0	0	0	0	0	0	0	0	0	0	0	0	0	0	0	0	0	0	0	0	0	0	0	0	0	0	0	-1	0	-2.0278	-17.891	16.968	0	0	0	0	0	0	0	0	0	0
582	5.82	0	0	0	0	0	0	0	0	0	0	0	0	0	0	0	0	0	0	0	0	0	0	0	0	0	0	0	0	0	0	0	0	0	0	0	0	0	0	0	0	0	0	10.996	-10.996	19.046	0	0	0	0	-1	0	-2.0278	-17.891	16.968	0	0	0	0	0	0	0	0	0	2
583	5.83	0	0	0	0	0	0	0	0	0	0	0	0	0	0	0	0	0	0	0	0	0	0	0	0	10.989	-10.989	19.033	0	0	0	0	0	0	0	0	0	0	0	0	0	0	0	0	0	0	0	0	0	0	-1	0	-2.0278	-17.891	16.968	0	0	0	1	0	0	17.47	2.0148	16.554	2
584	5.84	0	0	0	0	0	0	10.917	-10.917	18.908	0	0	0	0	0	0	0	0	0	0	0	0	0	0	0	0	0	0	0	0	0	1	0	0	17.883	2.027	16.961	0	0	0	0	0	0	10.996	-10.996	19.046	0	0	0	0	-1	0	-2.0278	-17.891	16.968	0	0	0	1	0	0	17.47	2.0148	16.554	0
585	5.85	0	0	0	0	0	0	0	0	0	0	0	0	0	0	0	0	0	0	0	0	0	0	0	0	0	0	0	0	0	0	0	0	0	0	0	0	0	0	0	0	0	0	10.996	-10.996	19.046	0	0	0	0	-1	0	-2.0278	-17.891	16.968	0	0	0	0	0	0	0	0	0	2
586	5.86	0	0	0	0	0	0	0	0	0	0	0	0	0	0	0	0	0	0	0	0	0	0	0	0	10.989	-10.989	19.033	0	0	0	0	0	0	0	0	0	0	0	0	0	0	0	0	0	0	0	0	0	0	-1	0	-2.0278	-17.891	16.968	0	0	0	0	0	0	0	0	0	2
587	5.87	0	0	0	0	0	0	0	0	0	0	0	0	0	0	0	0	0	0	0	0	0	0	0	0	0	0	0	0	0	0	1	0	0	17.883	2.027	16.961	0	0	0	0	0	0	0	0	0	0	0	0	0	-1	0	-2.0278	-17.891	16.968	0	0	0	0	0	0	0	0	0	0
588	5.88	0	0	0	0	0	0	0	0	0	0	0	0	0	0	0	0	0	0	0	0	0	0	0	0	0	0	0	0	0	0	0	0	0	0	0	0	0	0	0	0	0	0	0	0	0	0	0	0	0	-1	0	-2.0278	-17.891	16.968	0	0	0	0	0	0	0	0	0	2
589	5.89	0	0	0	0	0	0	0	0	0	0	0	0	0	0	0	0	0	0	0	0	0	0	0	0	0	0	0	0	0	0	0	0	0	0	0	0	0	0	0	0	0	0	10.996	-10.996	19.046	0	0	0	0	-1	0	-2.0278	-17.891	16.968	0	0	0	0	0	0	0	0	0	2
590	5.9	0	0	0	0	0	0	0	0	0	0	0	0	0	-1	0	-2.0366	-17.816	16.89	0	0	0	0	0	0	0	0	0	0	0	0	0	0	0	0	0	0	0	0	0	0	0	0	10.996	-10.996	19.046	0	0	0	0	-1	0	-2.0278	-17.891	16.968	0	0	0	0	0	0	0	0	0	0
591	5.91	0	0	0	0	0	0	0	0	0	0	0	0	0	0	0	0	0	0	0	0	0	0	0	0	10.989	-10.989	19.033	0	0	0	0	0	0	10.991	-10.991	19.037	0	0	0	0	0	0	10.996	-10.996	19.046	0	0	0	0	0	0	0	0	0	0	0	0	0	0	0	0	0	0	2
592	5.92	0	0	0	0	0	0	0	0	0	0	0	0	0	0	0	0	0	0	0	0	0	0	0	0	10.989	-10.989	19.033	0	0	0	0	0	0	10.991	-10.991	19.037	0	0	0	0	0	0	10.996	-10.996	19.046	0	0	0	0	-1	0	-2.0278	-17.891	16.968	0	0	0	0	0	0	0	0	0	2
593	5.93	0	0	0	0	0	0	0	0	0	0	0	0	0	0	0	0	0	0	0	0	0	0	0	0	0	0	0	0	0	0	0	0	0	0	0	0	0	0	0	0	0	0	0	0	0	0	0	0	0	0	0	0	0	0	0	0	0	1	0	0	17.47	2.0148	16.554	2
594	5.94	0	0	0	0	0	0	0	0	0	0	0	0	0	0	0	0	0	0	0	0	0	0	0	0	10.989	-10.989	19.033	0	0	0	0	0	0	11.258	-11.253	19.496	0	0	0	0	0	0	10.996	-10.996	19.046	0	0	0	0	-1	0	-2.0278	-17.891	16.968	0	0	0	0	0	0	0	0	0	0
595	5.95	0	0	0	0	0	0	0	0	0	0	0	0	0	0	0	0	0	0	0	0	0	0	0	0	0	0	0	0	0	0	0	0	0	0	0	0	0	0	0	0	0	0	10.996	-10.996	19.046	0	0	0	0	-1	0	-2.0278	-17.891	16.968	0	0	0	0	0	0	0	0	0	2
596	5.96	0	0	0	0	0	0	0	0	0	0	0	0	0	0	0	0	0	0	0	0	0	0	0	0	0	0	0	0	0	0	0	0	0	0	0	0	0	0	0	0	-1	0	-2.0279	-17.891	16.969	0	0	0	0	-1	0	-2.0278	-17.891	16.968	0	0	0	0	0	0	0	0	0	0
597	5.97	0	0	0	0	0	0	0	0	0	0	0	0	0	-1	0	-2.0366	-17.816	16.89	0	0	0	0	0	0	0	0	0	0	0	0	0	0	0	0	0	0	0	0	0	0	0	0	0	0	0	0	0	0	0	0	0	0	0	0	0	0	0	0	0	0	0	0	0	2
598	5.98	0	0	0	0	0	0	0	0	0	0	0	0	0	0	0	0	0	0	0	0	0	0	0	0	0	0	0	0	0	0	0	0	0	0	0	0	0	0	0	0	-1	0	-2.0279	-17.891	16.969	0	0	0	0	-1	0	-2.0278	-17.891	16.968	0	0	0	0	0	0	0	0	0	2
599	5.99	0	0	0	0	0	0	0	0	0	0	0	0	0	0	0	0	0	0	0	0	0	0	0	0	0	0	0	0	0	0	0	-1	0	-2.0265	-17.879	16.957	0	0	0	0	0	0	0	0	0	0	0	0	0	-1	0	-2.0278	-17.891	16.968	0	0	0	0	0	0	0	0	0	2
600	6	0	0	0	0	0	0	0	0	0	0	0	0	0	0	0	0	0	0	0	0	0	0	0	0	0	0	0	0	0	0	0	0	0	0	0	0	0	0	0	0	0	0	0	0	0	0	0	0	0	-1	0	-2.0278	-17.891	16.968	0	0	0	0	0	0	0	0	0	2
601	6.01	0	0	0	0	0	0	0	0	0	0	0	0	0	0	0	0	0	0	0	0	0	0	0	0	10.989	-10.989	19.033	0	0	0	0	0	0	0	0	0	0	0	0	0	0	0	0	0	0	0	0	0	0	-1	0	-2.0278	-17.891	16.968	0	0	0	0	0	0	0	0	0	2
602	6.02	0	0	0	0	0	0	0	0	0	0	0	0	0	0	0	0	0	0	0	0	0	0	0	0	0	0	0	0	0	0	0	0	0	0	0	0	0	0	0	0	0	0	10.996	-10.996	19.046	0	0	0	0	-1	0	-2.0278	-17.891	16.968	0	0	0	1	0	0	17.47	2.0148	16.554	0
603	6.03	0	0	0	0	0	0	0	0	0	0	0	0	0	0	0	0	0	0	0	0	0	0	0	0	10.989	-10.989	19.033	0	0	0	0	0	0	0	0	0	0	0	0	0	0	0	0	0	0	0	0	0	0	-1	0	-2.0278	-17.891	16.968	0	0	0	0	0	0	0	0	0	2
604	6.04	0	0	0	0	0	0	0	0	0	0	0	0	0	0	0	0	0	0	0	0	0	0	0	0	10.989	-10.989	19.033	0	0	0	0	0	0	0	0	0	0	0	0	0	0	0	10.996	-10.996	19.046	0	0	0	0	-1	0	-2.0278	-17.891	16.968	0	0	0	0	0	0	0	0	0	2
605	6.05	0	0	0	0	0	0	10.917	-10.917	18.908	0	0	0	0	0	0	0	0	0	0	0	0	0	0	0	10.989	-10.989	19.033	0	0	0	0	0	0	0	0	0	0	0	0	0	0	0	0	0	0	0	0	0	0	-1	0	-2.0278	-17.891	16.968	0	0	0	0	0	0	0	0	0	2
606	6.06	0	0	0	0	0	0	0	0	0	0	0	0	0	0	0	0	0	0	0	0	0	0	0	0	10.989	-10.989	19.033	0	0	0	1	0	0	17.761	2.1499	16.789	0	0	0	0	0	0	0	0	0	0	0	0	0	-1	0	-2.0278	-17.891	16.968	0	0	0	0	0	0	0	0	0	2
607	6.07	0	0	0	0	0	0	0	0	0	0	0	0	0	0	0	0	0	0	0	0	0	0	0	0	0	0	0	0	0	0	0	0	0	0	0	0	0	0	0	0	0	0	0	0	0	0	0	0	0	-1	0	-2.0278	-17.891	16.968	0	0	0	0	0	0	0	0	0	2
608	6.08	0	0	0	0	0	0	0	0	0	0	0	0	0	-1	0	-2.0366	-17.816	16.89	0	0	0	0	0	0	0	0	0	0	0	0	0	0	0	0	0	0	0	0	0	0	0	0	0	0	0	0	0	0	0	-1	0	-2.0278	-17.891	16.968	0	0	0	0	0	0	0	0	0	2
609	6.09	0	0	0	0	0	0	10.917	-10.917	18.908	0	0	0	0	0	0	0	0	0	0	0	0	0	0	0	0	0	0	0	0	0	0	0	0	0	0	0	0	0	0	0	0	0	10.996	-10.996	19.046	0	0	0	0	0	0	0	0	0	0	0	0	1	0	0	17.47	2.0148	16.554	0
610	6.1	0	0	0	0	0	0	0	0	0	0	0	0	0	0	0	0	0	0	0	0	0	0	0	0	0	0	0	0	0	0	0	0	0	0	0	0	0	0	0	0	0	0	10.996	-10.996	19.046	0	0	0	0	-1	0	-2.0278	-17.891	16.968	0	0	0	0	0	0	0	0	0	2
611	6.11	0	0	0	0	0	0	10.917	-10.917	18.908	0	0	0	0	0	0	0	0	0	0	0	0	0	0	0	10.989	-10.989	19.033	0	0	0	1	0	0	17.883	2.027	16.961	0	0	0	0	0	0	0	0	0	0	0	0	0	-1	0	-2.0278	-17.891	16.968	0	0	0	0	0	0	0	0	0	2
612	6.12	0	0	0	0	0	0	0	0	0	0	0	0	0	0	0	0	0	0	0	0	0	0	0	0	0	0	0	0	0	0	0	0	0	0	0	0	0	0	0	0	0	0	10.996	-10.996	19.046	0	0	0	0	-1	0	-2.0278	-17.891	16.968	0	0	0	0	0	0	0	0	0	2
613	6.13	0	0	0	0	0	0	0	0	0	0	0	0	0	0	0	0	0	0	0	0	0	0	0	0	0	0	0	0	0	0	1	0	0	17.883	2.027	16.961	0	0	0	0	0	0	0	0	0	0	0	0	0	-1	0	-2.0278	-17.891	16.968	0	0	0	0	0	0	0	0	0	2
614	6.14	0	0	0	0	0	0	0	0	0	0	0	0	0	0	0	0	0	0	0	0	0	0	0	0	10.989	-10.989	19.033	0	0	0	0	0	0	0	0	0	0	0	0	0	0	0	10.996	-10.996	19.046	0	0	0	0	-1	0	-2.0278	-17.891	16.968	0	0	0	0	0	0	0	0	0	0
615	6.15	0	0	0	0	0	0	0	0	0	0	0	0	0	0	0	0	0	0	0	0	0	0	0	0	0	0	0	0	0	0	0	0	0	0	0	0	0	0	0	0	0	0	0	0	0	0	0	0	0	0	0	0	0	0	0	0	0	0	0	0	0	0	0	2
616	6.16	0	0	0	0	0	0	0	0	0	0	0	0	0	0	0	0	0	0	0	0	0	0	0	0	10.989	-10.989	19.033	0	0	0	0	0	0	0	0	0	0	0	0	0	0	0	0	0	0	0	0	0	0	-1	0	-2.0278	-17.891	16.968	0	0	0	1	0	0	17.47	2.0148	16.554	2
617	6.17	0	0	0	0	0	0	0	0	0	0	0	0	0	0	0	0	0	0	0	0	0	0	0	0	0	0	0	0	0	0	0	0	0	0	0	0	0	0	0	0	0	0	10.996	-10.996	19.046	0	0	0	0	-1	0	-2.0278	-17.891	16.968	0	0	0	0	0	0	0	0	0	0
618	6.18	0	0	0	0	0	0	0	0	0	0	0	0	0	0	0	0	0	0	0	0	0	0	0	0	0	0	0	0	0	0	0	0	0	0	0	0	0	0	0	0	0	0	0	0	0	0	0	0	0	0	0	0	0	0	0	0	0	0	0	0	0	0	0	2
619	6.19	0	0	0	0	0	0	0	0	0	0	0	0	0	0	0	0	0	0	0	0	0	0	0	0	10.989	-10.989	19.033	0	0	0	0	0	0	0	0	0	0	0	0	0	0	0	0	0	0	0	0	0	0	0	0	0	0	0	0	0	0	0	0	0	0	0	0	2
620	6.2	0	0	0	0	0	0	0	0	0	0	0	0	0	0	0	0	0	0	0	0	0	0	-1	0	-2.0266	-17.88	16.957	0	0	0	0	-1	0	-2.0265	-17.879	16.957	0	0	0	0	0	0	0	0	0	0	0	0	0	0	0	0	0	0	0	0	0	0	0	0	0	0	0	2
621	6.21	0	0	0	0	0	0	0	0	0	0	0	0	0	0	0	0	0	0	0	0	0	0	0	0	0	0	0	0	0	0	0	-1	0	-2.0265	-17.879	16.957	0	0	0	0	0	0	10.996	-10.996	19.046	0	0	0	0	0	0	0	0	0	0	0	0	1	0	0	17.47	2.0148	16.554	2
622	6.22	0	0	0	0	0	0	0	0	0	0	0	0	0	0	0	0	0	0	0	0	0	0	0	0	0	0	0	0	0	0	0	0	0	0	0	0	0	0	0	0	-1	0	-2.0279	-17.891	16.969	0	0	0	0	-1	0	-2.0278	-17.891	16.968	0	0	0	0	0	0	0	0	0	2
623	6.23	0	0	0	0	0	0	0	0	0	0	0	0	0	0	0	0	0	0	0	0	0	0	0	0	0	0	0	0	0	0	0	-1	0	-2.0265	-17.879	16.957	0	0	0	0	0	0	0	0	0	0	0	0	0	-1	0	-2.0278	-17.891	16.968	0	0	0	0	0	0	0	0	0	2
624	6.24	0	0	0	0	0	0	0	0	0	0	0	0	0	0	0	0	0	0	0	0	0	0	0	0	10.989	-10.989	19.033	0	0	0	0	0	0	0	0	0	0	0	0	0	0	0	10.996	-10.996	19.046	0	0	0	0	-1	0	-2.0278	-17.891	16.968	0	0	0	0	0	0	0	0	0	2
625	6.25	0	0	0	0	0	0	0	0	0	0	0	0	0	0	0	0	0	0	0	0	0	0	0	0	0	0	0	0	0	0	0	0	0	0	0	0	0	0	0	0	0	0	10.996	-10.996	19.046	0	0	0	0	-1	0	-2.0278	-17.891	16.968	0	0	0	0	0	0	0	0	0	2
626	6.26	0	0	0	0	0	0	0	0	0	0	0	0	0	-1	0	-2.0366	-17.816	16.89	0	0	0	0	0	0	10.989	-10.989	19.033	0	0	0	0	0	0	0	0	0	0	0	0	0	0	0	0	0	0	0	0	0	0	0	0	10.994	-10.994	19.042	0	0	0	0	0	0	0	0	0	2
627	6.27	0	0	0	0	0	0	0	0	0	0	0	0	0	0	0	0	0	0	0	0	0	0	0	0	0	0	0	0	0	0	0	0	0	0	0	0	0	0	0	0	0	0	10.996	-10.996	19.046	0	0	0	0	0	0	0	0	0	0	0	0	0	0	0	0	0	0	0
628	6.28	0	0	0	0	0	0	0	0	0	0	0	0	0	0	0	0	0	0	0	0	0	0	0	0	0	0	0	0	0	0	0	0	0	10.991	-10.991	19.037	0	0	0	0	0	0	0	0	0	0	0	0	0	-1	0	-2.0278	-17.891	16.968	0	0	0	1	0	0	17.47	2.0148	16.554	2
629	6.29	0	0	0	0	0	0	0	0	0	0	0	0	0	0	0	0	0	0	0	0	0	0	0	0	10.989	-10.989	19.033	0	0	0	1	0	0	17.883	2.027	16.961	0	0	0	0	0	0	0	0	0	0	0	0	0	-1	0	-2.0278	-17.891	16.968	0	0	0	0	0	0	0	0	0	2
630	6.3	0	0	0	0	0	0	0	0	0	0	0	0	0	0	0	0	0	0	0	0	0	0	0	0	0	0	0	0	0	0	0	0	0	0	0	0	0	0	0	0	0	0	10.996	-10.996	19.046	0	0	0	0	-1	0	-2.0278	-17.891	16.968	0	0	0	0	0	0	0	0	0	2
631	6.31	0	0	0	0	0	0	0	0	0	0	0	0	0	0	0	0	0	0	0	0	0	0	0	0	10.989	-10.989	19.033	0	0	0	0	0	0	0	0	0	0	0	0	0	0	0	10.996	-10.996	19.046	0	0	0	0	-1	0	-2.0278	-17.891	16.968	0	0	0	0	0	0	0	0	0	2
632	6.32	0	0	0	0	0	0	0	0	0	0	0	0	0	0	0	0	0	0	0	0	0	0	0	0	10.989	-10.989	19.033	0	0	0	0	0	0	0	0	0	0	0	0	0	0	0	0	0	0	0	0	0	0	0	0	0	0	0	0	0	0	0	0	0	0	0	0	2
633	6.33	0	0	0	0	0	0	0	0	0	0	0	0	0	0	0	0	0	0	0	0	0	0	0	0	0	0	0	0	0	0	0	0	0	0	0	0	0	0	0	0	0	0	0	0	0	0	0	0	0	-1	0	-2.0278	-17.891	16.968	0	0	0	1	0	0	17.47	2.0148	16.554	0
634	6.34	0	0	0	0	0	0	0	0	0	0	0	0	0	0	0	0	0	0	0	0	0	0	0	0	10.989	-10.989	19.033	0	0	0	0	0	0	0	0	0	0	0	0	0	0	0	10.996	-10.996	19.046	0	0	0	0	0	0	10.994	-10.994	19.042	0	0	0	0	0	0	0	0	0	2
635	6.35	0	0	0	0	0	0	0	0	0	0	0	0	0	0	0	0	0	0	0	0	0	0	0	0	0	0	0	0	0	0	0	0	0	0	0	0	0	0	0	0	0	0	0	0	0	0	0	0	0	-1	0	-2.0278	-17.891	16.968	0	0	0	0	0	0	0	0	0	2
636	6.36	0	0	0	0	0	0	0	0	0	0	0	0	0	0	0	0	0	0	0	0	0	0	0	0	10.989	-10.989	19.033	0	0	0	0	0	0	10.991	-10.991	19.037	0	0	0	0	0	0	0	0	0	0	0	0	0	0	0	0	0	0	0	0	0	1	0	0	17.47	2.0148	16.554	2
637	6.37	0	0	0	0	0	0	0	0	0	0	0	0	0	0	0	0	0	0	0	0	0	0	0	0	10.989	-10.989	19.033	0	0	0	0	0	0	0	0	0	0	0	0	0	0	0	10.996	-10.996	19.046	0	0	0	0	-1	0	-2.0278	-17.891	16.968	0	0	0	0	0	0	0	0	0	2
638	6.38	0	0	0	0	0	0	0	0	0	0	0	0	0	0	0	0	0	0	0	0	0	0	0	0	0	0	0	0	0	0	0	0	0	10.991	-10.991	19.037	0	0	0	0	0	0	0	0	0	0	0	0	0	-1	0	-2.0278	-17.891	16.968	0	0	0	0	0	0	0	0	0	2
639	6.39	0	0	0	0	0	0	0	0	0	0	0	0	0	0	0	0	0	0	0	0	0	0	0	0	10.989	-10.989	19.033	0	0	0	1	0	0	17.883	2.027	16.961	0	0	0	0	0	0	10.996	-10.996	19.046	0	0	0	0	-1	0	-2.0278	-17.891	16.968	0	0	0	1	0	0	17.47	2.0148	16.554	2
640	6.4	0	0	0	0	0	0	0	0	0	0	0	0	0	0	0	0	0	0	0	0	0	0	0	0	0	0	0	0	0	0	0	0	0	0	0	0	0	0	0	0	0	0	0	0	0	0	0	0	0	-1	0	-2.0278	-17.891	16.968	0	0	0	0	0	0	0	0	0	2
641	6.41	0	0	0	0	0	0	10.917	-10.917	18.908	0	0	0	0	0	0	0	0	0	0	0	0	0	0	0	10.989	-10.989	19.033	0	0	0	0	0	0	0	0	0	0	0	0	0	0	0	0	0	0	0	0	0	0	0	0	0	0	0	0	0	0	1	0	0	17.47	2.0148	16.554	0
642	6.42	0	0	0	0	0	0	0	0	0	0	0	0	0	0	0	0	0	0	0	0	0	0	0	0	10.989	-10.989	19.033	0	0	0	0	0	0	10.991	-10.991	19.037	0	0	0	0	0	0	10.996	-10.996	19.046	0	0	0	0	-1	0	-2.0278	-17.891	16.968	0	0	0	0	0	0	0	0	0	2
643	6.43	0	0	0	0	0	0	0	0	0	0	0	0	0	0	0	0	0	0	0	0	0	0	0	0	10.989	-10.989	19.033	0	0	0	0	0	0	0	0	0	0	0	0	0	0	0	10.996	-10.996	19.046	0	0	0	0	0	0	0	0	0	0	0	0	0	0	0	0	0	0	2
644	6.44	0	0	0	0	0	0	0	0	0	0	0	0	0	0	0	0	0	0	0	0	0	0	0	0	10.989	-10.989	19.033	0	0	0	0	0	0	10.991	-10.991	19.037	0	0	0	0	0	0	0	0	0	0	0	0	0	0	0	10.994	-10.994	19.042	0	0	0	0	0	0	10.93	-10.93	18.931	2
645	6.45	0	0	0	0	0	0	0	0	0	0	0	0	0	0	0	0	0	0	0	0	0	0	0	0	0	0	0	0	0	0	0	0	0	0	0	0	0	0	0	0	0	0	10.996	-10.996	19.046	0	0	0	0	-1	0	-2.0278	-17.891	16.968	0	0	0	0	0	0	0	0	0	2
646	6.46	0	0	0	0	0	0	0	0	0	0	0	0	0	0	0	0	0	0	0	0	0	0	0	0	10.989	-10.989	19.033	0	0	0	1	0	0	17.883	2.027	16.961	0	0	0	0	0	0	0	0	0	0	0	0	0	0	0	0	0	0	0	0	0	1	0	0	17.47	2.0148	16.554	2
647	6.47	0	0	0	0	0	0	0	0	0	0	0	0	0	0	0	0	0	0	0	0	0	0	0	0	0	0	0	0	0	0	0	0	0	0	0	0	0	0	0	0	0	0	10.996	-10.996	19.046	0	0	0	0	-1	0	-2.0278	-17.891	16.968	0	0	0	0	0	0	0	0	0	2
648	6.48	0	0	0	0	0	0	0	0	0	0	0	0	0	0	0	0	0	0	0	0	0	0	0	0	0	0	0	0	0	0	0	0	0	0	0	0	0	0	0	0	0	0	0	0	0	0	0	0	0	-1	0	-2.0278	-17.891	16.968	0	0	0	0	0	0	0	0	0	2
649	6.49	0	0	0	0	0	0	0	0	0	0	0	0	0	0	0	0	0	0	0	0	0	0	0	0	10.989	-10.989	19.033	0	0	0	0	0	0	10.991	-10.991	19.037	0	0	0	0	0	0	0	0	0	0	0	0	0	0	0	0	0	0	0	0	0	1	0	0	17.47	2.0148	16.554	2
650	6.5	0	0	0	0	0	0	0	0	0	0	0	0	0	0	0	0	0	0	0	0	0	0	0	0	0	0	0	0	0	0	0	0	0	0	0	0	0	0	0	0	0	0	10.996	-10.996	19.046	0	0	0	0	-1	0	-2.0278	-17.891	16.968	0	0	0	0	0	0	0	0	0	2
651	6.51	0	0	0	0	0	0	0	0	0	0	0	0	0	0	0	0	0	0	0	0	0	0	0	0	10.989	-10.989	19.033	0	0	0	0	0	0	10.991	-10.991	19.037	0	0	0	0	0	0	0	0	0	0	0	0	0	0	0	0	0	0	0	0	0	0	0	0	0	0	0	2
652	6.52	0	0	0	0	0	0	0	0	0	0	0	0	0	0	0	0	0	0	0	0	0	0	0	0	0	0	0	0	0	0	0	0	0	0	0	0	0	0	0	0	0	0	10.996	-10.996	19.046	0	0	0	0	0	0	0	0	0	0	0	0	0	0	0	0	0	0	2
653	6.53	0	0	0	0	0	0	0	0	0	0	0	0	0	0	0	0	0	0	0	0	0	0	0	0	0	0	0	0	0	0	1	0	0	17.883	2.027	16.961	0	0	0	0	0	0	0	0	0	0	0	0	0	0	0	0	0	0	0	0	0	0	0	0	0	0	0	2
654	6.54	0	0	0	0	0	0	0	0	0	0	0	0	0	0	0	0	0	0	0	0	0	0	0	0	10.989	-10.989	19.033	0	0	0	0	0	0	0	0	0	0	0	0	0	0	0	10.996	-10.996	19.046	0	0	0	0	0	0	0	0	0	0	0	0	0	0	0	0	0	0	2
655	6.55	0	0	0	0	0	0	0	0	0	0	0	0	0	0	0	0	0	0	0	0	0	0	0	0	0	0	0	0	0	0	0	0	0	0	0	0	0	0	0	0	0	0	10.996	-10.996	19.046	0	0	0	0	0	0	0	0	0	0	0	0	0	0	0	0	0	0	2
656	6.56	0	0	0	0	0	0	10.917	-10.917	18.908	0	0	0	0	0	0	0	0	0	0	0	0	0	0	0	0	0	0	0	0	0	0	0	0	0	0	0	0	0	0	0	0	0	0	0	0	0	0	0	0	-1	0	-2.0278	-17.891	16.968	0	0	0	0	0	0	0	0	0	0
657	6.57	0	0	0	0	0	0	0	0	0	0	0	0	0	0	0	0	0	0	0	0	0	0	0	0	0	0	0	0	0	0	0	0	0	10.991	-10.991	19.037	0	0	0	0	0	0	10.996	-10.996	19.046	0	0	0	0	-1	0	-2.0278	-17.891	16.968	0	0	0	0	0	0	0	0	0	0
658	6.58	0	0	0	0	0	0	0	0	0	0	0	0	0	0	0	0	0	0	0	0	0	0	0	0	10.989	-10.989	19.033	0	0	0	0	0	0	10.991	-10.991	19.037	0	0	0	0	0	0	0	0	0	0	0	0	0	-1	0	-2.0278	-17.891	16.968	0	0	0	1	0	0	17.47	2.0148	16.554	2
659	6.59	0	0	0	0	0	0	0	0	0	0	0	0	0	0	0	0	0	0	0	0	0	0	0	0	0	0	0	0	0	0	0	0	0	0	0	0	0	0	0	0	0	0	0	0	0	0	0	0	0	0	0	0	0	0	0	0	0	1	0	0	17.47	2.0148	16.554	2
660	6.6	0	0	0	0	0	0	0	0	0	0	0	0	0	0	0	0	0	0	0	0	0	0	0	0	10.989	-10.989	19.033	0	0	0	0	0	0	0	0	0	0	0	0	0	0	0	10.996	-10.996	19.046	0	0	0	0	-1	0	-2.0278	-17.891	16.968	0	0	0	0	0	0	0	0	0	2
661	6.61	0	0	0	0	0	0	0	0	0	0	0	0	0	0	0	0	0	0	0	0	0	0	0	0	10.989	-10.989	19.033	0	0	0	1	0	0	17.883	2.027	16.961	0	0	0	0	0	0	10.996	-10.996	19.046	0	0	0	0	-1	0	-2.0278	-17.891	16.968	0	0	0	1	0	0	17.47	2.0148	16.554	2
662	6.62	0	0	0	0	0	0	0	0	0	0	0	0	0	0	0	0	0	0	0	0	0	0	-1	0	-2.0266	-17.88	16.957	0	0	0	0	0	0	0	0	0	0	0	0	0	-1	0	-2.1508	-17.769	16.797	0	0	0	0	-1	0	-2.0278	-17.891	16.968	0	0	0	0	0	0	0	0	0	0
663	6.63	0	0	0	0	0	0	10.917	-10.917	18.908	0	0	0	0	0	0	0	0	0	0	0	0	0	0	0	0	0	0	0	0	0	0	0	0	0	0	0	0	0	0	0	0	0	0	0	0	0	0	0	0	0	0	0	0	0	0	0	0	1	0	0	17.47	2.0148	16.554	2
664	6.64	0	0	0	0	0	0	0	0	0	0	0	0	0	0	0	0	0	0	0	0	0	0	0	0	0	0	0	0	0	0	0	0	0	10.991	-10.991	19.037	0	0	0	0	0	0	0	0	0	0	0	0	0	0	0	0	0	0	0	0	0	1	0	0	17.47	2.0148	16.554	2
665	6.65	0	0	0	0	0	0	0	0	0	0	0	0	0	0	0	0	0	0	0	0	0	0	0	0	0	0	0	0	0	0	0	0	0	0	0	0	0	0	0	0	0	0	10.996	-10.996	19.046	0	0	0	0	-1	0	-2.0278	-17.891	16.968	0	0	0	0	0	0	0	0	0	2
666	6.66	0	0	0	0	0	0	10.917	-10.917	18.908	0	0	0	0	0	0	0	0	0	0	0	0	0	0	0	0	0	0	0	0	0	1	0	0	17.883	2.027	16.961	0	0	0	0	0	0	0	0	0	0	0	0	0	-1	0	-2.0278	-17.891	16.968	0	0	0	1	0	0	17.47	2.0148	16.554	2
667	6.67	0	0	0	0	0	0	0	0	0	0	0	0	0	0	0	0	0	0	0	0	0	0	0	0	0	0	0	0	0	0	0	0	0	0	0	0	0	0	0	0	0	0	0	0	0	0	0	0	0	-1	0	-2.0278	-17.891	16.968	0	0	0	0	0	0	0	0	0	2
668	6.68	0	0	0	0	0	0	10.917	-10.917	18.908	0	0	0	0	-1	0	-2.0366	-17.816	16.89	0	0	0	0	0	0	0	0	0	0	0	0	1	0	0	17.883	2.027	16.961	0	0	0	0	0	0	0	0	0	0	0	0	0	-1	0	-2.0278	-17.891	16.968	0	0	0	0	0	0	0	0	0	2
669	6.69	0	0	0	0	0	0	0	0	0	0	0	0	0	0	0	0	0	0	0	0	0	0	0	0	0	0	0	0	0	0	0	0	0	0	0	0	0	0	0	0	0	0	0	0	0	0	0	0	0	-1	0	-2.0278	-17.891	16.968	0	0	0	0	0	0	0	0	0	2
670	6.7	0	0	0	0	0	0	0	0	0	0	0	0	0	0	0	0	0	0	0	0	0	0	0	0	0	0	0	0	0	0	0	-1	0	-2.0265	-17.879	16.957	0	0	0	0	-1	0	-2.0279	-17.891	16.969	0	0	0	0	0	0	0	0	0	0	0	0	0	0	0	0	0	0	2
671	6.71	0	0	0	0	0	0	0	0	0	0	0	0	0	0	0	0	0	0	0	0	0	0	0	0	0	0	0	0	0	0	0	0	0	10.991	-10.991	19.037	0	0	0	0	0	0	0	0	0	0	0	0	0	-1	0	-2.0278	-17.891	16.968	0	0	0	1	0	0	17.47	2.0148	16.554	2
672	6.72	0	0	0	0	0	0	0	0	0	0	0	0	0	0	0	0	0	0	0	0	0	0	0	0	0	0	0	0	0	0	0	0	0	0	0	0	0	0	0	0	0	0	10.996	-10.996	19.046	0	0	0	0	-1	0	-2.0278	-17.891	16.968	0	0	0	0	0	0	0	0	0	2
673	6.73	0	0	0	0	0	0	0	0	0	0	0	0	0	0	0	0	0	0	0	0	0	0	0	0	10.989	-10.989	19.033	0	0	0	0	0	0	0	0	0	0	0	0	0	0	0	10.996	-10.996	19.046	0	0	0	0	-1	0	-2.0278	-17.891	16.968	0	0	0	1	0	0	17.47	2.0148	16.554	0
674	6.74	0	0	0	0	0	0	0	0	0	0	0	0	0	0	0	0	0	0	0	0	0	0	0	0	0	0	0	0	0	0	0	0	0	0	0	0	0	0	0	0	0	0	0	0	0	0	0	0	0	-1	0	-2.0278	-17.891	16.968	0	0	0	0	0	0	0	0	0	2
675	6.75	0	0	0	0	0	0	0	0	0	0	0	0	0	0	0	0	0	0	0	0	0	0	0	0	0	0	0	0	0	0	0	0	0	0	0	0	0	0	0	0	0	0	10.996	-10.996	19.046	0	0	0	0	-1	0	-2.0278	-17.891	16.968	0	0	0	0	0	0	0	0	0	2
676	6.76	0	0	0	0	0	0	0	0	0	0	0	0	0	0	0	0	0	0	0	0	0	0	0	0	0	0	0	0	0	0	0	0	0	0	0	0	0	0	0	0	0	0	0	0	0	0	0	0	0	-1	0	-2.0278	-17.891	16.968	0	0	0	0	0	0	0	0	0	0
677	6.77	0	0	0	0	0	0	0	0	0	0	0	0	0	-1	0	-2.0366	-17.816	16.89	0	0	0	0	0	0	0	0	0	0	0	0	0	0	0	0	0	0	0	0	0	0	0	0	10.996	-10.996	19.046	0	0	0	0	0	0	0	0	0	0	0	0	0	0	0	0	0	0	2
678	6.78	0	0	0	0	0	0	0	0	0	0	0	0	0	0	0	0	0	0	0	0	0	0	0	0	0	0	0	0	0	0	0	0	0	0	0	0	0	0	0	0	0	0	10.996	-10.996	19.046	0	0	0	0	0	0	0	0	0	0	0	0	0	0	0	0	0	0	2
679	6.79	0	0	0	0	0	0	0	0	0	0	0	0	0	0	0	0	0	0	0	0	0	0	0	0	0	0	0	0	0	0	0	0	0	0	0	0	0	0	0	0	0	0	10.996	-10.996	19.046	0	0	0	0	0	0	0	0	0	0	0	0	0	0	0	0	0	0	2
680	6.8	0	0	0	0	0	0	0	0	0	0	0	0	0	-1	0	-2.0366	-17.816	16.89	0	0	0	0	0	0	0	0	0	0	0	0	0	0	0	0	0	0	0	0	0	0	0	0	10.996	-10.996	19.046	0	0	0	0	0	0	0	0	0	0	0	0	0	0	0	0	0	0	2
681	6.81	0	0	0	0	0	0	0	0	0	0	0	0	0	0	0	0	0	0	0	0	0	0	0	0	0	0	0	0	0	0	0	0	0	0	0	0	0	0	0	0	0	0	10.996	-10.996	19.046	0	0	0	0	0	0	0	0	0	0	0	0	1	0	0	17.47	2.0148	16.554	2
682	6.82	0	0	0	0	0	0	0	0	0	0	0	0	0	0	0	0	0	0	0	0	0	0	0	0	0	0	0	0	0	0	0	0	0	0	0	0	0	0	0	0	0	0	10.996	-10.996	19.046	0	0	0	0	-1	0	-2.0278	-17.891	16.968	0	0	0	0	0	0	0	0	0	0
683	6.83	0	0	0	0	0	0	0	0	0	0	0	0	0	0	0	0	0	0	0	0	0	0	0	0	0	0	0	0	0	0	0	0	0	0	0	0	0	0	0	0	0	0	0	0	0	0	0	0	0	-1	0	-2.0278	-17.891	16.968	0	0	0	1	0	0	17.47	2.0148	16.554	2
684	6.84	0	0	0	0	0	0	0	0	0	0	0	0	0	0	0	0	0	0	0	0	0	0	0	0	10.989	-10.989	19.033	0	0	0	0	0	0	10.991	-10.991	19.037	0	0	0	0	0	0	10.996	-10.996	19.046	0	0	0	0	-1	0	-2.0278	-17.891	16.968	0	0	0	0	0	0	0	0	0	2
685	6.85	0	0	0	0	0	0	0	0	0	0	0	0	0	0	0	0	0	0	0	0	0	0	0	0	0	0	0	0	0	0	0	0	0	0	0	0	0	0	0	0	0	0	0	0	0	0	0	0	0	-1	0	-2.0278	-17.891	16.968	0	0	0	0	0	0	0	0	0	2
686	6.86	0	0	0	0	0	0	0	0	0	0	0	0	0	0	0	0	0	0	0	0	0	0	0	0	10.989	-10.989	19.033	0	0	0	0	0	0	0	0	0	0	0	0	0	0	0	10.996	-10.996	19.046	0	0	0	0	-1	0	-2.0278	-17.891	16.968	0	0	0	0	0	0	0	0	0	2
687	6.87	0	0	0	0	0	0	0	0	0	0	0	0	0	0	0	0	0	0	0	0	0	0	0	0	0	0	0	0	0	0	0	0	0	10.991	-10.991	19.037	0	0	0	0	0	0	0	0	0	0	0	0	0	-1	0	-2.0278	-17.891	16.968	0	0	0	0	0	0	0	0	0	2
688	6.88	0	0	0	0	0	0	0	0	0	0	0	0	0	0	0	0	0	0	0	0	0	0	0	0	0	0	0	0	0	0	0	0	0	0	0	0	0	0	0	0	0	0	10.996	-10.996	19.046	0	0	0	0	-1	0	-2.0278	-17.891	16.968	0	0	0	0	0	0	0	0	0	2
689	6.89	0	0	0	0	0	0	10.917	-10.917	18.908	0	0	0	0	0	0	0	0	0	0	0	0	0	0	0	0	0	0	0	0	0	0	0	0	0	0	0	0	0	0	0	0	0	0	0	0	0	0	0	0	-1	0	-2.0278	-17.891	16.968	0	0	0	0	0	0	0	0	0	2
690	6.9	0	0	0	0	0	0	0	0	0	0	0	0	0	0	0	0	0	0	0	0	0	0	0	0	0	0	0	0	0	0	1	0	0	17.883	2.027	16.961	0	0	0	0	0	0	0	0	0	0	0	0	0	-1	0	-2.0278	-17.891	16.968	0	0	0	0	0	0	0	0	0	2
691	6.91	0	0	0	0	0	0	0	0	0	0	0	0	0	0	0	0	0	0	0	0	0	0	0	0	0	0	0	0	0	0	1	0	0	17.761	2.1499	16.789	0	0	0	0	0	0	0	0	0	0	0	0	0	-1	0	-2.0278	-17.891	16.968	0	0	0	1	0	0	17.47	2.0148	16.554	2
692	6.92	0	0	0	0	0	0	0	0	0	0	0	0	0	0	0	0	0	0	0	0	0	0	0	0	0	0	0	0	0	0	0	0	0	10.991	-10.991	19.037	0	0	0	0	0	0	10.996	-10.996	19.046	0	0	0	0	-1	0	-2.0278	-17.891	16.968	0	0	0	0	0	0	0	0	0	2
693	6.93	0	0	0	0	0	0	0	0	0	0	0	0	0	0	0	0	0	0	0	0	0	0	0	0	0	0	0	0	0	0	0	0	0	10.991	-10.991	19.037	0	0	0	0	0	0	10.996	-10.996	19.046	0	0	0	0	-1	0	-2.0278	-17.891	16.968	0	0	0	0	0	0	0	0	0	2
694	6.94	0	0	0	0	0	0	0	0	0	0	0	0	0	-1	0	-2.0372	-17.821	16.895	0	0	0	0	0	0	0	0	0	0	0	0	0	0	0	10.991	-10.991	19.037	0	0	0	0	0	0	10.996	-10.996	19.046	0	0	0	0	-1	0	-2.0278	-17.891	16.968	0	0	0	1	0	0	17.47	2.0148	16.554	0
695	6.95	0	0	0	0	0	0	0	0	0	0	0	0	0	0	0	0	0	0	0	0	0	0	0	0	0	0	0	0	0	0	0	0	0	0	0	0	0	0	0	0	0	0	10.996	-10.996	19.046	0	0	0	0	-1	0	-2.0278	-17.891	16.968	0	0	0	0	0	0	0	0	0	2
696	6.96	0	0	0	0	0	0	0	0	0	0	0	0	0	0	0	0	0	0	0	0	0	0	0	0	0	0	0	0	0	0	1	0	0	17.883	2.027	16.961	0	0	0	0	0	0	0	0	0	0	0	0	0	-1	0	-2.0278	-17.891	16.968	0	0	0	0	0	0	0	0	0	2
697	6.97	0	0	0	0	0	0	0	0	0	0	0	0	0	0	0	0	0	0	0	0	0	0	0	0	10.989	-10.989	19.033	0	0	0	0	0	0	0	0	0	0	0	0	0	0	0	0	0	0	0	0	0	0	0	0	0	0	0	0	0	0	0	0	0	0	0	0	0
698	6.98	0	0	0	0	0	0	0	0	0	0	0	0	0	0	0	0	0	0	0	0	0	0	0	0	0	0	0	0	0	0	0	0	0	0	0	0	0	0	0	0	0	0	0	0	0	0	0	0	0	-1	0	-2.0278	-17.891	16.968	0	0	0	0	0	0	0	0	0	2
699	6.99	0	0	0	0	0	0	0	0	0	0	0	0	0	0	0	0	0	0	0	0	0	0	0	0	10.989	-10.989	19.033	0	0	0	0	0	0	10.991	-10.991	19.037	0	0	0	0	0	0	0	0	0	0	0	0	0	-1	0	-2.0278	-17.891	16.968	0	0	0	1	0	0	17.47	2.0148	16.554	2
700	7	0	0	0	0	0	0	0	0	0	0	0	0	0	0	0	0	0	0	0	0	0	0	0	0	0	0	0	0	0	0	0	0	0	0	0	0	0	0	0	0	0	0	10.996	-10.996	19.046	0	0	0	0	-1	0	-2.0278	-17.891	16.968	0	0	0	0	0	0	0	0	0	2
701	7.01	0	0	0	0	0	0	0	0	0	0	0	0	0	0	0	0	0	0	0	0	0	0	0	0	0	0	0	0	0	0	0	0	0	0	0	0	0	0	0	0	0	0	0	0	0	0	0	0	0	-1	0	-2.0278	-17.891	16.968	0	0	0	0	0	0	0	0	0	2
702	7.02	0	0	0	0	0	0	0	0	0	0	0	0	0	0	0	0	0	0	0	0	0	0	0	0	10.989	-10.989	19.033	0	0	0	0	0	0	0	0	0	0	0	0	0	0	0	0	0	0	0	0	0	0	0	0	0	0	0	0	0	0	0	0	0	0	0	0	2
703	7.03	0	0	0	0	0	0	0	0	0	0	0	0	0	0	0	0	0	0	0	0	0	0	0	0	0	0	0	0	0	0	0	0	0	0	0	0	0	0	0	0	0	0	0	0	0	0	0	0	0	-1	0	-2.0278	-17.891	16.968	0	0	0	0	0	0	0	0	0	2
704	7.04	0	0	0	0	0	0	0	0	0	0	0	0	0	0	0	0	0	0	0	0	0	0	0	0	10.989	-10.989	19.033	0	0	0	0	0	0	10.991	-10.991	19.037	0	0	0	0	0	0	0	0	0	0	0	0	0	-1	0	-2.0278	-17.891	16.968	0	0	0	0	0	0	0	0	0	0
705	7.05	0	0	0	0	0	0	0	0	0	0	0	0	0	0	0	0	0	0	0	0	0	0	0	0	0	0	0	0	0	0	0	0	0	0	0	0	0	0	0	0	0	0	10.996	-10.996	19.046	0	0	0	0	0	0	0	0	0	0	0	0	0	0	0	0	0	0	2
706	7.06	0	0	0	0	0	0	0	0	0	0	0	0	0	0	0	0	0	0	0	0	0	0	0	0	0	0	0	0	0	0	0	0	0	0	0	0	0	0	0	0	0	0	0	0	0	0	0	0	0	0	0	0	0	0	0	0	0	0	0	0	0	0	0	0
707	7.07	0	0	0	0	0	0	10.917	-10.917	18.908	0	0	0	0	0	0	0	0	0	0	0	0	0	0	0	10.989	-10.989	19.033	0	0	0	0	0	0	0	0	0	0	0	0	0	0	0	0	0	0	0	0	0	0	-1	0	-2.0278	-17.891	16.968	0	0	0	0	0	0	0	0	0	2
708	7.08	0	0	0	0	0	0	0	0	0	0	0	0	0	-1	0	-2.0372	-17.821	16.895	0	0	0	0	0	0	0	0	0	0	0	0	0	0	0	0	0	0	0	0	0	0	0	0	0	0	0	0	0	0	0	-1	0	-2.0278	-17.891	16.968	0	0	0	0	0	0	0	0	0	0
709	7.09	0	0	0	0	0	0	10.917	-10.917	18.908	0	0	0	0	0	0	0	0	0	0	0	0	0	0	0	0	0	0	0	0	0	0	0	0	0	0	0	0	0	0	0	0	0	0	0	0	0	0	0	0	0	0	0	0	0	0	0	0	0	0	0	0	0	0	2
710	7.1	0	0	0	0	0	0	0	0	0	0	0	0	0	0	0	0	0	0	0	0	0	0	0	0	0	0	0	0	0	0	0	0	0	0	0	0	0	0	0	0	0	0	10.996	-10.996	19.046	0	0	0	0	-1	0	-2.0278	-17.891	16.968	0	0	0	0	0	0	0	0	0	2
711	7.11	0	0	0	0	0	0	0	0	0	0	0	0	0	0	0	0	0	0	0	0	0	0	0	0	0	0	0	0	0	0	0	0	0	0	0	0	0	0	0	0	0	0	10.996	-10.996	19.046	0	0	0	0	-1	0	-2.0278	-17.891	16.968	0	0	0	0	0	0	0	0	0	2
712	7.12	0	0	0	0	0	0	0	0	0	0	0	0	0	0	0	0	0	0	0	0	0	0	0	0	0	0	0	0	0	0	0	0	0	0	0	0	0	0	0	0	0	0	10.996	-10.996	19.046	0	0	0	0	0	0	0	0	0	0	0	0	0	0	0	0	0	0	2
713	7.13	0	0	0	0	0	0	0	0	0	0	0	0	0	0	0	0	0	0	0	0	0	0	0	0	0	0	0	0	0	0	1	0	0	17.883	2.027	16.961	0	0	0	0	0	0	10.996	-10.996	19.046	0	0	0	1	-1	0	7.5503	-27.469	31.921	0	0	0	0	0	0	0	0	0	2
714	7.14	0	0	0	0	0	0	0	0	0	0	0	0	0	0	0	0	0	0	0	0	0	0	0	0	10.989	-10.989	19.033	0	0	0	0	0	0	0	0	0	0	0	0	0	0	0	0	0	0	0	0	0	0	-1	0	-2.0278	-17.891	16.968	0	0	0	0	0	0	0	0	0	0
715	7.15	0	0	0	0	0	0	0	0	0	0	0	0	0	0	0	0	0	0	0	0	0	0	0	0	0	0	0	0	0	0	0	0	0	0	0	0	0	0	0	0	0	0	0	0	0	0	0	0	0	-1	0	-2.0278	-17.891	16.968	0	0	0	0	0	0	0	0	0	2
716	7.16	0	0	0	0	0	0	0	0	0	0	0	0	0	0	0	0	0	0	0	0	0	0	0	0	0	0	0	0	0	0	1	0	0	17.883	2.027	16.961	0	0	0	0	0	0	0	0	0	0	0	0	0	-1	0	-2.0278	-17.891	16.968	0	0	0	1	0	0	17.47	2.0148	16.554	0
717	7.17	0	0	0	0	0	0	0	0	0	0	0	0	0	0	0	0	0	0	0	0	0	0	0	0	0	0	0	0	0	0	0	0	0	0	0	0	0	0	0	0	0	0	0	0	0	0	0	0	0	-1	0	-2.0278	-17.891	16.968	0	0	0	0	0	0	0	0	0	2
718	7.18	0	0	0	0	0	0	0	0	0	0	0	0	0	0	0	0	0	0	0	0	0	0	0	0	0	0	0	0	0	0	0	0	0	0	0	0	0	0	0	0	-1	0	-2.0279	-17.891	16.969	0	0	0	0	0	0	0	0	0	0	0	0	0	0	0	0	0	0	0
719	7.19	0	0	0	0	0	0	0	0	0	0	0	0	0	0	0	0	0	0	0	0	0	0	0	0	10.989	-10.989	19.033	0	0	0	1	0	0	17.883	2.027	16.961	0	0	0	0	0	0	0	0	0	0	0	0	0	-1	0	-2.0278	-17.891	16.968	0	0	0	1	0	0	17.47	2.0148	16.554	2
720	7.2	0	0	0	0	0	0	0	0	0	0	0	0	0	0	0	0	0	0	0	0	0	0	0	0	0	0	0	0	0	0	1	0	0	17.883	2.027	16.961	0	0	0	0	0	0	10.996	-10.996	19.046	0	0	0	0	-1	0	-2.0278	-17.891	16.968	0	0	0	0	0	0	0	0	0	0
721	7.21	0	0	0	0	0	0	10.917	-10.917	18.908	0	0	0	0	0	0	0	0	0	0	0	0	0	0	0	0	0	0	0	0	0	0	0	0	0	0	0	0	0	0	0	0	0	0	0	0	0	0	0	0	-1	0	-2.0278	-17.891	16.968	0	0	0	1	0	0	17.47	2.0148	16.554	2
722	7.22	0	0	0	0	0	0	0	0	0	0	0	0	0	0	0	0	0	0	0	0	0	0	0	0	10.989	-10.989	19.033	0	0	0	0	0	0	0	0	0	0	0	0	0	0	0	0	0	0	0	0	0	0	-1	0	-2.0278	-17.891	16.968	0	0	0	0	0	0	0	0	0	0
723	7.23	0	0	0	0	0	0	0	0	0	0	0	0	0	0	0	0	0	0	0	0	0	0	0	0	0	0	0	0	0	0	0	0	0	0	0	0	0	0	0	0	0	0	0	0	0	0	0	0	0	-1	0	-2.0278	-17.891	16.968	0	0	0	0	0	0	0	0	0	0
724	7.24	0	0	0	0	0	0	0	0	0	0	0	0	0	0	0	0	0	0	0	0	0	0	0	0	0	0	0	0	0	0	1	0	0	17.883	2.027	16.961	0	0	0	0	0	0	0	0	0	0	0	0	0	-1	0	-2.0278	-17.891	16.968	0	0	0	1	0	0	17.47	2.0148	16.554	2
725	7.25	0	0	0	0	0	0	0	0	0	0	0	0	0	-1	0	-2.0372	-17.821	16.895	0	0	0	0	0	0	10.989	-10.989	19.033	0	0	0	0	0	0	0	0	0	0	0	0	0	0	0	10.996	-10.996	19.046	0	0	0	0	-1	0	-2.0278	-17.891	16.968	0	0	0	0	0	0	0	0	0	2
726	7.26	0	0	0	0	0	0	0	0	0	0	0	0	0	0	0	0	0	0	0	0	0	0	0	0	0	0	0	0	0	0	0	0	0	0	0	0	0	0	0	0	0	0	0	0	0	0	0	0	0	-1	0	-2.0278	-17.891	16.968	0	0	0	1	0	0	17.47	2.0148	16.554	0
727	7.27	0	0	0	0	0	0	0	0	0	0	0	0	0	0	0	0	0	0	0	0	0	0	0	0	0	0	0	0	0	0	0	0	0	0	0	0	0	0	0	0	0	0	0	0	0	0	0	0	0	-1	0	-2.0278	-17.891	16.968	0	0	0	0	0	0	0	0	0	2
728	7.28	0	0	0	0	0	0	0	0	0	0	0	0	0	0	0	0	0	0	0	0	0	0	0	0	10.989	-10.989	19.033	0	0	0	0	0	0	0	0	0	0	0	0	0	0	0	0	0	0	0	0	0	0	-1	0	-2.0278	-17.891	16.968	0	0	0	1	0	0	17.47	2.0148	16.554	2
729	7.29	0	0	0	0	0	0	0	0	0	0	0	0	0	0	0	0	0	0	0	0	0	0	0	0	0	0	0	0	0	0	1	0	0	17.883	2.027	16.961	0	0	0	0	0	0	0	0	0	0	0	0	0	0	0	0	0	0	0	0	0	1	0	0	17.47	2.0148	16.554	2
730	7.3	0	0	0	0	0	0	0	0	0	0	0	0	0	-1	0	-2.0372	-17.821	16.895	0	0	0	0	0	0	0	0	0	0	0	0	0	0	0	0	0	0	0	0	0	0	0	0	0	0	0	0	0	0	0	-1	0	-2.0278	-17.891	16.968	0	0	0	0	0	0	0	0	0	2
731	7.31	0	0	0	0	0	0	0	0	0	0	0	0	0	0	0	0	0	0	0	0	0	0	0	0	0	0	0	0	0	0	0	0	0	0	0	0	0	0	0	0	0	0	0	0	0	0	0	0	0	-1	0	-2.0278	-17.891	16.968	0	0	0	0	0	0	0	0	0	0
732	7.32	0	0	0	0	0	0	0	0	0	0	0	0	0	0	0	0	0	0	0	0	0	0	0	0	0	0	0	0	0	0	1	0	0	17.883	2.027	16.961	0	0	0	0	0	0	0	0	0	0	0	0	0	0	0	0	0	0	0	0	0	0	0	0	0	0	0	2
733	7.33	0	0	0	0	0	0	0	0	0	0	0	0	0	0	0	0	0	0	0	0	0	0	0	0	0	0	0	0	0	0	0	0	0	0	0	0	0	0	0	0	0	0	0	0	0	0	0	0	0	-1	0	-2.0278	-17.891	16.968	0	0	0	0	0	0	0	0	0	2
734	7.34	0	0	0	0	0	0	0	0	0	0	0	0	0	0	0	0	0	0	0	0	0	0	0	0	0	0	0	0	0	0	1	0	0	17.761	2.1499	16.789	0	0	0	0	0	0	0	0	0	0	0	0	0	-1	0	-2.0278	-17.891	16.968	0	0	0	0	0	0	0	0	0	2
735	7.35	0	0	0	0	0	0	0	0	0	0	0	0	0	0	0	0	0	0	0	0	0	0	0	0	0	0	0	0	0	0	0	0	0	0	0	0	0	0	0	0	0	0	10.996	-10.996	19.046	0	0	0	0	0	0	0	0	0	0	0	0	0	0	0	0	0	0	2
736	7.36	0	0	0	0	0	0	0	0	0	0	0	0	0	0	0	0	0	0	0	0	0	0	0	0	0	0	0	0	0	0	0	0	0	0	0	0	0	0	0	0	0	0	0	0	0	0	0	0	0	0	0	0	0	0	0	0	0	0	0	0	0	0	0	0
737	7.37	0	0	0	0	0	0	0	0	0	0	0	0	0	0	0	0	0	0	0	0	0	0	0	0	10.989	-10.989	19.033	0	0	0	1	0	0	17.883	2.027	16.961	0	0	0	0	0	0	0	0	0	0	0	0	0	-1	0	-2.0278	-17.891	16.968	0	0	0	0	0	0	0	0	0	0
738	7.38	0	0	0	0	0	0	0	0	0	0	0	0	0	0	0	0	0	0	0	0	0	0	0	0	0	0	0	0	0	0	0	0	0	0	0	0	0	0	0	0	0	0	0	0	0	0	0	0	0	-1	0	-2.0278	-17.891	16.968	0	0	0	0	0	0	0	0	0	0
739	7.39	0	0	0	0	0	0	0	0	0	0	0	0	0	0	0	0	0	0	0	0	0	0	0	0	0	0	0	0	0	0	1	0	0	17.883	2.027	16.961	0	0	0	0	0	0	0	0	0	0	0	0	0	-1	0	-2.0278	-17.891	16.968	0	0	0	0	0	0	0	0	0	0
740	7.4	0	0	0	0	0	0	0	0	0	0	0	0	0	-1	0	-2.0372	-17.821	16.895	0	0	0	0	0	0	10.989	-10.989	19.033	0	0	0	0	-1	0	-2.0265	-17.879	16.957	0	0	0	0	0	0	0	0	0	0	0	0	0	-1	0	-2.0278	-17.891	16.968	0	0	0	0	0	0	0	0	0	2
741	7.41	0	0	0	0	0	0	0	0	0	0	0	0	0	0	0	0	0	0	0	0	0	0	0	0	10.989	-10.989	19.033	0	0	0	1	0	0	17.883	2.027	16.961	0	0	0	0	0	0	0	0	0	0	0	0	0	-1	0	-2.0278	-17.891	16.968	0	0	0	0	0	0	0	0	0	0
742	7.42	0	0	0	0	0	0	0	0	0	0	0	0	0	0	0	0	0	0	0	0	0	0	0	0	0	0	0	0	0	0	0	0	0	0	0	0	0	0	0	0	0	0	0	0	0	0	0	0	0	-1	0	-2.0278	-17.891	16.968	0	0	0	0	0	0	0	0	0	2
743	7.43	0	0	0	0	0	0	0	0	0	0	0	0	0	0	0	0	0	0	0	0	0	0	0	0	0	0	0	0	0	0	0	0	0	0	0	0	0	0	0	0	0	0	0	0	0	0	0	0	0	-1	0	-2.0278	-17.891	16.968	0	0	0	0	0	0	0	0	0	2
744	7.44	0	0	0	0	0	0	10.917	-10.917	18.908	0	0	0	0	0	0	0	0	0	0	0	0	0	0	0	0	0	0	0	0	0	0	0	0	0	0	0	0	0	0	0	0	0	0	0	0	0	0	0	0	-1	0	-2.0278	-17.891	16.968	0	0	0	0	0	0	0	0	0	2
745	7.45	0	0	0	0	0	0	0	0	0	0	0	0	0	0	0	0	0	0	0	0	0	0	0	0	0	0	0	0	0	0	0	0	0	0	0	0	0	0	0	0	0	0	0	0	0	0	0	0	0	-1	0	-2.0278	-17.891	16.968	0	0	0	0	0	0	0	0	0	2
746	7.46	0	0	0	0	0	0	0	0	0	0	0	0	0	0	0	0	0	0	0	0	0	0	0	0	0	0	0	0	0	0	0	0	0	0	0	0	0	0	0	0	0	0	0	0	0	0	0	0	0	0	0	0	0	0	0	0	0	0	0	0	0	0	0	2
747	7.47	0	0	0	0	0	0	0	0	0	0	0	0	0	0	0	0	0	0	0	0	0	0	0	0	0	0	0	0	0	0	0	0	0	0	0	0	0	0	0	0	0	0	10.996	-10.996	19.046	0	0	0	0	-1	0	-2.0278	-17.891	16.968	0	0	0	0	0	0	0	0	0	2
748	7.48	0	0	0	0	0	0	0	0	0	0	0	0	0	-1	0	-2.0372	-17.821	16.895	0	0	0	0	0	0	0	0	0	0	0	0	0	0	0	0	0	0	0	0	0	0	0	0	0	0	0	0	0	0	0	0	0	0	0	0	0	0	0	0	0	0	0	0	0	0
749	7.49	0	0	0	0	0	0	0	0	0	0	0	0	0	0	0	0	0	0	0	0	0	0	0	0	0	0	0	0	0	0	1	0	0	17.883	2.027	16.961	0	0	0	0	0	0	10.996	-10.996	19.046	0	0	0	0	-1	0	-2.0278	-17.891	16.968	0	0	0	0	0	0	0	0	0	0
750	7.5	0	0	0	0	0	0	0	0	0	0	0	0	0	0	0	0	0	0	0	0	0	0	0	0	0	0	0	0	0	0	1	0	0	17.883	2.027	16.961	0	0	0	0	0	0	0	0	0	0	0	0	0	-1	0	-2.0278	-17.891	16.968	0	0	0	0	0	0	0	0	0	2
751	7.51	0	0	0	0	0	0	0	0	0	0	0	0	0	0	0	0	0	0	0	0	0	0	0	0	0	0	0	0	0	0	1	0	0	17.761	2.1499	16.789	0	0	0	0	0	0	10.996	-10.996	19.046	0	0	0	0	-1	0	-2.0278	-17.891	16.968	0	0	0	0	0	0	0	0	0	0
752	7.52	0	0	0	0	0	0	0	0	0	0	0	0	0	0	0	0	0	0	0	0	0	0	0	0	0	0	0	0	0	0	0	0	0	0	0	0	0	0	0	0	0	0	0	0	0	0	0	0	0	-1	0	-2.0278	-17.891	16.968	0	0	0	0	0	0	0	0	0	2
753	7.53	0	0	0	0	0	0	0	0	0	0	0	0	0	0	0	0	0	0	0	0	0	0	0	0	0	0	0	0	0	0	0	0	0	0	0	0	0	0	0	0	0	0	10.996	-10.996	19.046	0	0	0	0	-1	0	-2.0278	-17.891	16.968	0	0	0	0	0	0	0	0	0	0
754	7.54	0	0	0	0	0	0	0	0	0	0	0	0	0	0	0	0	0	0	0	0	0	0	0	0	0	0	0	0	0	0	1	0	0	17.883	2.027	16.961	0	0	0	0	0	0	0	0	0	0	0	0	0	0	0	10.994	-10.994	19.042	0	0	0	0	0	0	0	0	0	2
755	7.55	0	0	0	0	0	0	0	0	0	0	0	0	0	0	0	0	0	0	0	0	0	0	0	0	0	0	0	0	0	0	0	0	0	0	0	0	0	0	0	0	0	0	10.996	-10.996	19.046	0	0	0	0	-1	0	-2.0278	-17.891	16.968	0	0	0	0	0	0	0	0	0	2
756	7.56	0	0	0	0	0	0	0	0	0	0	0	0	0	0	0	0	0	0	0	0	0	0	0	0	10.989	-10.989	19.033	0	0	0	0	0	0	0	0	0	0	0	0	0	0	0	0	0	0	0	0	0	0	-1	0	-2.0278	-17.891	16.968	0	0	0	1	0	0	17.47	2.0148	16.554	0
757	7.57	0	0	0	0	0	0	0	0	0	0	0	0	0	0	0	0	0	0	0	0	0	0	0	0	0	0	0	0	0	0	0	0	0	0	0	0	0	0	0	0	0	0	0	0	0	0	0	0	0	-1	0	-2.0278	-17.891	16.968	0	0	0	0	0	0	0	0	0	2
758	7.58	0	0	0	0	-1	0	-2.0364	-17.814	16.888	0	0	0	0	0	0	0	0	0	0	0	0	0	0	0	0	0	0	0	0	0	0	0	0	0	0	0	0	0	0	0	0	0	0	0	0	0	0	0	0	-1	0	-2.0278	-17.891	16.968	0	0	0	0	0	0	0	0	0	2
759	7.59	0	0	0	0	0	0	0	0	0	0	0	0	0	0	0	0	0	0	0	0	0	0	0	0	0	0	0	0	0	0	1	0	0	17.883	2.027	16.961	0	0	0	0	0	0	0	0	0	0	0	0	0	0	0	0	0	0	0	0	0	0	0	0	0	0	0	0
760	7.6	0	0	0	0	0	0	0	0	0	0	0	0	0	0	0	0	0	0	0	0	0	0	-1	0	-2.0266	-17.88	16.957	0	0	0	0	0	0	0	0	0	0	0	0	0	0	0	0	0	0	0	0	0	0	-1	0	-2.0278	-17.891	16.968	0	0	0	0	0	0	0	0	0	0
761	7.61	0	0	0	0	0	0	0	0	0	0	0	0	0	0	0	0	0	0	0	0	0	0	0	0	0	0	0	0	0	0	0	0	0	0	0	0	0	0	0	0	0	0	0	0	0	0	0	0	0	0	0	0	0	0	0	0	0	0	0	0	0	0	0	0
762	7.62	0	0	0	0	0	0	0	0	0	0	0	0	0	0	0	0	0	0	0	0	0	0	0	0	0	0	0	0	0	0	0	0	0	0	0	0	0	0	0	0	0	0	0	0	0	0	0	0	0	-1	0	-2.0278	-17.891	16.968	0	0	0	0	0	0	0	0	0	2
763	7.63	0	0	0	0	0	0	0	0	0	0	0	0	0	0	0	0	0	0	0	0	0	0	0	0	0	0	0	0	0	0	0	0	0	0	0	0	0	0	0	0	0	0	0	0	0	0	0	0	0	-1	0	-2.0278	-17.891	16.968	0	0	0	0	0	0	0	0	0	0
764	7.64	0	0	0	0	0	0	0	0	0	0	0	0	0	0	0	0	0	0	0	0	0	0	0	0	0	0	0	0	0	0	0	0	0	10.991	-10.991	19.037	0	0	0	0	0	0	0	0	0	0	0	0	0	-1	0	-2.0278	-17.891	16.968	0	0	0	0	0	0	0	0	0	0
765	7.65	0	0	0	0	0	0	0	0	0	0	0	0	0	-1	0	-2.0372	-17.821	16.895	0	0	0	0	0	0	0	0	0	0	0	0	0	0	0	0	0	0	0	0	0	0	0	0	10.996	-10.996	19.046	0	0	0	0	0	0	0	0	0	0	0	0	0	0	0	0	0	0	2
766	7.66	0	0	0	0	0	0	0	0	0	0	0	0	0	0	0	0	0	0	0	0	0	0	0	0	0	0	0	0	0	0	1	0	0	17.883	2.027	16.961	0	0	0	0	0	0	0	0	0	0	0	0	0	-1	0	-2.0278	-17.891	16.968	0	0	0	1	0	0	17.47	2.0148	16.554	0
767	7.67	0	0	0	0	0	0	0	0	0	0	0	0	0	0	0	0	0	0	0	0	0	0	0	0	0	0	0	0	0	0	0	0	0	0	0	0	0	0	0	0	0	0	0	0	0	0	0	0	0	-1	0	-2.0278	-17.891	16.968	0	0	0	0	0	0	0	0	0	2
768	7.68	0	0	0	0	0	0	0	0	0	0	0	0	0	0	0	0	0	0	0	0	0	0	0	0	0	0	0	0	0	0	0	0	0	0	0	0	0	0	0	0	0	0	0	0	0	0	0	0	0	0	0	0	0	0	0	0	0	0	0	0	0	0	0	2
769	7.69	0	0	0	0	0	0	0	0	0	0	0	0	0	0	0	0	0	0	0	0	0	0	0	0	0	0	0	0	0	0	1	0	0	17.883	2.027	16.961	0	0	0	0	0	0	0	0	0	0	0	0	0	-1	0	-2.0278	-17.891	16.968	0	0	0	1	0	0	17.47	2.0148	16.554	2
770	7.7	0	0	0	0	0	0	0	0	0	0	0	0	0	-1	0	-2.0372	-17.821	16.895	0	0	0	0	0	0	0	0	0	0	0	0	0	0	0	0	0	0	0	0	0	0	0	0	0	0	0	0	0	0	0	-1	0	-2.0278	-17.891	16.968	0	0	0	0	0	0	0	0	0	0
771	7.71	0	0	0	0	0	0	0	0	0	0	0	0	0	0	0	0	0	0	0	0	0	0	0	0	0	0	0	0	0	0	0	0	0	10.991	-10.991	19.037	0	0	0	0	0	0	0	0	0	0	0	0	0	0	0	0	0	0	0	0	0	1	0	0	17.47	2.0148	16.554	2
772	7.72	0	0	0	0	0	0	0	0	0	0	0	0	0	0	0	0	0	0	0	0	0	0	0	0	0	0	0	0	0	0	0	0	0	0	0	0	0	0	0	0	0	0	10.996	-10.996	19.046	0	0	0	0	0	0	0	0	0	0	0	0	0	0	0	0	0	0	2
773	7.73	0	0	0	0	0	0	0	0	0	0	0	0	0	0	0	0	0	0	0	0	0	0	0	0	0	0	0	0	0	0	0	0	0	0	0	0	0	0	0	0	0	0	0	0	0	0	0	0	0	-1	0	-2.0278	-17.891	16.968	0	0	0	0	0	0	0	0	0	2
774	7.74	0	0	0	0	0	0	0	0	0	0	0	0	0	0	0	0	0	0	0	0	0	0	0	0	0	0	0	0	0	0	1	0	0	17.761	2.1499	16.789	0	0	0	0	0	0	0	0	0	0	0	0	0	0	0	0	0	0	0	0	0	1	0	0	17.47	2.0148	16.554	2
775	7.75	0	0	0	0	0	0	0	0	0	0	0	0	0	0	0	0	0	0	0	0	0	0	0	0	0	0	0	0	0	0	0	0	0	0	0	0	0	0	0	0	0	0	0	0	0	0	0	0	0	-1	0	-2.0278	-17.891	16.968	0	0	0	0	0	0	0	0	0	2
776	7.76	0	0	0	0	0	0	0	0	0	0	0	0	0	0	0	0	0	0	0	0	0	0	0	0	0	0	0	0	0	0	0	0	0	0	0	0	0	0	0	0	0	0	0	0	0	0	0	0	0	-1	0	-2.0278	-17.891	16.968	0	0	0	1	0	0	17.47	2.0148	16.554	2
777	7.77	0	0	0	0	0	0	0	0	0	0	0	0	0	0	0	0	0	0	0	0	0	0	0	0	0	0	0	0	0	0	0	0	0	11.258	-11.253	19.496	0	0	0	0	0	0	0	0	0	0	0	0	0	0	0	0	0	0	0	0	0	0	0	0	0	0	0	2
778	7.78	0	0	0	0	0	0	0	0	0	0	0	0	0	0	0	0	0	0	0	0	0	0	0	0	0	0	0	0	0	0	1	0	0	17.883	2.027	16.961	0	0	0	0	0	0	0	0	0	0	0	0	0	0	0	0	0	0	0	0	0	0	0	0	0	0	0	2
779	7.79	0	0	0	0	0	0	0	0	0	0	0	0	0	0	0	0	0	0	0	0	0	0	0	0	0	0	0	0	0	0	0	0	0	0	0	0	0	0	0	0	0	0	0	0	0	0	0	0	0	-1	0	-2.0278	-17.891	16.968	0	0	0	0	0	0	0	0	0	0
780	7.8	0	0	0	0	0	0	0	0	0	0	0	0	0	0	0	0	0	0	0	0	0	0	0	0	0	0	0	0	0	0	0	0	0	0	0	0	0	0	0	0	0	0	10.996	-10.996	19.046	0	0	0	0	0	0	0	0	0	0	0	0	0	0	0	0	0	0	2
781	7.81	0	0	0	0	0	0	0	0	0	0	0	0	0	0	0	0	0	0	0	0	0	0	0	0	10.989	-10.989	19.033	0	0	0	1	0	0	17.883	2.027	16.961	0	0	0	0	0	0	0	0	0	0	0	0	0	-1	0	-2.0278	-17.891	16.968	0	0	0	1	0	0	17.47	2.0148	16.554	2
782	7.82	0	0	0	0	0	0	0	0	0	0	0	0	0	0	0	0	0	0	0	0	0	0	0	0	0	0	0	0	0	0	0	0	0	0	0	0	0	0	0	0	0	0	10.996	-10.996	19.046	0	0	0	0	-1	0	-2.0278	-17.891	16.968	0	0	0	0	0	0	0	0	0	0
783	7.83	0	0	0	0	0	0	0	0	0	0	0	0	0	0	0	0	0	0	0	0	0	0	0	0	0	0	0	0	0	0	1	0	0	17.883	2.027	16.961	0	0	0	0	0	0	10.996	-10.996	19.046	0	0	0	0	0	0	0	0	0	0	0	0	0	0	0	0	0	0	2
784	7.84	0	0	0	0	0	0	0	0	0	0	0	0	0	0	0	0	0	0	0	0	0	0	0	0	10.989	-10.989	19.033	0	0	0	0	0	0	0	0	0	0	0	0	0	0	0	0	0	0	0	0	0	0	0	0	0	0	0	0	0	0	0	0	0	0	0	0	2
785	7.85	0	0	0	0	0	0	0	0	0	0	0	0	0	0	0	0	0	0	0	0	0	0	0	0	0	0	0	0	0	0	0	0	0	0	0	0	0	0	0	0	0	0	10.996	-10.996	19.046	0	0	0	0	0	0	0	0	0	0	0	0	0	0	0	0	0	0	0
786	7.86	0	0	0	0	0	0	0	0	0	0	0	0	0	0	0	0	0	0	0	0	0	0	0	0	0	0	0	0	0	0	0	0	0	10.991	-10.991	19.037	0	0	0	0	0	0	0	0	0	0	0	0	0	0	0	0	0	0	0	0	0	0	0	0	0	0	0	0
787	7.87	0	0	0	0	0	0	0	0	0	0	0	0	0	-1	0	-2.0372	-17.821	16.895	0	0	0	0	0	0	0	0	0	0	0	0	1	0	0	17.883	2.027	16.961	0	0	0	0	0	0	10.996	-10.996	19.046	0	0	0	0	0	0	0	0	0	0	0	0	0	0	0	0	0	0	2
788	7.88	0	0	0	0	0	0	0	0	0	0	0	0	0	0	0	0	0	0	0	0	0	0	0	0	0	0	0	0	0	0	0	0	0	0	0	0	0	0	0	0	0	0	10.996	-10.996	19.046	0	0	0	0	0	0	0	0	0	0	0	0	0	0	0	0	0	0	2
789	7.89	0	0	0	0	0	0	0	0	0	0	0	0	0	0	0	0	0	0	0	0	0	0	0	0	0	0	0	0	0	0	0	0	0	0	0	0	0	0	0	0	0	0	0	0	0	0	0	0	0	-1	0	-2.0278	-17.891	16.968	0	0	0	0	0	0	0	0	0	0
790	7.9	0	0	0	0	0	0	0	0	0	0	0	0	0	-1	0	-2.0372	-17.821	16.895	0	0	0	0	0	0	0	0	0	0	0	0	1	0	0	17.883	2.027	16.961	0	0	0	0	0	0	0	0	0	0	0	0	0	0	0	0	0	0	0	0	0	0	0	0	0	0	0	2
791	7.91	0	0	0	0	0	0	0	0	0	0	0	0	0	0	0	0	0	0	0	0	0	0	0	0	0	0	0	0	0	0	1	0	0	17.883	2.027	16.961	0	0	0	0	0	0	0	0	0	0	0	0	0	-1	0	-2.0278	-17.891	16.968	0	0	0	0	0	0	0	0	0	0
792	7.92	0	0	0	0	0	0	0	0	0	0	0	0	0	-1	0	-2.0372	-17.821	16.895	0	0	0	0	0	0	0	0	0	0	0	0	0	0	0	0	0	0	0	0	0	0	0	0	0	0	0	0	0	0	0	0	0	0	0	0	0	0	0	1	0	0	17.47	2.0148	16.554	2
793	7.93	0	0	0	0	0	0	0	0	0	0	0	0	0	0	0	0	0	0	0	0	0	0	0	0	0	0	0	0	0	0	1	0	0	17.883	2.027	16.961	0	0	0	0	0	0	10.996	-10.996	19.046	0	0	0	0	0	0	0	0	0	0	0	0	0	0	0	0	0	0	2
794	7.94	0	0	0	0	0	0	0	0	0	0	0	0	0	0	0	0	0	0	0	0	0	0	0	0	0	0	0	0	0	0	1	0	0	17.883	2.027	16.961	0	0	0	0	0	0	0	0	0	0	0	0	0	0	0	0	0	0	0	0	0	1	0	0	17.47	2.0148	16.554	2
795	7.95	0	0	0	0	0	0	10.917	-10.917	18.908	0	0	0	0	0	0	0	0	0	0	0	0	0	0	0	0	0	0	0	0	0	0	0	0	0	0	0	0	0	0	0	0	0	10.996	-10.996	19.046	0	0	0	0	-1	0	-2.0278	-17.891	16.968	0	0	0	0	0	0	0	0	0	2
796	7.96	0	0	0	0	0	0	0	0	0	0	0	0	0	0	0	0	0	0	0	0	0	0	0	0	0	0	0	0	0	0	0	0	0	0	0	0	0	0	0	0	0	0	0	0	0	0	0	0	0	-1	0	-2.0278	-17.891	16.968	0	0	0	1	0	0	17.47	2.0148	16.554	0
797	7.97	0	0	0	0	0	0	10.917	-10.917	18.908	0	0	0	0	0	0	0	0	0	0	0	0	0	0	0	0	0	0	0	0	0	0	0	0	0	0	0	0	0	0	0	0	0	10.996	-10.996	19.046	0	0	0	1	-1	0	7.5503	-27.469	31.921	0	0	0	0	0	0	0	0	0	2
798	7.98	0	0	0	0	0	0	0	0	0	0	0	0	0	0	0	0	0	0	0	0	0	0	0	0	0	0	0	0	0	0	1	0	0	17.883	2.027	16.961	0	0	0	0	0	0	0	0	0	0	0	0	0	-1	0	-2.0278	-17.891	16.968	0	0	0	1	0	0	17.47	2.0148	16.554	0
799	7.99	0	0	0	0	0	0	10.917	-10.917	18.908	0	0	0	0	0	0	0	0	0	0	0	0	0	0	0	0	0	0	0	0	0	0	0	0	0	0	0	0	0	0	0	0	0	0	0	0	0	0	0	1	-1	0	7.5503	-27.469	31.921	0	0	0	1	0	0	17.47	2.0148	16.554	0
800	8	0	0	0	0	0	0	0	0	0	0	0	0	0	0	0	0	0	0	0	0	0	0	0	0	0	0	0	0	0	0	0	0	0	0	0	0	0	0	0	0	0	0	10.996	-10.996	19.046	0	0	0	0	0	0	0	0	0	0	0	0	0	0	0	0	0	0	0
801	8.01	0	0	0	0	0	0	0	0	0	0	0	0	0	0	0	0	0	0	0	0	0	0	0	0	0	0	0	0	0	0	0	0	0	0	0	0	0	0	0	0	0	0	0	0	0	0	0	0	0	-1	0	-2.0278	-17.891	16.968	0	0	0	0	0	0	0	0	0	-2
802	8.02	0	0	0	0	0	0	0	0	0	0	0	0	0	0	0	0	0	0	0	0	0	0	0	0	0	0	0	0	0	0	0	0	0	0	0	0	0	0	0	0	0	0	0	0	0	0	0	0	0	0	0	0	0	0	0	0	0	0	0	0	0	0	0	0
803	8.03	0	0	0	0	0	0	0	0	0	0	0	0	0	-1	0	-2.0372	-17.821	16.895	0	0	0	0	0	0	10.989	-10.989	19.033	0	0	0	0	0	0	0	0	0	0	0	0	0	0	0	0	0	0	0	0	0	0	0	0	0	0	0	0	0	0	0	0	0	0	0	0	0
804	8.04	0	0	0	0	0	0	0	0	0	0	0	0	0	0	0	0	0	0	0	0	0	0	0	0	0	0	0	0	0	0	1	0	0	17.883	2.027	16.961	0	0	0	0	0	0	0	0	0	0	0	0	1	-1	0	7.5503	-27.469	31.921	0	0	0	0	0	0	0	0	0	2
805	8.05	0	0	0	0	0	0	0	0	0	0	0	0	0	0	0	0	0	0	0	0	0	0	-1	0	-2.0266	-17.88	16.957	0	0	0	0	0	0	0	0	0	0	0	0	0	0	0	10.996	-10.996	19.046	0	0	0	0	0	0	0	0	0	0	0	0	0	0	0	0	0	0	2
806	8.06	0	0	0	0	0	0	0	0	0	0	0	0	0	0	0	0	0	0	0	0	0	0	0	0	0	0	0	0	0	0	0	0	0	0	0	0	0	0	0	0	0	0	0	0	0	0	0	0	0	-1	0	-2.0278	-17.891	16.968	0	0	0	0	0	0	0	0	0	0
807	8.07	0	0	0	0	0	0	0	0	0	0	0	0	0	0	0	0	0	0	0	0	0	0	0	0	0	0	0	0	0	0	1	0	0	17.883	2.027	16.961	0	0	0	0	0	0	0	0	0	0	0	0	0	-1	0	-2.0278	-17.891	16.968	0	0	0	0	0	0	0	0	0	2
808	8.08	0	0	0	0	0	0	0	0	0	0	0	0	0	0	0	0	0	0	0	0	0	0	0	0	0	0	0	0	0	0	0	0	0	0	0	0	0	0	0	0	0	0	0	0	0	0	0	0	0	0	0	0	0	0	0	0	0	0	0	0	0	0	0	0
809	8.09	0	0	0	0	0	0	0	0	0	0	0	0	0	0	0	0	0	0	0	0	0	0	0	0	0	0	0	0	0	0	0	0	0	0	0	0	0	0	0	0	0	0	0	0	0	0	0	0	0	-1	0	-2.0278	-17.891	16.968	0	0	0	0	0	0	0	0	0	2
810	8.1	0	0	0	0	0	0	0	0	0	0	0	0	0	0	0	0	0	0	0	0	0	0	0	0	0	0	0	0	0	0	0	0	0	0	0	0	0	0	0	0	0	0	0	0	0	0	0	0	0	0	0	0	0	0	0	0	0	0	0	0	0	0	0	0
811	8.11	0	0	0	0	0	0	0	0	0	0	0	0	0	0	0	0	0	0	0	0	0	0	0	0	0	0	0	0	0	0	0	0	0	0	0	0	0	0	0	0	0	0	0	0	0	0	0	0	0	0	0	0	0	0	0	0	0	1	0	0	17.47	2.0148	16.554	2
812	8.12	0	0	0	0	0	0	0	0	0	0	0	0	0	0	0	0	0	0	0	0	0	0	0	0	0	0	0	0	0	0	0	0	0	0	0	0	0	0	0	0	0	0	0	0	0	0	0	0	0	-1	0	-2.0278	-17.891	16.968	0	0	0	0	0	0	0	0	0	0
813	8.13	0	0	0	0	0	0	0	0	0	0	0	0	0	0	0	0	0	0	0	0	0	0	0	0	0	0	0	0	0	0	0	0	0	0	0	0	0	0	0	0	0	0	0	0	0	0	0	0	0	0	0	10.994	-10.994	19.042	0	0	0	0	0	0	0	0	0	2
814	8.14	0	0	0	0	0	0	0	0	0	0	0	0	0	0	0	0	0	0	0	0	0	0	0	0	0	0	0	0	0	0	1	0	0	17.883	2.027	16.961	0	0	0	0	0	0	0	0	0	0	0	0	0	0	0	0	0	0	0	0	0	0	0	0	0	0	0	0
815	8.15	0	0	0	0	0	0	0	0	0	0	0	0	0	-1	0	-2.0372	-17.821	16.895	0	0	0	0	0	0	0	0	0	0	0	0	0	0	0	0	0	0	0	0	0	0	0	0	10.996	-10.996	19.046	0	0	0	0	0	0	0	0	0	0	0	0	0	0	0	0	0	0	2
816	8.16	0	0	0	0	0	0	0	0	0	0	0	0	0	0	0	0	0	0	0	0	0	0	0	0	0	0	0	0	0	0	1	0	0	17.883	2.027	16.961	0	0	0	0	0	0	0	0	0	0	0	0	0	0	0	0	0	0	0	0	0	1	0	0	17.47	2.0148	16.554	0
817	8.17	0	0	0	0	0	0	0	0	0	0	0	0	0	0	0	0	0	0	0	0	0	0	0	0	0	0	0	0	0	0	0	0	0	0	0	0	0	0	0	0	0	0	0	0	0	0	0	0	0	0	0	0	0	0	0	0	0	0	0	0	0	0	0	0
818	8.18	0	0	0	0	0	0	0	0	0	0	0	0	0	0	0	0	0	0	0	0	0	0	0	0	0	0	0	0	0	0	1	0	0	17.761	2.1499	16.789	0	0	0	0	0	0	0	0	0	0	0	0	0	-1	0	-2.0278	-17.891	16.968	0	0	0	0	0	0	0	0	0	2
819	8.19	0	0	0	0	0	0	0	0	0	0	0	0	0	0	0	0	0	0	0	0	0	0	0	0	0	0	0	0	0	0	0	0	0	0	0	0	0	0	0	0	0	0	0	0	0	0	0	0	0	0	0	0	0	0	0	0	0	0	0	0	0	0	0	0
820	8.2	0	0	0	0	0	0	0	0	0	0	0	0	0	0	0	0	0	0	0	0	0	0	0	0	0	0	0	0	0	0	0	0	0	0	0	0	0	0	0	0	0	0	0	0	0	0	0	0	0	0	0	0	0	0	0	0	0	0	0	0	0	0	0	0
821	8.21	0	0	0	0	0	0	0	0	0	0	0	0	0	0	0	0	0	0	0	0	0	0	0	0	0	0	0	0	0	0	1	0	0	17.761	2.1499	16.789	0	0	0	0	0	0	0	0	0	0	0	0	0	-1	0	-2.0278	-17.891	16.968	0	0	0	1	0	0	17.47	2.0148	16.554	2
822	8.22	0	0	0	0	0	0	0	0	0	0	0	0	0	0	0	0	0	0	0	0	0	0	0	0	0	0	0	0	0	0	0	0	0	0	0	0	0	0	0	0	0	0	0	0	0	0	0	0	0	0	0	0	0	0	0	0	0	0	0	0	0	0	0	2
823	8.23	0	0	0	0	-1	0	-2.0364	-17.814	16.888	0	0	0	0	0	0	0	0	0	0	0	0	0	0	0	0	0	0	0	0	0	0	0	0	0	0	0	0	0	0	0	0	0	0	0	0	0	0	0	0	0	0	0	0	0	0	0	0	0	0	0	0	0	0	2
824	8.24	0	0	0	0	0	0	0	0	0	0	0	0	0	0	0	0	0	0	0	0	0	0	0	0	0	0	0	0	0	0	0	0	0	0	0	0	0	0	0	0	0	0	0	0	0	0	0	0	0	-1	0	-2.0278	-17.891	16.968	0	0	0	0	0	0	0	0	0	2
825	8.25	0	0	0	0	0	0	0	0	0	0	0	0	0	-1	0	-2.0372	-17.821	16.895	0	0	0	0	0	0	0	0	0	0	0	0	0	0	0	0	0	0	0	0	0	0	0	0	10.996	-10.996	19.046	0	0	0	0	-1	0	-2.0278	-17.891	16.968	0	0	0	0	0	0	0	0	0	2
826	8.26	0	0	0	0	0	0	0	0	0	0	0	0	0	0	0	0	0	0	0	0	0	0	0	0	0	0	0	0	0	0	0	0	0	10.991	-10.991	19.037	0	0	0	0	0	0	0	0	0	0	0	0	0	-1	0	-2.0278	-17.891	16.968	0	0	0	0	0	0	0	0	0	0
827	8.27	0	0	0	0	0	0	0	0	0	0	0	0	0	0	0	0	0	0	0	0	0	0	0	0	0	0	0	0	0	0	0	0	0	0	0	0	0	0	0	0	0	0	10.996	-10.996	19.046	0	0	0	0	-1	0	-2.0278	-17.891	16.968	0	0	0	0	0	0	0	0	0	2
828	8.28	0	0	0	0	0	0	0	0	0	0	0	0	0	0	0	0	0	0	0	0	0	0	0	0	0	0	0	0	0	0	0	0	0	0	0	0	0	0	0	0	0	0	0	0	0	0	0	0	0	0	0	0	0	0	0	0	0	1	0	0	17.471	2.0135	16.556	0
829	8.29	0	0	0	0	0	0	0	0	0	0	0	0	0	0	0	0	0	0	0	0	0	0	0	0	0	0	0	0	0	0	1	0	0	17.883	2.027	16.961	0	0	0	0	0	0	0	0	0	0	0	0	0	-1	0	-2.0278	-17.891	16.968	0	0	0	0	0	0	0	0	0	2
830	8.3	0	0	0	0	0	0	0	0	0	0	0	0	0	0	0	0	0	0	0	0	0	0	0	0	0	0	0	0	0	0	0	0	0	0	0	0	0	0	0	0	0	0	0	0	0	0	0	0	0	-1	0	-2.0278	-17.891	16.968	0	0	0	0	0	0	0	0	0	2
831	8.31	0	0	0	0	0	0	10.917	-10.917	18.908	0	0	0	0	0	0	0	0	0	0	0	0	0	0	0	10.989	-10.989	19.033	0	0	0	0	0	0	0	0	0	0	0	0	0	0	0	0	0	0	0	0	0	0	-1	0	-2.0278	-17.891	16.968	0	0	0	0	0	0	0	0	0	2
832	8.32	0	0	0	0	0	0	0	0	0	0	0	0	0	0	0	0	0	0	0	0	0	0	0	0	0	0	0	0	0	0	0	-1	0	-2.0265	-17.879	16.957	0	0	0	0	0	0	10.996	-10.996	19.046	0	0	0	0	-1	0	-2.0278	-17.891	16.968	0	0	0	0	0	0	0	0	0	2
833	8.33	0	0	0	0	0	0	0	0	0	0	0	0	0	0	0	0	0	0	0	0	0	0	0	0	0	0	0	0	0	0	0	0	0	0	0	0	0	0	0	0	0	0	0	0	0	0	0	0	0	0	0	0	0	0	0	0	0	0	0	0	0	0	0	2
834	8.34	0	0	0	0	0	0	0	0	0	0	0	0	0	0	0	0	0	0	0	0	0	0	0	0	0	0	0	0	0	0	1	0	0	17.883	2.027	16.961	0	0	0	0	0	0	0	0	0	0	0	0	0	0	0	10.994	-10.994	19.042	0	0	0	1	0	0	17.47	2.0148	16.554	2
835	8.35	0	0	0	0	0	0	0	0	0	0	0	0	0	0	0	0	0	0	0	0	0	0	0	0	0	0	0	0	0	0	0	0	0	0	0	0	0	0	0	0	0	0	0	0	0	0	0	0	0	-1	0	-2.0278	-17.891	16.968	0	0	0	0	0	0	0	0	0	0
836	8.36	0	0	0	0	0	0	0	0	0	0	0	0	0	0	0	0	0	0	0	0	0	0	0	0	10.989	-10.989	19.033	0	0	0	0	0	0	0	0	0	0	0	0	0	0	0	0	0	0	0	0	0	0	0	0	0	0	0	0	0	0	0	0	0	0	0	0	0
837	8.37	0	0	0	0	0	0	0	0	0	0	0	0	0	0	0	0	0	0	0	0	0	0	0	0	0	0	0	0	0	0	0	0	0	0	0	0	0	0	0	0	0	0	0	0	0	0	0	0	0	-1	0	-2.0278	-17.891	16.968	0	0	0	0	0	0	0	0	0	2
838	8.38	0	0	0	0	0	0	0	0	0	0	0	0	0	0	0	0	0	0	0	0	0	0	0	0	0	0	0	0	0	0	0	0	0	0	0	0	0	0	0	0	0	0	0	0	0	0	0	0	0	0	0	0	0	0	0	0	0	0	0	0	0	0	0	0
839	8.39	0	0	0	0	0	0	0	0	0	0	0	0	0	0	0	0	0	0	0	0	0	0	0	0	0	0	0	0	0	0	1	0	0	17.883	2.027	16.961	0	0	0	0	0	0	0	0	0	0	0	0	0	-1	0	-2.0278	-17.891	16.968	0	0	0	1	0	0	17.47	2.0148	16.554	0
840	8.4	0	0	0	0	0	0	0	0	0	0	0	0	0	0	0	0	0	0	0	0	0	0	0	0	0	0	0	0	0	0	0	0	0	0	0	0	0	0	0	0	0	0	0	0	0	0	0	0	0	-1	0	-2.0278	-17.891	16.968	0	0	0	0	0	0	0	0	0	2
841	8.41	0	0	0	0	0	0	0	0	0	0	0	0	0	0	0	0	0	0	0	0	0	0	0	0	0	0	0	0	0	0	0	0	0	0	0	0	0	0	0	0	-1	0	-2.0279	-17.891	16.969	0	0	0	0	-1	0	-2.0278	-17.891	16.968	0	0	0	1	0	0	17.47	2.0148	16.554	2
842	8.42	0	0	0	0	0	0	0	0	0	0	0	0	0	0	0	0	0	0	0	0	0	0	0	0	0	0	0	0	0	0	0	0	0	0	0	0	0	0	0	0	0	0	10.996	-10.996	19.046	0	0	0	0	0	0	0	0	0	0	0	0	0	0	0	0	0	0	2
843	8.43	0	0	0	0	0	0	0	0	0	0	0	0	0	0	0	0	0	0	0	0	0	0	0	0	0	0	0	0	0	0	0	0	0	0	0	0	0	0	0	0	0	0	0	0	0	0	0	0	0	0	0	0	0	0	0	0	0	1	0	0	17.47	2.0148	16.554	0
844	8.44	0	0	0	0	0	0	0	0	0	0	0	0	0	0	0	0	0	0	0	0	0	0	0	0	0	0	0	0	0	0	0	0	0	0	0	0	0	0	0	0	0	0	0	0	0	0	0	0	0	-1	0	-2.0278	-17.891	16.968	0	0	0	0	0	0	0	0	0	2
845	8.45	0	0	0	0	0	0	0	0	0	0	0	0	0	0	0	0	0	0	0	0	0	0	0	0	0	0	0	0	0	0	0	0	0	0	0	0	0	0	0	0	0	0	10.996	-10.996	19.046	0	0	0	0	-1	0	-2.0278	-17.891	16.968	0	0	0	0	0	0	0	0	0	2
846	8.46	0	0	0	0	0	0	0	0	0	0	0	0	0	0	0	0	0	0	0	0	0	0	0	0	0	0	0	0	0	0	0	0	0	0	0	0	0	0	0	0	0	0	0	0	0	0	0	0	1	-1	0	7.5503	-27.469	31.921	0	0	0	0	0	0	0	0	0	2
847	8.47	0	0	0	0	0	0	0	0	0	0	0	0	0	0	0	0	0	0	0	0	0	0	0	0	0	0	0	0	0	0	1	0	0	17.883	2.027	16.961	0	0	0	0	0	0	10.996	-10.996	19.046	0	0	0	0	0	0	0	0	0	0	0	0	0	0	0	0	0	0	2
848	8.48	0	0	0	0	0	0	0	0	0	0	0	0	0	0	0	0	0	0	0	0	0	0	0	0	0	0	0	0	0	0	0	0	0	0	0	0	0	0	0	0	0	0	0	0	0	0	0	0	0	-1	0	-2.0278	-17.891	16.968	0	0	0	0	0	0	0	0	0	2
849	8.49	0	0	0	0	0	0	0	0	0	0	0	0	0	0	0	0	0	0	0	0	0	0	0	0	0	0	0	0	0	0	0	0	0	0	0	0	0	0	0	0	0	0	0	0	0	0	0	0	0	-1	0	-2.0278	-17.891	16.968	0	0	0	0	0	0	0	0	0	0
850	8.5	0	0	0	0	0	0	0	0	0	0	0	0	0	0	0	0	0	0	0	0	0	0	0	0	0	0	0	0	0	0	0	0	0	0	0	0	0	0	0	0	0	0	0	0	0	0	0	0	1	-1	0	7.5503	-27.469	31.921	0	0	0	0	0	0	0	0	0	2
851	8.51	0	0	0	0	0	0	0	0	0	0	0	0	0	0	0	0	0	0	0	0	0	0	0	0	10.989	-10.989	19.033	0	0	0	1	0	0	17.883	2.027	16.961	0	0	0	0	0	0	0	0	0	0	0	0	0	0	0	0	0	0	0	0	0	0	0	0	0	0	0	2
852	8.52	0	0	0	0	0	0	0	0	0	0	0	0	0	0	0	0	0	0	0	0	0	0	0	0	0	0	0	0	0	0	1	0	0	17.883	2.027	16.961	0	0	0	0	0	0	0	0	0	0	0	0	0	-1	0	-2.0278	-17.891	16.968	0	0	0	0	0	0	0	0	0	2
853	8.53	0	0	0	0	0	0	0	0	0	0	0	0	0	0	0	0	0	0	0	0	0	0	0	0	0	0	0	0	0	0	0	0	0	0	0	0	0	0	0	0	0	0	0	0	0	0	0	0	0	-1	0	-2.0278	-17.891	16.968	0	0	0	0	0	0	0	0	0	0
854	8.54	0	0	0	0	0	0	0	0	0	0	0	0	0	0	0	0	0	0	0	0	0	0	0	0	0	0	0	0	0	0	1	0	0	17.883	2.027	16.961	0	0	0	0	0	0	10.996	-10.996	19.046	0	0	0	0	0	0	0	0	0	0	0	0	0	0	0	0	0	0	2
855	8.55	0	0	0	0	0	0	0	0	0	0	0	0	0	0	0	0	0	0	0	0	0	0	0	0	0	0	0	0	0	0	1	0	0	17.883	2.027	16.961	0	0	0	0	0	0	0	0	0	0	0	0	0	-1	0	-2.0278	-17.891	16.968	0	0	0	0	0	0	0	0	0	0
856	8.56	0	0	0	0	0	0	0	0	0	0	0	0	0	-1	0	-2.0372	-17.821	16.895	0	0	0	0	0	0	0	0	0	0	0	0	0	0	0	0	0	0	0	0	0	0	0	0	10.996	-10.996	19.046	0	0	0	0	0	0	0	0	0	0	0	0	0	0	0	0	0	0	2
857	8.57	0	0	0	0	0	0	0	0	0	0	0	0	0	0	0	0	0	0	0	0	0	0	0	0	0	0	0	0	0	0	0	0	0	0	0	0	0	0	0	0	0	0	10.996	-10.996	19.046	0	0	0	0	-1	0	-2.0278	-17.891	16.968	0	0	0	1	0	0	17.47	2.0148	16.554	2
858	8.58	0	0	0	0	0	0	0	0	0	0	0	0	0	0	0	0	0	0	0	0	0	0	0	0	10.989	-10.989	19.033	0	0	0	1	0	0	17.883	2.027	16.961	0	0	0	0	0	0	10.996	-10.996	19.046	0	0	0	0	0	0	0	0	0	0	0	0	0	0	0	0	0	0	0
859	8.59	0	0	0	0	0	0	0	0	0	0	0	0	0	0	0	0	0	0	0	0	0	0	0	0	0	0	0	0	0	0	0	0	0	0	0	0	0	0	0	0	0	0	0	0	0	0	0	0	0	-1	0	-2.0278	-17.891	16.968	0	0	0	0	0	0	0	0	0	2
860	8.6	0	0	0	0	0	0	10.917	-10.917	18.908	0	0	0	0	0	0	0	0	0	0	0	0	0	0	0	0	0	0	0	0	0	0	-1	0	-2.0265	-17.879	16.957	0	0	0	0	0	0	0	0	0	0	0	0	0	-1	0	-2.0278	-17.891	16.968	0	0	0	0	0	0	0	0	0	2
861	8.61	0	0	0	0	0	0	0	0	0	0	0	0	0	0	0	0	0	0	0	0	0	0	0	0	0	0	0	0	0	0	1	0	0	17.883	2.027	16.961	0	0	0	0	0	0	0	0	0	0	0	0	0	0	0	0	0	0	0	0	0	0	0	0	0	0	0	2
862	8.62	0	0	0	0	0	0	0	0	0	0	0	0	0	0	0	0	0	0	0	0	0	0	0	0	0	0	0	0	0	0	0	0	0	0	0	0	0	0	0	0	0	0	10.996	-10.996	19.046	0	0	0	0	0	0	10.994	-10.994	19.042	0	0	0	0	0	0	0	0	0	2
863	8.63	0	0	0	0	0	0	0	0	0	0	0	0	0	0	0	0	0	0	0	0	0	0	0	0	0	0	0	0	0	0	0	0	0	0	0	0	0	0	0	0	0	0	10.996	-10.996	19.046	0	0	0	0	-1	0	-2.0278	-17.891	16.968	0	0	0	0	0	0	0	0	0	2
864	8.64	0	0	0	0	0	0	0	0	0	0	0	0	0	0	0	0	0	0	0	0	0	0	0	0	0	0	0	0	0	0	1	0	0	17.883	2.027	16.961	0	0	0	0	0	0	0	0	0	0	0	0	1	-1	0	7.5503	-27.469	31.921	0	0	0	0	0	0	0	0	0	2
865	8.65	0	0	0	0	0	0	0	0	0	0	0	0	0	-1	0	-2.0372	-17.821	16.895	0	0	0	0	0	0	0	0	0	0	0	0	0	0	0	0	0	0	0	0	0	0	0	0	0	0	0	0	0	0	0	-1	0	-2.0278	-17.891	16.968	0	0	0	0	0	0	0	0	0	0
866	8.66	0	0	0	0	0	0	0	0	0	0	0	0	0	-1	0	-2.0372	-17.821	16.895	0	0	0	0	0	0	0	0	0	0	0	0	1	-1	0	15.733	-15.728	27.247	0	0	0	0	0	0	0	0	0	0	0	0	0	-1	0	-2.0278	-17.891	16.968	0	0	0	0	0	0	10.93	-10.93	18.931	2
867	8.67	0	0	0	0	0	0	0	0	0	0	0	0	0	0	0	0	0	0	0	0	0	0	0	0	0	0	0	0	0	0	0	0	0	0	0	0	0	0	0	0	0	0	0	0	0	0	0	0	0	0	0	0	0	0	0	0	0	0	0	0	0	0	0	2
868	8.68	0	0	0	0	0	0	0	0	0	0	0	0	0	0	0	0	0	0	0	0	0	0	0	0	0	0	0	0	0	0	0	0	0	0	0	0	0	0	0	0	0	0	10.996	-10.996	19.046	0	0	0	0	-1	0	-2.0278	-17.891	16.968	0	0	0	0	0	0	0	0	0	0
869	8.69	0	0	0	0	0	0	0	0	0	0	0	0	0	0	0	0	0	0	0	0	0	0	0	0	0	0	0	0	0	0	0	0	0	10.991	-10.991	19.037	0	0	0	0	0	0	0	0	0	0	0	0	0	-1	0	-2.0278	-17.891	16.968	0	0	0	0	0	0	0	0	0	0
870	8.7	0	0	0	0	0	0	0	0	0	0	0	0	0	0	0	0	0	0	0	0	0	0	0	0	0	0	0	0	0	0	1	0	0	17.883	2.027	16.961	0	0	0	0	0	0	0	0	0	0	0	0	0	0	0	0	0	0	0	0	0	0	0	0	0	0	0	2
871	8.71	0	0	0	0	0	0	0	0	0	0	0	0	0	-1	0	-2.0372	-17.821	16.895	0	0	0	0	0	0	10.989	-10.989	19.033	0	0	0	0	0	0	0	0	0	0	0	0	0	0	0	0	0	0	0	0	0	0	-1	0	-2.0278	-17.891	16.968	0	0	0	0	0	0	0	0	0	0
872	8.72	0	0	0	0	0	0	0	0	0	0	0	0	0	0	0	0	0	0	0	0	0	0	0	0	0	0	0	0	0	0	0	0	0	0	0	0	0	0	0	0	0	0	0	0	0	0	0	0	0	-1	0	-2.0278	-17.891	16.968	0	0	0	0	0	0	0	0	0	2
873	8.73	0	0	0	0	0	0	0	0	0	0	0	0	0	0	0	0	0	0	0	0	0	0	0	0	10.989	-10.989	19.033	0	0	0	0	0	0	0	0	0	0	0	0	0	0	0	0	0	0	0	0	0	0	-1	0	-2.0278	-17.891	16.968	0	0	0	0	0	0	0	0	0	0
874	8.74	0	0	0	0	0	0	10.917	-10.917	18.908	0	0	0	0	0	0	0	0	0	0	0	0	0	0	0	0	0	0	0	0	0	1	0	0	17.883	2.027	16.961	0	0	0	0	0	0	0	0	0	0	0	0	0	-1	0	-2.0278	-17.891	16.968	0	0	0	0	0	0	0	0	0	2
875	8.75	0	0	0	0	0	0	0	0	0	0	0	0	0	0	0	0	0	0	0	0	0	0	0	0	0	0	0	0	0	0	1	0	0	17.883	2.027	16.961	0	0	0	0	0	0	0	0	0	0	0	0	0	-1	0	-2.0278	-17.891	16.968	0	0	0	0	0	0	0	0	0	2
876	8.76	0	0	0	0	0	0	0	0	0	0	0	0	0	0	0	0	0	0	0	0	0	0	0	0	0	0	0	0	0	0	1	0	0	17.883	2.027	16.961	0	0	0	0	0	0	0	0	0	0	0	0	0	-1	0	-2.0278	-17.891	16.968	0	0	0	1	0	0	17.47	2.0148	16.554	2
877	8.77	0	0	0	0	0	0	0	0	0	0	0	0	0	0	0	0	0	0	0	0	0	0	0	0	0	0	0	0	0	0	0	0	0	0	0	0	0	0	0	0	0	0	0	0	0	0	0	0	0	-1	0	-2.0278	-17.891	16.968	0	0	0	0	0	0	0	0	0	2
878	8.78	0	0	0	0	0	0	0	0	0	0	0	0	0	0	0	0	0	0	0	0	0	0	0	0	0	0	0	0	0	0	1	0	0	17.883	2.027	16.961	0	0	0	0	0	0	0	0	0	0	0	0	0	-1	0	-2.0278	-17.891	16.968	0	0	0	0	0	0	0	0	0	2
879	8.79	0	0	0	0	0	0	0	0	0	0	0	0	0	0	0	0	0	0	0	0	0	0	0	0	0	0	0	0	0	0	1	0	0	17.761	2.1499	16.789	0	0	0	0	0	0	0	0	0	0	0	0	0	-1	0	-2.0278	-17.891	16.968	0	0	0	0	0	0	0	0	0	2
880	8.8	0	0	0	0	0	0	0	0	0	0	0	0	0	0	0	0	0	0	0	0	0	0	0	0	0	0	0	0	0	0	0	0	0	0	0	0	0	0	0	0	0	0	0	0	0	0	0	0	0	-1	0	-2.0278	-17.891	16.968	0	0	0	0	0	0	0	0	0	2
881	8.81	0	0	0	0	0	0	0	0	0	0	0	0	0	0	0	0	0	0	0	0	0	0	0	0	10.989	-10.989	19.033	0	0	0	0	0	0	0	0	0	0	0	0	1	0	0	17.883	2.027	16.961	0	0	0	0	-1	0	-2.0278	-17.891	16.968	0	0	0	0	0	0	10.93	-10.93	18.931	2
882	8.82	0	0	0	0	0	0	0	0	0	0	0	0	0	0	0	0	0	0	0	0	0	0	0	0	0	0	0	0	0	0	0	0	0	10.991	-10.991	19.037	0	0	0	0	0	0	0	0	0	0	0	0	0	-1	0	-2.0278	-17.891	16.968	0	0	0	0	0	0	0	0	0	2
883	8.83	0	0	0	0	0	0	0	0	0	0	0	0	0	0	0	0	0	0	0	0	0	0	0	0	0	0	0	0	0	0	0	0	0	0	0	0	0	0	0	0	0	0	0	0	0	0	0	0	0	-1	0	-2.0278	-17.891	16.968	0	0	0	0	0	0	0	0	0	2
884	8.84	0	0	0	0	0	0	0	0	0	0	0	0	0	0	0	0	0	0	0	0	0	0	0	0	0	0	0	0	0	0	1	0	0	17.883	2.027	16.961	0	0	0	0	0	0	0	0	0	0	0	0	0	0	0	0	0	0	0	0	0	0	0	0	0	0	0	2
885	8.85	0	0	0	0	0	0	0	0	0	0	0	0	0	0	0	0	0	0	0	0	0	0	0	0	0	0	0	0	0	0	0	0	0	0	0	0	0	0	0	0	0	0	10.996	-10.996	19.046	0	0	0	0	0	0	0	0	0	0	0	0	0	0	0	0	0	0	2
886	8.86	0	0	0	0	0	0	0	0	0	0	0	0	0	0	0	0	0	0	0	0	0	0	0	0	10.989	-10.989	19.033	0	0	0	1	0	0	17.883	2.027	16.961	0	0	0	0	0	0	0	0	0	0	0	0	0	0	0	0	0	0	0	0	0	0	0	0	0	0	0	0
887	8.87	0	0	0	0	0	0	0	0	0	0	0	0	0	0	0	0	0	0	0	0	0	0	0	0	0	0	0	0	0	0	0	0	0	0	0	0	0	0	0	0	0	0	0	0	0	0	0	0	0	-1	0	-2.0278	-17.891	16.968	0	0	0	0	0	0	0	0	0	2
888	8.88	0	0	0	0	0	0	0	0	0	0	0	0	0	0	0	0	0	0	0	0	0	0	0	0	0	0	0	0	0	0	0	0	0	11.258	-11.253	19.496	0	0	0	0	0	0	10.996	-10.996	19.046	0	0	0	0	0	0	0	0	0	0	0	0	0	0	0	0	0	0	2
889	8.89	0	0	0	0	0	0	0	0	0	0	0	0	0	0	0	0	0	0	0	0	0	0	0	0	0	0	0	0	0	0	0	0	0	0	0	0	0	0	0	0	0	0	0	0	0	0	0	0	0	-1	0	-2.0278	-17.891	16.968	0	0	0	0	0	0	0	0	0	0
890	8.9	0	0	0	0	0	0	0	0	0	0	0	0	0	0	0	0	0	0	0	0	0	0	0	0	0	0	0	0	0	0	0	0	0	0	0	0	0	0	0	0	0	0	10.996	-10.996	19.046	0	0	0	0	0	0	0	0	0	0	0	0	0	0	0	0	0	0	0
891	8.91	0	0	0	0	0	0	0	0	0	0	0	0	0	0	0	0	0	0	0	0	0	0	0	0	10.989	-10.989	19.033	0	0	0	0	0	0	0	0	0	0	0	0	0	0	0	0	0	0	0	0	0	0	-1	0	-2.0278	-17.891	16.968	0	0	0	1	0	0	17.47	2.0148	16.554	0
892	8.92	0	0	0	0	0	0	0	0	0	0	0	0	0	0	0	0	0	0	0	0	0	0	0	0	0	0	0	0	0	0	0	0	0	0	0	0	0	0	0	0	0	0	0	0	0	0	0	0	0	-1	0	-2.0278	-17.891	16.968	0	0	0	0	0	0	0	0	0	2
893	8.93	0	0	0	0	0	0	0	0	0	0	0	0	0	0	0	0	0	0	0	0	0	0	0	0	0	0	0	0	0	0	0	0	0	0	0	0	0	0	0	0	0	0	10.996	-10.996	19.046	0	0	0	0	0	0	0	0	0	0	0	0	1	0	0	17.47	2.0148	16.554	2
894	8.94	0	0	0	0	0	0	0	0	0	0	0	0	0	0	0	0	0	0	0	0	0	0	0	0	0	0	0	0	0	0	1	0	0	17.761	2.1499	16.789	0	0	0	0	0	0	0	0	0	0	0	0	0	0	0	0	0	0	0	0	0	0	0	0	0	0	0	2
895	8.95	0	0	0	0	0	0	0	0	0	0	0	0	0	0	0	0	0	0	0	0	0	0	0	0	0	0	0	0	0	0	0	0	0	0	0	0	0	0	0	0	0	0	10.996	-10.996	19.046	0	0	0	0	0	0	0	0	0	0	0	0	0	0	0	0	0	0	0
896	8.96	0	0	0	0	0	0	0	0	0	0	0	0	0	0	0	0	0	0	0	0	0	0	0	0	0	0	0	0	0	0	0	0	0	0	0	0	0	0	0	0	0	0	0	0	0	0	0	0	0	-1	0	-2.0278	-17.891	16.968	0	0	0	1	0	0	17.47	2.0148	16.554	2
897	8.97	0	0	0	0	0	0	0	0	0	0	0	0	0	0	0	0	0	0	0	0	0	0	0	0	0	0	0	0	0	0	0	0	0	0	0	0	0	0	0	0	0	0	0	0	0	0	0	0	0	-1	0	-2.0278	-17.891	16.968	0	0	0	0	0	0	0	0	0	2
898	8.98	0	0	0	0	-1	0	-2.0364	-17.814	16.888	0	0	0	0	0	0	0	0	0	0	0	0	0	0	0	0	0	0	0	0	0	0	0	0	0	0	0	0	0	0	0	0	0	0	0	0	0	0	0	0	0	0	0	0	0	0	0	0	0	0	0	0	0	0	2
899	8.99	0	0	0	0	0	0	0	0	0	0	0	0	0	0	0	0	0	0	0	0	0	0	0	0	10.989	-10.989	19.033	0	0	0	1	0	0	17.883	2.027	16.961	0	0	0	0	0	0	0	0	0	0	0	0	0	-1	0	-2.0278	-17.891	16.968	0	0	0	1	0	0	17.47	2.0148	16.554	2
900	9	0	0	0	0	0	0	0	0	0	0	0	0	0	0	0	0	0	0	0	0	0	0	0	0	0	0	0	0	0	0	0	0	0	0	0	0	0	0	0	0	0	0	0	0	0	0	0	0	0	0	0	0	0	0	0	0	0	0	0	0	0	0	0	0
901	9.01	0	0	0	0	0	0	0	0	0	0	0	0	0	0	0	0	0	0	0	0	0	0	0	0	10.989	-10.989	19.033	0	0	0	0	0	0	0	0	0	0	0	0	0	0	0	0	0	0	0	0	0	0	0	0	0	0	0	0	0	0	1	0	0	17.47	2.0148	16.554	0
902	9.02	0	0	0	0	0	0	0	0	0	0	0	0	0	0	0	0	0	0	0	0	0	0	0	0	0	0	0	0	0	0	1	0	0	17.761	2.1499	16.789	0	0	0	0	0	0	10.996	-10.996	19.046	0	0	0	0	0	0	0	0	0	0	0	0	0	0	0	0	0	0	2
903	9.03	0	0	0	0	0	0	0	0	0	0	0	0	0	0	0	0	0	0	0	0	0	0	0	0	0	0	0	0	0	0	0	0	0	0	0	0	0	0	0	0	0	0	0	0	0	0	0	0	0	0	0	0	0	0	0	0	0	0	0	0	0	0	0	0
904	9.04	0	0	0	0	0	0	0	0	0	0	0	0	0	0	0	0	0	0	0	0	0	0	0	0	0	0	0	0	0	0	1	0	0	17.883	2.027	16.961	0	0	0	0	0	0	0	0	0	0	0	0	0	-1	0	-2.0278	-17.891	16.968	0	0	0	0	0	0	0	0	0	2
905	9.05	0	0	0	0	0	0	0	0	0	0	0	0	0	0	0	0	0	0	0	0	0	0	0	0	0	0	0	0	0	0	0	0	0	0	0	0	0	0	0	0	0	0	10.996	-10.996	19.046	0	0	0	0	0	0	0	0	0	0	0	0	0	0	0	0	0	0	2
906	9.06	0	0	0	0	0	0	0	0	0	0	0	0	0	0	0	0	0	0	0	0	0	0	0	0	0	0	0	0	0	0	0	-1	0	-2.0265	-17.879	16.957	0	0	0	0	0	0	0	0	0	0	0	0	0	0	0	10.994	-10.994	19.042	0	0	0	0	0	0	0	0	0	2
907	9.07	0	0	0	0	0	0	0	0	0	0	0	0	0	0	0	0	0	0	0	0	0	0	0	0	0	0	0	0	0	0	0	0	0	0	0	0	0	0	0	0	0	0	0	0	0	0	0	0	0	-1	0	-2.0278	-17.891	16.968	0	0	0	0	0	0	0	0	0	2
908	9.08	0	0	0	0	0	0	0	0	0	0	0	0	0	0	0	0	0	0	0	0	0	0	0	0	0	0	0	0	0	0	1	0	0	17.883	2.027	16.961	0	0	0	0	0	0	0	0	0	0	0	0	0	0	0	0	0	0	0	0	0	0	0	0	0	0	0	2
909	9.09	0	0	0	0	0	0	0	0	0	0	0	0	0	0	0	0	0	0	0	0	0	0	0	0	0	0	0	0	0	0	1	0	0	17.883	2.027	16.961	0	0	0	0	0	0	0	0	0	0	0	0	0	0	0	0	0	0	0	0	0	1	0	0	17.47	2.0148	16.554	2
910	9.1	0	0	0	0	0	0	0	0	0	0	0	0	0	0	0	0	0	0	0	0	0	0	0	0	10.989	-10.989	19.033	0	0	0	0	0	0	0	0	0	0	0	0	0	0	0	10.996	-10.996	19.046	0	0	0	0	0	0	0	0	0	0	0	0	1	0	0	17.47	2.0148	16.554	2
911	9.11	0	0	0	0	0	0	0	0	0	0	0	0	0	0	0	0	0	0	0	0	0	0	0	0	0	0	0	0	0	0	1	-1	0	7.5496	-27.455	31.907	0	0	0	0	0	0	0	0	0	0	0	0	0	-1	0	-2.0278	-17.891	16.968	0	0	0	0	0	0	0	0	0	2
912	9.12	0	0	0	0	0	0	0	0	0	0	0	0	0	0	0	0	0	0	0	0	0	0	0	0	0	0	0	0	0	0	0	0	0	0	0	0	0	0	0	0	0	0	0	0	0	0	0	0	0	0	0	0	0	0	0	0	0	1	0	0	17.47	2.0148	16.554	2
913	9.13	0	0	0	0	0	0	0	0	0	0	0	0	0	0	0	0	0	0	0	0	0	0	0	0	0	0	0	0	0	0	0	-1	0	-2.0265	-17.879	16.957	0	0	0	0	0	0	10.996	-10.996	19.046	0	0	0	0	0	0	0	0	0	0	0	0	0	0	0	0	0	0	2
914	9.14	0	0	0	0	0	0	0	0	0	0	0	0	0	0	0	0	0	0	0	0	0	0	0	0	10.989	-10.989	19.033	0	0	0	1	0	0	17.761	2.1499	16.789	0	0	0	0	0	0	0	0	0	0	0	0	0	-1	0	-2.0278	-17.891	16.968	0	0	0	0	0	0	0	0	0	0
915	9.15	0	0	0	0	0	0	0	0	0	0	0	0	0	0	0	0	0	0	0	0	0	0	0	0	0	0	0	0	0	0	1	0	0	17.883	2.027	16.961	0	0	0	0	0	0	0	0	0	0	0	0	0	0	0	0	0	0	0	0	0	0	0	0	0	0	0	2
916	9.16	0	0	0	0	0	0	0	0	0	0	0	0	0	0	0	0	0	0	0	0	0	0	0	0	0	0	0	0	0	0	0	0	0	0	0	0	0	0	0	0	0	0	0	0	0	0	0	0	0	0	0	0	0	0	0	0	0	1	0	0	17.47	2.0148	16.554	2
917	9.17	0	0	0	0	0	0	0	0	0	0	0	0	0	0	0	0	0	0	0	0	0	0	0	0	0	0	0	0	0	0	0	0	0	0	0	0	0	0	0	0	0	0	0	0	0	0	0	0	0	0	0	0	0	0	0	0	0	0	0	0	0	0	0	2
918	9.18	0	0	0	0	0	0	0	0	0	0	0	0	0	0	0	0	0	0	0	0	0	0	0	0	0	0	0	0	0	0	0	0	0	0	0	0	0	0	0	0	0	0	0	0	0	0	0	0	0	-1	0	-2.0278	-17.891	16.968	0	0	0	1	0	0	17.47	2.0148	16.554	2
919	9.19	0	0	0	0	0	0	0	0	0	0	0	0	0	0	0	0	0	0	0	0	0	0	0	0	0	0	0	0	0	0	0	0	0	0	0	0	0	0	0	0	0	0	0	0	0	0	0	0	0	-1	0	-2.0278	-17.891	16.968	0	0	0	1	0	0	17.47	2.0148	16.554	2
920	9.2	0	0	0	0	0	0	0	0	0	0	0	0	0	0	0	0	0	0	0	0	0	0	0	0	0	0	0	0	0	0	0	0	0	0	0	0	0	0	0	0	0	0	0	0	0	0	0	0	0	0	0	0	0	0	0	0	0	0	0	0	0	0	0	2
921	9.21	0	0	0	0	0	0	0	0	0	0	0	0	0	0	0	0	0	0	0	0	0	0	0	0	0	0	0	0	0	0	0	0	0	0	0	0	0	0	0	0	0	0	0	0	0	0	0	0	0	-1	0	-2.0278	-17.891	16.968	0	0	0	1	0	0	17.47	2.0148	16.554	2
922	9.22	0	0	0	0	0	0	0	0	0	0	0	0	0	0	0	0	0	0	0	0	0	0	0	0	0	0	0	0	0	0	0	0	0	0	0	0	0	0	0	0	0	0	0	0	0	0	0	0	0	0	0	0	0	0	0	0	0	0	0	0	0	0	0	2
923	9.23	0	0	0	0	-1	0	-2.0364	-17.814	16.888	0	0	0	0	0	0	0	0	0	0	0	0	0	0	0	10.989	-10.989	19.033	0	0	0	1	0	0	17.883	2.027	16.961	0	0	0	0	0	0	0	0	0	0	0	0	0	0	0	0	0	0	0	0	0	0	0	0	0	0	0	2
924	9.24	0	0	0	0	0	0	0	0	0	0	0	0	0	0	0	0	0	0	0	0	0	0	0	0	0	0	0	0	0	0	0	0	0	0	0	0	0	0	0	0	0	0	0	0	0	0	0	0	0	0	0	0	0	0	0	0	0	1	0	0	17.47	2.0148	16.554	2
925	9.25	0	0	0	0	0	0	0	0	0	0	0	0	0	0	0	0	0	0	0	0	0	0	0	0	0	0	0	0	0	0	0	0	0	10.991	-10.991	19.037	0	0	0	0	0	0	0	0	0	0	0	0	0	0	0	0	0	0	0	0	0	0	0	0	0	0	0	2
926	9.26	0	0	0	0	0	0	0	0	0	0	0	0	0	0	0	0	0	0	0	0	0	0	0	0	0	0	0	0	0	0	0	0	0	0	0	0	0	0	0	0	0	0	0	0	0	0	0	0	0	-1	0	-2.0278	-17.891	16.968	0	0	0	1	0	0	17.47	2.0148	16.554	0
927	9.27	0	0	0	0	0	0	0	0	0	0	0	0	0	0	0	0	0	0	0	0	0	0	0	0	0	0	0	0	0	0	0	0	0	0	0	0	0	0	0	0	0	0	0	0	0	0	0	0	0	-1	0	-2.0278	-17.891	16.968	0	0	0	0	0	0	0	0	0	2
928	9.28	0	0	0	0	0	0	0	0	0	0	0	0	0	0	0	0	0	0	0	0	0	0	0	0	0	0	0	0	0	0	0	0	0	0	0	0	0	0	0	0	0	0	0	0	0	0	0	0	0	-1	0	-2.0278	-17.891	16.968	0	0	0	0	0	0	0	0	0	2
929	9.29	0	0	0	0	0	0	0	0	0	0	0	0	0	0	0	0	0	0	0	0	0	0	0	0	0	0	0	0	0	0	1	0	0	17.883	2.027	16.961	0	0	0	0	0	0	0	0	0	0	0	0	0	0	0	0	0	0	0	0	0	0	0	0	0	0	0	0
930	9.3	0	0	0	0	0	0	0	0	0	0	0	0	0	0	0	0	0	0	0	0	0	0	0	0	10.989	-10.989	19.033	0	0	0	0	0	0	0	0	0	0	0	0	0	0	0	10.996	-10.996	19.046	0	0	0	0	-1	0	-2.0278	-17.891	16.968	0	0	0	0	0	0	0	0	0	2
931	9.31	0	0	0	0	0	0	0	0	0	0	0	0	0	0	0	0	0	0	0	0	0	0	0	0	0	0	0	0	0	0	0	0	0	0	0	0	0	0	0	0	0	0	0	0	0	0	0	0	0	-1	0	-2.0278	-17.891	16.968	0	0	0	1	0	0	17.47	2.0148	16.554	0
932	9.32	0	0	0	0	0	0	0	0	0	0	0	0	0	0	0	0	0	0	0	0	0	0	0	0	0	0	0	0	0	0	1	0	0	17.883	2.027	16.961	0	0	0	0	0	0	0	0	0	0	0	0	0	0	0	0	0	0	0	0	0	0	0	0	0	0	0	2
933	9.33	0	0	0	0	0	0	10.917	-10.917	18.908	0	0	0	0	0	0	0	0	0	0	0	0	0	0	0	0	0	0	0	0	0	1	0	0	17.883	2.027	16.961	0	0	0	0	0	0	0	0	0	0	0	0	0	0	0	0	0	0	0	0	0	0	0	0	0	0	0	0
934	9.34	0	0	0	0	0	0	0	0	0	0	0	0	0	0	0	0	0	0	0	0	0	0	0	0	0	0	0	0	0	0	1	0	0	17.883	2.027	16.961	0	0	0	0	0	0	0	0	0	0	0	0	0	0	0	0	0	0	0	0	0	0	0	0	0	0	0	0
935	9.35	0	0	0	0	0	0	0	0	0	0	0	0	0	0	0	0	0	0	0	0	0	0	0	0	0	0	0	0	0	0	0	0	0	0	0	0	0	0	0	0	0	0	0	0	0	0	0	0	0	0	0	0	0	0	0	0	0	0	0	0	0	0	0	2
936	9.36	0	0	0	0	0	0	0	0	0	0	0	0	0	0	0	0	0	0	0	0	0	0	0	0	0	0	0	0	0	0	0	0	0	0	0	0	0	0	0	0	0	0	0	0	0	0	0	0	0	-1	0	-2.0278	-17.891	16.968	0	0	0	0	0	0	0	0	0	2
937	9.37	0	0	0	0	0	0	0	0	0	0	0	0	0	0	0	0	0	0	0	0	0	0	0	0	0	0	0	0	0	0	0	0	0	0	0	0	0	0	0	0	-1	0	-2.1508	-17.769	16.797	0	0	0	0	-1	0	-2.0278	-17.891	16.968	0	0	0	0	0	0	0	0	0	2
938	9.38	0	0	0	0	0	0	0	0	0	0	0	0	0	0	0	0	0	0	0	0	0	0	0	0	0	0	0	0	0	0	0	0	0	0	0	0	0	0	0	0	0	0	0	0	0	0	0	0	0	0	0	0	0	0	0	0	0	0	0	0	0	0	0	2
939	9.39	0	0	0	0	0	0	0	0	0	0	0	0	0	0	0	0	0	0	0	0	0	0	0	0	10.989	-10.989	19.033	0	0	0	1	0	0	17.761	2.1499	16.789	0	0	0	0	0	0	0	0	0	0	0	0	0	-1	0	-2.0278	-17.891	16.968	0	0	0	0	0	0	0	0	0	2
940	9.4	0	0	0	0	0	0	0	0	0	0	0	0	0	0	0	0	0	0	0	0	0	0	0	0	0	0	0	0	0	0	0	0	0	0	0	0	0	0	0	0	0	0	0	0	0	0	0	0	0	0	0	0	0	0	0	0	0	0	0	0	0	0	0	2
941	9.41	0	0	0	0	0	0	0	0	0	0	0	0	0	0	0	0	0	0	0	0	0	0	0	0	0	0	0	0	0	0	0	0	0	0	0	0	0	0	0	0	0	0	0	0	0	0	0	0	0	0	0	0	0	0	0	0	0	1	0	0	17.47	2.0148	16.554	2
942	9.42	0	0	0	0	0	0	0	0	0	0	0	0	0	0	0	0	0	0	0	0	0	0	0	0	0	0	0	0	0	0	0	-1	0	-2.0265	-17.879	16.957	0	0	0	0	-1	0	-2.0279	-17.891	16.969	0	0	0	0	-1	0	-2.0278	-17.891	16.968	0	0	0	0	0	0	0	0	0	2
943	9.43	0	0	0	0	0	0	0	0	0	0	0	0	0	0	0	0	0	0	0	0	0	0	0	0	10.989	-10.989	19.033	0	0	0	0	0	0	0	0	0	0	0	0	0	0	0	0	0	0	0	0	0	0	-1	0	-2.0278	-17.891	16.968	0	0	0	0	0	0	0	0	0	2
944	9.44	0	0	0	0	0	0	0	0	0	0	0	0	0	0	0	0	0	0	0	0	0	0	0	0	0	0	0	0	0	0	0	0	0	10.991	-10.991	19.037	0	0	0	0	-1	0	-2.0279	-17.891	16.969	0	0	0	0	-1	0	-2.0278	-17.891	16.968	0	0	0	0	0	0	0	0	0	2
945	9.45	0	0	0	0	0	0	0	0	0	0	0	0	0	0	0	0	0	0	0	0	0	0	0	0	0	0	0	0	0	0	0	0	0	0	0	0	0	0	0	0	0	0	0	0	0	0	0	0	0	0	0	0	0	0	0	0	0	0	0	0	0	0	0	0
946	9.46	0	0	0	0	0	0	0	0	0	0	0	0	0	0	0	0	0	0	0	0	0	0	0	0	10.989	-10.989	19.033	0	0	0	1	0	0	17.883	2.027	16.961	0	0	0	0	0	0	0	0	0	0	0	0	0	0	0	0	0	0	0	0	0	0	0	0	0	0	0	2
947	9.47	0	0	0	0	0	0	0	0	0	0	0	0	0	0	0	0	0	0	0	0	0	0	0	0	0	0	0	0	0	0	1	0	0	17.883	2.027	16.961	0	0	0	0	0	0	0	0	0	0	0	0	0	-1	0	-2.0278	-17.891	16.968	0	0	0	0	0	0	0	0	0	2
948	9.48	0	0	0	0	0	0	0	0	0	0	0	0	0	0	0	0	0	0	0	0	0	0	0	0	0	0	0	0	0	0	0	0	0	0	0	0	0	0	0	0	0	0	0	0	0	0	0	0	0	0	0	0	0	0	0	0	0	0	0	0	0	0	0	2
949	9.49	0	0	0	0	0	0	0	0	0	0	0	0	0	0	0	0	0	0	0	0	0	0	0	0	10.989	-10.989	19.033	0	0	0	1	0	0	17.883	2.027	16.961	0	0	0	0	-1	0	-2.0279	-17.891	16.969	0	0	0	0	-1	0	-2.0278	-17.891	16.968	0	0	0	1	0	0	17.47	2.0148	16.554	2
950	9.5	0	0	0	0	0	0	0	0	0	0	0	0	0	0	0	0	0	0	0	0	0	0	0	0	0	0	0	0	0	0	0	0	0	0	0	0	0	0	0	0	0	0	0	0	0	0	0	0	0	-1	0	-2.0278	-17.891	16.968	0	0	0	0	0	0	0	0	0	2
951	9.51	0	0	0	0	0	0	0	0	0	0	0	0	0	0	0	0	0	0	0	0	0	0	0	0	0	0	0	0	0	0	0	0	0	10.991	-10.991	19.037	0	0	0	0	0	0	0	0	0	0	0	0	0	-1	0	-2.0278	-17.891	16.968	0	0	0	1	0	0	17.47	2.0148	16.554	2
952	9.52	0	0	0	0	0	0	0	0	0	0	0	0	0	0	0	0	0	0	0	0	0	0	0	0	0	0	0	0	0	0	0	0	0	0	0	0	0	0	0	0	0	0	0	0	0	0	0	0	0	0	0	0	0	0	0	0	0	0	0	0	0	0	0	2
953	9.53	0	0	0	0	0	0	0	0	0	0	0	0	0	0	0	0	0	0	0	0	0	0	0	0	0	0	0	0	0	0	0	0	0	0	0	0	0	0	0	0	0	0	0	0	0	0	0	0	0	0	0	0	0	0	0	0	0	0	0	0	0	0	0	2
954	9.54	0	0	0	0	0	0	0	0	0	0	0	0	0	0	0	0	0	0	0	0	0	0	0	0	0	0	0	0	0	0	1	0	0	17.883	2.027	16.961	0	0	0	0	0	0	0	0	0	0	0	0	0	-1	0	-2.0278	-17.891	16.968	0	0	0	0	0	0	0	0	0	0
955	9.55	0	0	0	0	0	0	0	0	0	0	0	0	0	-1	0	-2.0366	-17.816	16.89	0	0	0	0	0	0	0	0	0	0	0	0	0	0	0	0	0	0	0	0	0	0	0	0	0	0	0	0	0	0	0	0	0	0	0	0	0	0	0	0	0	0	0	0	0	2
956	9.56	0	0	0	0	0	0	0	0	0	0	0	0	0	0	0	0	0	0	0	0	0	0	0	0	0	0	0	0	0	0	0	0	0	0	0	0	0	0	0	0	0	0	0	0	0	0	0	0	0	-1	0	-2.0278	-17.891	16.968	0	0	0	0	0	0	10.93	-10.93	18.931	2
957	9.57	0	0	0	0	0	0	0	0	0	0	0	0	0	0	0	0	0	0	0	0	0	0	0	0	0	0	0	0	0	0	1	0	0	17.883	2.027	16.961	0	0	0	0	0	0	0	0	0	0	0	0	0	0	0	0	0	0	0	0	0	0	0	0	0	0	0	2
958	9.58	0	0	0	0	0	0	0	0	0	0	0	0	0	0	0	0	0	0	0	0	0	0	0	0	0	0	0	0	0	0	0	0	0	0	0	0	0	0	0	0	0	0	0	0	0	0	0	0	0	0	0	0	0	0	0	0	0	0	0	0	0	0	0	2
959	9.59	0	0	0	0	0	0	0	0	0	0	0	0	0	0	0	0	0	0	0	0	0	0	0	0	0	0	0	0	0	0	1	0	0	17.883	2.027	16.961	0	0	0	0	0	0	0	0	0	0	0	0	0	0	0	0	0	0	0	0	0	0	0	0	0	0	0	0
960	9.6	0	0	0	0	0	0	0	0	0	0	0	0	0	0	0	0	0	0	0	0	0	0	0	0	10.989	-10.989	19.033	0	0	0	0	0	0	0	0	0	0	0	0	0	0	0	0	0	0	0	0	0	0	-1	0	-2.0278	-17.891	16.968	0	0	0	0	0	0	0	0	0	2
961	9.61	0	0	0	0	0	0	0	0	0	0	0	0	0	0	0	0	0	0	0	0	0	0	0	0	0	0	0	0	0	0	1	0	0	17.883	2.027	16.961	0	0	0	0	0	0	0	0	0	0	0	0	0	0	0	0	0	0	0	0	0	1	0	0	17.47	2.0148	16.554	0
962	9.62	0	0	0	0	0	0	0	0	0	0	0	0	0	0	0	0	0	0	0	0	0	0	0	0	0	0	0	0	0	0	0	0	0	0	0	0	0	0	0	0	0	0	0	0	0	0	0	0	0	-1	0	-2.0278	-17.891	16.968	0	0	0	1	0	0	17.47	2.0148	16.554	2
963	9.63	0	0	0	0	0	0	0	0	0	0	0	0	0	0	0	0	0	0	0	0	0	0	0	0	0	0	0	0	0	0	0	0	0	0	0	0	0	0	0	0	0	0	0	0	0	0	0	0	0	-1	0	-2.0278	-17.891	16.968	0	0	0	0	0	0	0	0	0	2
964	9.64	0	0	0	0	0	0	0	0	0	0	0	0	0	0	0	0	0	0	0	0	0	0	0	0	0	0	0	0	0	0	1	0	0	17.883	2.027	16.961	0	0	0	0	0	0	0	0	0	0	0	0	0	-1	0	-2.0278	-17.891	16.968	0	0	0	0	0	0	0	0	0	2
965	9.65	0	0	0	0	0	0	0	0	0	0	0	0	0	0	0	0	0	0	0	0	0	0	0	0	0	0	0	0	0	0	0	-1	0	-2.0265	-17.879	16.957	0	0	0	0	0	0	0	0	0	0	0	0	0	-1	0	-2.0278	-17.891	16.968	0	0	0	0	0	0	0	0	0	2
966	9.66	0	0	0	0	0	0	0	0	0	0	0	0	0	0	0	0	0	0	0	0	0	0	0	0	0	0	0	0	0	0	0	0	0	0	0	0	0	0	0	0	0	0	0	0	0	0	0	0	0	0	0	0	0	0	0	0	0	1	0	0	17.47	2.0148	16.554	0
967	9.67	0	0	0	0	0	0	0	0	0	0	0	0	0	0	0	0	0	0	0	0	0	0	0	0	0	0	0	0	0	0	0	0	0	10.991	-10.991	19.037	0	0	0	0	0	0	0	0	0	0	0	0	0	-1	0	-2.0278	-17.891	16.968	0	0	0	0	0	0	0	0	0	0
968	9.68	0	0	0	0	0	0	0	0	0	0	0	0	0	0	0	0	0	0	0	0	0	0	0	0	0	0	0	0	0	0	0	0	0	0	0	0	0	0	0	0	0	0	0	0	0	0	0	0	0	-1	0	-2.0278	-17.891	16.968	0	0	0	0	0	0	0	0	0	2
969	9.69	0	0	0	0	0	0	0	0	0	0	0	0	0	-1	0	-2.0372	-17.821	16.895	0	0	0	0	0	0	0	0	0	0	0	0	0	0	0	0	0	0	0	0	0	0	0	0	0	0	0	0	0	0	0	0	0	0	0	0	0	0	0	1	0	0	17.47	2.0148	16.554	2
970	9.7	0	0	0	0	0	0	0	0	0	0	0	0	0	0	0	0	0	0	0	0	0	0	0	0	0	0	0	0	0	0	0	0	0	0	0	0	0	0	0	0	0	0	0	0	0	0	0	0	0	-1	0	-2.0278	-17.891	16.968	0	0	0	0	0	0	0	0	0	2
971	9.71	0	0	0	0	0	0	10.917	-10.917	18.908	0	0	0	0	0	0	0	0	0	0	0	0	0	0	0	0	0	0	0	0	0	1	0	0	17.883	2.027	16.961	0	0	0	0	0	0	0	0	0	0	0	0	0	-1	0	-2.0278	-17.891	16.968	0	0	0	0	0	0	0	0	0	2
972	9.72	0	0	0	0	0	0	0	0	0	0	0	0	0	0	0	0	0	0	0	0	0	0	0	0	0	0	0	0	0	0	0	0	0	0	0	0	0	0	0	0	0	0	0	0	0	0	0	0	0	-1	0	-2.0278	-17.891	16.968	0	0	0	0	0	0	0	0	0	2
973	9.73	0	0	0	0	0	0	10.917	-10.917	18.908	0	0	0	0	0	0	0	0	0	0	0	0	0	0	0	0	0	0	0	0	0	0	0	0	0	0	0	0	0	0	0	0	0	0	0	0	0	0	0	0	0	0	0	0	0	0	0	0	0	0	0	0	0	0	2
974	9.74	0	0	0	0	0	0	0	0	0	0	0	0	0	0	0	0	0	0	0	0	0	0	0	0	0	0	0	0	0	0	1	0	0	17.883	2.027	16.961	0	0	0	0	0	0	0	0	0	0	0	0	0	-1	0	-2.0278	-17.891	16.968	0	0	0	0	0	0	0	0	0	0
975	9.75	0	0	0	0	0	0	0	0	0	0	0	0	0	0	0	0	0	0	0	0	0	0	0	0	10.989	-10.989	19.033	0	0	0	0	0	0	0	0	0	0	0	0	0	0	0	10.996	-10.996	19.046	0	0	0	0	-1	0	-2.0278	-17.891	16.968	0	0	0	0	0	0	0	0	0	2
976	9.76	0	0	0	0	0	0	0	0	0	0	0	0	0	0	0	0	0	0	0	0	0	0	0	0	0	0	0	0	0	0	0	0	0	0	0	0	0	0	0	0	0	0	0	0	0	0	0	0	1	-1	0	7.5503	-27.469	31.921	0	0	0	0	0	0	0	0	0	0
977	9.77	0	0	0	0	0	0	0	0	0	0	0	0	0	-1	0	-2.0372	-17.821	16.895	0	0	0	0	0	0	0	0	0	0	0	0	0	-1	0	-2.0265	-17.879	16.957	0	0	0	0	0	0	0	0	0	0	0	0	0	-1	0	-2.0278	-17.891	16.968	0	0	0	0	0	0	0	0	0	0
978	9.78	0	0	0	0	0	0	0	0	0	0	0	0	0	0	0	0	0	0	0	0	0	0	0	0	0	0	0	0	0	0	0	0	0	0	0	0	0	0	0	0	0	0	0	0	0	0	0	0	0	-1	0	-2.0278	-17.891	16.968	0	0	0	0	0	0	0	0	0	2
979	9.79	0	0	0	0	0	0	0	0	0	0	0	0	0	0	0	0	0	0	0	0	0	0	0	0	0	0	0	0	0	0	1	0	0	17.883	2.027	16.961	0	0	0	0	0	0	0	0	0	0	0	0	0	0	0	0	0	0	0	0	0	0	0	0	0	0	0	2
980	9.8	0	0	0	0	0	0	0	0	0	0	0	0	0	0	0	0	0	0	0	0	0	0	0	0	0	0	0	0	0	0	0	0	0	0	0	0	0	0	0	0	-1	0	-2.1508	-17.769	16.797	0	0	0	0	-1	0	-2.0278	-17.891	16.968	0	0	0	0	0	0	0	0	0	0
981	9.81	0	0	0	0	0	0	0	0	0	0	0	0	0	0	0	0	0	0	0	0	0	0	0	0	0	0	0	0	0	0	0	0	0	0	0	0	0	0	0	0	0	0	0	0	0	0	0	0	0	0	0	0	0	0	0	0	0	0	0	0	0	0	0	2
982	9.82	0	0	0	0	0	0	0	0	0	0	0	0	0	0	0	0	0	0	0	0	0	0	0	0	0	0	0	0	0	0	0	0	0	0	0	0	0	0	0	0	0	0	0	0	0	0	0	0	0	0	0	0	0	0	0	0	0	0	0	0	0	0	0	2
983	9.83	0	0	0	0	0	0	0	0	0	0	0	0	0	0	0	0	0	0	0	0	0	0	0	0	0	0	0	0	0	0	0	0	0	10.991	-10.991	19.037	0	0	0	0	0	0	10.996	-10.996	19.046	0	0	0	0	0	0	0	0	0	0	0	0	0	0	0	0	0	0	0
984	9.84	0	0	0	0	0	0	0	0	0	0	0	0	0	0	0	0	0	0	0	0	0	0	0	0	0	0	0	0	0	0	1	0	0	17.883	2.027	16.961	0	0	0	0	0	0	0	0	0	0	0	0	0	-1	0	-2.0278	-17.891	16.968	0	0	0	1	0	0	17.47	2.0148	16.554	2
985	9.85	0	0	0	0	0	0	0	0	0	0	0	0	0	0	0	0	0	0	0	0	0	0	0	0	0	0	0	0	0	0	1	0	0	17.883	2.027	16.961	0	0	0	0	0	0	0	0	0	0	0	0	0	0	0	0	0	0	0	0	0	0	0	0	0	0	0	2
986	9.86	0	0	0	0	0	0	0	0	0	0	0	0	0	0	0	0	0	0	0	0	0	0	0	0	10.989	-10.989	19.033	0	0	0	1	0	0	17.761	2.1499	16.789	0	0	0	0	0	0	0	0	0	0	0	0	0	0	0	0	0	0	0	0	0	1	0	0	17.47	2.0148	16.554	0
987	9.87	0	0	0	0	0	0	0	0	0	0	0	0	0	0	0	0	0	0	0	0	0	0	0	0	0	0	0	0	0	0	0	0	0	0	0	0	0	0	0	0	0	0	0	0	0	0	0	0	0	-1	0	-2.0278	-17.891	16.968	0	0	0	0	0	0	0	0	0	2
988	9.88	0	0	0	0	0	0	0	0	0	0	0	0	0	0	0	0	0	0	0	0	0	0	0	0	0	0	0	0	0	0	0	0	0	0	0	0	0	0	0	0	0	0	0	0	0	0	0	0	0	0	0	0	0	0	0	0	0	0	0	0	0	0	0	2
989	9.89	0	0	0	0	0	0	0	0	0	0	0	0	0	0	0	0	0	0	0	0	0	0	0	0	10.989	-10.989	19.033	0	0	0	0	0	0	0	0	0	0	0	0	0	0	0	0	0	0	0	0	0	0	-1	0	-2.0278	-17.891	16.968	0	0	0	1	0	0	17.47	2.0148	16.554	2
990	9.9	0	0	0	0	0	0	0	0	0	0	0	0	0	0	0	0	0	0	0	0	0	0	0	0	0	0	0	0	0	0	0	0	0	0	0	0	0	0	0	0	0	0	10.996	-10.996	19.046	0	0	0	0	-1	0	-2.0278	-17.891	16.968	0	0	0	0	0	0	0	0	0	2
991	9.91	0	0	0	0	0	0	0	0	0	0	0	0	0	0	0	0	0	0	0	0	0	0	0	0	0	0	0	0	0	0	0	0	0	0	0	0	0	0	0	0	0	0	0	0	0	0	0	0	0	-1	0	-2.0278	-17.891	16.968	0	0	0	0	0	0	0	0	0	0
992	9.92	0	0	0	0	0	0	0	0	0	0	0	0	0	0	0	0	0	0	0	0	0	0	0	0	0	0	0	0	0	0	0	0	0	0	0	0	0	0	0	0	0	0	0	0	0	0	0	0	0	-1	0	-2.0278	-17.891	16.968	0	0	0	0	0	0	0	0	0	0
993	9.93	0	0	0	0	0	0	0	0	0	0	0	0	0	0	0	0	0	0	0	0	0	0	0	0	0	0	0	0	0	0	0	0	0	0	0	0	0	0	0	0	0	0	0	0	0	0	0	0	0	-1	0	-2.0278	-17.891	16.968	0	0	0	0	0	0	0	0	0	0
994	9.94	0	0	0	0	0	0	0	0	0	0	0	0	0	0	0	0	0	0	0	0	0	0	0	0	0	0	0	0	0	0	1	0	0	17.883	2.027	16.961	0	0	0	0	0	0	0	0	0	0	0	0	0	-1	0	-2.0278	-17.891	16.968	0	0	0	0	0	0	10.93	-10.93	18.931	2
995	9.95	0	0	0	0	0	0	0	0	0	0	0	0	0	0	0	0	0	0	0	0	0	0	0	0	0	0	0	0	0	0	1	0	0	17.883	2.027	16.961	0	0	0	0	0	0	0	0	0	0	0	0	0	-1	0	-2.0278	-17.891	16.968	0	0	0	0	0	0	0	0	0	2
996	9.96	0	0	0	0	0	0	0	0	0	0	0	0	0	0	0	0	0	0	0	0	0	0	0	0	0	0	0	0	0	0	0	0	0	0	0	0	0	0	0	0	0	0	0	0	0	0	0	0	0	-1	0	-2.0278	-17.891	16.968	0	0	0	1	0	0	17.47	2.0148	16.554	0
997	9.97	0	0	0	0	0	0	0	0	0	0	0	0	0	0	0	0	0	0	0	0	0	0	0	0	10.989	-10.989	19.033	0	0	0	0	-1	0	-2.0265	-17.879	16.957	0	0	0	0	0	0	0	0	0	0	0	0	0	-1	0	-2.0278	-17.891	16.968	0	0	0	0	0	0	0	0	0	2
998	9.98	0	0	0	0	0	0	0	0	0	0	0	0	0	-1	0	-2.0372	-17.821	16.895	0	0	0	0	0	0	10.989	-10.989	19.033	0	0	0	0	0	0	0	0	0	0	0	0	0	0	0	0	0	0	0	0	0	0	0	0	0	0	0	0	0	0	1	0	0	17.47	2.0148	16.554	2
999	9.99	0	0	0	0	0	0	0	0	0	0	0	0	0	0	0	0	0	0	0	0	0	0	0	0	0	0	0	0	0	0	1	0	0	17.883	2.027	16.961	0	0	0	0	0	0	0	0	0	0	0	0	0	-1	0	-2.0278	-17.891	16.968	0	0	0	0	0	0	0	0	0	2
1000	10	0	0	0	0	0	0	0	0	0	0	0	0	0	0	0	0	0	0	0	0	0	0	0	0	0	0	0	0	0	0	0	0	0	0	0	0	0	0	0	0	0	0	10.996	-10.996	19.046	0	0	0	0	-1	0	-2.0278	-17.891	16.968	0	0	0	0	0	0	0	0	0	2
1001	10.01	0	0	0	0	0	0	0	0	0	0	0	0	0	0	0	0	0	0	0	0	0	0	0	0	0	0	0	0	0	0	0	0	0	0	0	0	0	0	0	0	0	0	0	0	0	0	0	0	0	-1	0	-2.0278	-17.891	16.968	0	0	0	0	0	0	0	0	0	2
1002	10.02	0	0	0	0	0	0	0	0	0	0	0	0	0	0	0	0	0	0	0	0	0	0	0	0	10.989	-10.989	19.033	0	0	0	0	0	0	0	0	0	0	0	0	0	0	0	0	0	0	0	0	0	0	-1	0	-2.0278	-17.891	16.968	0	0	0	0	0	0	0	0	0	2
1003	10.03	0	0	0	0	0	0	0	0	0	0	0	0	0	0	0	0	0	0	0	0	0	0	0	0	0	0	0	0	0	0	0	0	0	0	0	0	0	0	0	0	0	0	0	0	0	0	0	0	1	-1	0	7.5503	-27.469	31.921	0	0	0	0	0	0	0	0	0	2
1004	10.04	0	0	0	0	0	0	0	0	0	0	0	0	0	0	0	0	0	0	0	0	0	0	0	0	0	0	0	0	0	0	1	0	0	17.883	2.027	16.961	0	0	0	0	0	0	0	0	0	0	0	0	0	-1	0	-2.0278	-17.891	16.968	0	0	0	0	0	0	0	0	0	2
1005	10.05	0	0	0	0	0	0	0	0	0	0	0	0	0	-1	0	-2.0366	-17.816	16.89	0	0	0	0	0	0	0	0	0	0	0	0	1	0	0	17.883	2.027	16.961	0	0	0	0	0	0	0	0	0	0	0	0	0	-1	0	-2.0278	-17.891	16.968	0	0	0	0	0	0	0	0	0	2
1006	10.06	0	0	0	0	0	0	0	0	0	0	0	0	0	0	0	0	0	0	0	0	0	0	0	0	10.989	-10.989	19.033	0	0	0	0	0	0	0	0	0	0	0	0	0	0	0	0	0	0	0	0	0	0	0	0	0	0	0	0	0	0	1	0	0	17.47	2.0148	16.554	2
1007	10.07	0	0	0	0	0	0	0	0	0	0	0	0	0	0	0	0	0	0	0	0	0	0	0	0	0	0	0	0	0	0	1	0	0	17.883	2.027	16.961	0	0	0	0	0	0	0	0	0	0	0	0	0	-1	0	-2.0278	-17.891	16.968	0	0	0	0	0	0	0	0	0	2
1008	10.08	0	0	0	0	0	0	0	0	0	0	0	0	0	0	0	0	0	0	0	0	0	0	0	0	0	0	0	0	0	0	1	0	0	17.883	2.027	16.961	0	0	0	0	0	0	0	0	0	0	0	0	0	0	0	0	0	0	0	0	0	0	0	0	0	0	0	2
1009	10.09	0	0	0	0	0	0	0	0	0	0	0	0	0	0	0	0	0	0	0	0	0	0	0	0	0	0	0	0	0	0	1	0	0	17.883	2.027	16.961	0	0	0	0	0	0	0	0	0	0	0	0	0	0	0	0	0	0	0	0	0	1	0	0	17.47	2.0148	16.554	2
1010	10.1	0	0	0	0	0	0	0	0	0	0	0	0	0	0	0	0	0	0	0	0	0	0	0	0	0	0	0	0	0	0	0	0	0	0	0	0	0	0	0	0	0	0	0	0	0	0	0	0	0	-1	0	-2.0278	-17.891	16.968	0	0	0	0	0	0	0	0	0	2
1011	10.11	0	0	0	0	0	0	0	0	0	0	0	0	0	0	0	0	0	0	0	0	0	0	0	0	0	0	0	0	0	0	0	0	0	0	0	0	0	0	0	0	0	0	0	0	0	0	0	0	0	0	0	0	0	0	0	0	0	1	0	0	17.47	2.0148	16.554	2
1012	10.12	0	0	0	0	0	0	0	0	0	0	0	0	0	0	0	0	0	0	0	0	0	0	0	0	0	0	0	0	0	0	1	0	0	17.761	2.1499	16.789	0	0	0	0	0	0	0	0	0	0	0	0	0	0	0	0	0	0	0	0	0	0	0	0	0	0	0	2
1013	10.13	0	0	0	0	0	0	0	0	0	0	0	0	0	0	0	0	0	0	0	0	0	0	0	0	0	0	0	0	0	0	0	0	0	0	0	0	0	0	0	0	0	0	10.996	-10.996	19.046	0	0	0	0	-1	0	-2.0278	-17.891	16.968	0	0	0	0	0	0	0	0	0	0
1014	10.14	0	0	0	0	0	0	0	0	0	0	0	0	0	0	0	0	0	0	0	0	0	0	0	0	10.989	-10.989	19.033	0	0	0	0	0	0	0	0	0	0	0	0	0	-1	0	-2.0279	-17.891	16.969	0	0	0	0	0	0	0	0	0	0	0	0	0	0	0	0	0	0	2
1015	10.15	0	0	0	0	0	0	0	0	0	0	0	0	0	-1	0	-2.0372	-17.821	16.895	0	0	0	0	0	0	0	0	0	0	0	0	0	0	0	0	0	0	0	0	0	0	0	0	0	0	0	0	0	0	0	0	0	0	0	0	0	0	0	0	0	0	0	0	0	2
1016	10.16	0	0	0	0	0	0	0	0	0	0	0	0	0	0	0	0	0	0	0	0	0	0	0	0	0	0	0	0	0	0	0	0	0	0	0	0	0	0	0	0	0	0	0	0	0	0	0	0	1	-1	0	7.5503	-27.469	31.921	0	0	0	1	0	0	17.47	2.0148	16.554	2
1017	10.17	0	0	0	0	0	0	0	0	0	0	0	0	0	-1	0	-2.0372	-17.821	16.895	0	0	0	0	0	0	0	0	0	0	0	0	0	0	0	0	0	0	0	0	0	0	0	0	0	0	0	0	0	0	0	-1	0	-2.0278	-17.891	16.968	0	0	0	0	0	0	0	0	0	2
1018	10.18	0	0	0	0	0	0	0	0	0	0	0	0	0	0	0	0	0	0	0	0	0	0	0	0	0	0	0	0	0	0	0	0	0	0	0	0	0	0	0	0	0	0	0	0	0	0	0	0	0	-1	0	-2.0278	-17.891	16.968	0	0	0	0	0	0	0	0	0	2
1019	10.19	0	0	0	0	0	0	0	0	0	0	0	0	0	0	0	0	0	0	0	0	0	0	0	0	10.989	-10.989	19.033	0	0	0	0	0	0	0	0	0	0	0	0	0	0	0	0	0	0	0	0	0	0	0	0	0	0	0	0	0	0	0	0	0	0	0	0	2
1020	10.2	0	0	0	0	0	0	0	0	0	0	0	0	0	0	0	0	0	0	0	0	0	0	0	0	0	0	0	0	0	0	0	0	0	0	0	0	0	0	0	0	0	0	0	0	0	0	0	0	0	-1	0	-2.0278	-17.891	16.968	0	0	0	0	0	0	0	0	0	2
1021	10.21	0	0	0	0	0	0	0	0	0	0	0	0	0	0	0	0	0	0	0	0	0	0	0	0	0	0	0	0	0	0	0	0	0	0	0	0	0	0	0	0	0	0	0	0	0	0	0	0	0	0	0	0	0	0	0	0	0	1	0	0	17.47	2.0148	16.554	2
1022	10.22	0	0	0	0	0	0	0	0	0	0	0	0	0	0	0	0	0	0	0	0	0	0	0	0	0	0	0	0	0	0	0	0	0	10.991	-10.991	19.037	0	0	0	0	0	0	0	0	0	0	0	0	0	-1	0	-2.0278	-17.891	16.968	0	0	0	0	0	0	0	0	0	2
1023	10.23	0	0	0	0	0	0	0	0	0	0	0	0	0	0	0	0	0	0	0	0	0	0	0	0	0	0	0	0	0	0	0	0	0	0	0	0	0	0	0	0	0	0	0	0	0	0	0	0	0	0	0	0	0	0	0	0	0	0	0	0	0	0	0	0
1024	10.24	0	0	0	0	0	0	0	0	0	0	0	0	0	0	0	0	0	0	0	0	0	0	0	0	0	0	0	0	0	0	1	0	0	17.883	2.027	16.961	0	0	0	0	0	0	0	0	0	0	0	0	0	-1	0	-2.0278	-17.891	16.968	0	0	0	1	0	0	17.47	2.0148	16.554	2
1025	10.25	0	0	0	0	0	0	0	0	0	0	0	0	0	0	0	0	0	0	0	0	0	0	0	0	0	0	0	0	0	0	0	0	0	0	0	0	0	0	0	0	0	0	10.996	-10.996	19.046	0	0	0	0	0	0	0	0	0	0	0	0	0	0	0	0	0	0	2
1026	10.26	0	0	0	0	0	0	0	0	0	0	0	0	0	0	0	0	0	0	0	0	0	0	0	0	0	0	0	0	0	0	0	0	0	10.991	-10.991	19.037	0	0	0	0	0	0	0	0	0	0	0	0	0	0	0	0	0	0	0	0	0	0	0	0	0	0	0	2
1027	10.27	0	0	0	0	0	0	0	0	0	0	0	0	0	0	0	0	0	0	0	0	0	0	0	0	0	0	0	0	0	0	0	0	0	0	0	0	0	0	0	0	0	0	0	0	0	0	0	0	0	0	0	0	0	0	0	0	0	0	0	0	0	0	0	2
1028	10.28	0	0	0	0	0	0	0	0	0	0	0	0	0	0	0	0	0	0	0	0	0	0	0	0	0	0	0	0	0	0	0	0	0	0	0	0	0	0	0	0	0	0	0	0	0	0	0	0	0	-1	0	-2.0278	-17.891	16.968	0	0	0	1	0	0	17.47	2.0148	16.554	2
1029	10.29	0	0	0	0	0	0	0	0	0	0	0	0	0	0	0	0	0	0	0	0	0	0	0	0	0	0	0	0	0	0	0	0	0	0	0	0	0	0	0	0	0	0	0	0	0	0	0	0	0	0	0	0	0	0	0	0	0	1	0	0	17.47	2.0148	16.554	2
1030	10.3	0	0	0	0	0	0	0	0	0	0	0	0	0	0	0	0	0	0	0	0	0	0	0	0	0	0	0	0	0	0	0	-1	0	-2.0265	-17.879	16.957	0	0	0	0	-1	0	-2.1508	-17.769	16.797	0	0	0	0	0	0	0	0	0	0	0	0	0	0	0	0	0	0	2
1031	10.31	0	0	0	0	0	0	0	0	0	0	0	0	0	0	0	0	0	0	0	0	0	0	0	0	0	0	0	0	0	0	0	0	0	10.991	-10.991	19.037	0	0	0	0	0	0	0	0	0	0	0	0	0	-1	0	-2.0278	-17.891	16.968	0	0	0	0	0	0	0	0	0	0
1032	10.32	0	0	0	0	0	0	0	0	0	0	0	0	0	0	0	0	0	0	0	0	0	0	0	0	0	0	0	0	0	0	0	0	0	0	0	0	0	0	0	0	0	0	10.996	-10.996	19.046	0	0	0	0	0	0	0	0	0	0	0	0	0	0	0	0	0	0	2
1033	10.33	0	0	0	0	0	0	0	0	0	0	0	0	0	0	0	0	0	0	0	0	0	0	0	0	0	0	0	0	0	0	0	-1	0	-2.0265	-17.879	16.957	0	0	0	0	0	0	0	0	0	0	0	0	0	-1	0	-2.0278	-17.891	16.968	0	0	0	0	0	0	0	0	0	0
1034	10.34	0	0	0	0	0	0	0	0	0	0	0	0	0	0	0	0	0	0	0	0	0	0	0	0	0	0	0	0	0	0	1	0	0	17.883	2.027	16.961	0	0	0	0	0	0	0	0	0	0	0	0	0	0	0	0	0	0	0	0	0	0	0	0	0	0	0	2
1035	10.35	0	0	0	0	0	0	0	0	0	0	0	0	0	0	0	0	0	0	0	0	0	0	0	0	0	0	0	0	0	0	0	0	0	0	0	0	0	0	0	0	0	0	10.996	-10.996	19.046	0	0	0	0	0	0	0	0	0	0	0	0	0	0	0	0	0	0	2
1036	10.36	0	0	0	0	0	0	0	0	0	0	0	0	0	0	0	0	0	0	0	0	0	0	0	0	0	0	0	0	0	0	1	0	0	17.883	2.027	16.961	0	0	0	0	0	0	0	0	0	0	0	0	0	-1	0	-2.0278	-17.891	16.968	0	0	0	1	0	0	17.47	2.0148	16.554	2
1037	10.37	0	0	0	0	0	0	0	0	0	0	0	0	0	0	0	0	0	0	0	0	0	0	0	0	0	0	0	0	0	0	0	0	0	0	0	0	0	0	0	0	0	0	0	0	0	0	0	0	0	-1	0	-2.0278	-17.891	16.968	0	0	0	1	0	0	17.47	2.0148	16.554	2
1038	10.38	0	0	0	0	0	0	0	0	0	0	0	0	0	0	0	0	0	0	0	0	0	0	0	0	0	0	0	0	0	0	0	0	0	0	0	0	0	0	0	0	0	0	0	0	0	0	0	0	0	-1	0	-2.0278	-17.891	16.968	0	0	0	0	0	0	0	0	0	2
1039	10.39	0	0	0	0	0	0	0	0	0	0	0	0	0	0	0	0	0	0	0	0	0	0	0	0	0	0	0	0	0	0	0	0	0	0	0	0	0	0	0	0	0	0	0	0	0	0	0	0	0	0	0	0	0	0	0	0	0	0	0	0	0	0	0	2
1040	10.4	0	0	0	0	0	0	0	0	0	0	0	0	0	0	0	0	0	0	0	0	0	0	0	0	0	0	0	0	0	0	0	-1	0	-2.0265	-17.879	16.957	0	0	0	0	-1	0	-2.1508	-17.769	16.797	0	0	0	0	0	0	0	0	0	0	0	0	0	0	0	0	0	0	2
1041	10.41	0	0	0	0	0	0	0	0	0	0	0	0	0	0	0	0	0	0	0	0	0	0	0	0	0	0	0	0	0	0	0	0	0	0	0	0	0	0	0	0	0	0	0	0	0	0	0	0	0	0	0	0	0	0	0	0	0	1	0	0	17.47	2.0148	16.554	2
1042	10.42	0	0	0	0	0	0	0	0	0	0	0	0	0	0	0	0	0	0	0	0	0	0	0	0	0	0	0	0	0	0	0	0	0	0	0	0	0	0	0	0	-1	0	-2.0279	-17.891	16.969	0	0	0	0	-1	0	-2.0278	-17.891	16.968	0	0	0	1	0	0	17.47	2.0148	16.554	2
1043	10.43	0	0	0	0	0	0	0	0	0	0	0	0	0	0	0	0	0	0	0	0	0	0	0	0	0	0	0	0	0	0	0	0	0	0	0	0	0	0	0	0	0	0	0	0	0	0	0	0	0	0	0	0	0	0	0	0	0	0	0	0	0	0	0	0
1044	10.44	0	0	0	0	0	0	0	0	0	0	0	0	0	0	0	0	0	0	0	0	0	0	0	0	0	0	0	0	0	0	0	0	0	0	0	0	0	0	0	0	0	0	0	0	0	0	0	0	0	-1	0	-2.0278	-17.891	16.968	0	0	0	1	0	0	17.47	2.0148	16.554	0
1045	10.45	0	0	0	0	0	0	0	0	0	0	0	0	0	0	0	0	0	0	0	0	0	0	0	0	0	0	0	0	0	0	0	0	0	0	0	0	0	0	0	0	0	0	0	0	0	0	0	0	0	-1	0	-2.0278	-17.891	16.968	0	0	0	0	0	0	0	0	0	2
1046	10.46	0	0	0	0	0	0	0	0	0	0	0	0	0	0	0	0	0	0	0	0	0	0	0	0	0	0	0	0	0	0	0	0	0	0	0	0	0	0	0	0	0	0	0	0	0	0	0	0	0	-1	0	-2.0278	-17.891	16.968	0	0	0	0	0	0	0	0	0	2
1047	10.47	0	0	0	0	0	0	10.917	-10.917	18.908	0	0	0	0	0	0	0	0	0	0	0	0	0	0	0	0	0	0	0	0	0	0	0	0	0	0	0	0	0	0	0	0	0	0	0	0	0	0	0	0	-1	0	-2.0278	-17.891	16.968	0	0	0	0	0	0	0	0	0	0
1048	10.48	0	0	0	0	0	0	0	0	0	0	0	0	0	0	0	0	0	0	0	0	0	0	0	0	0	0	0	0	0	0	0	0	0	0	0	0	0	0	0	0	0	0	10.996	-10.996	19.046	0	0	0	0	0	0	0	0	0	0	0	0	1	0	0	17.47	2.0148	16.554	2
1049	10.49	0	0	0	0	0	0	0	0	0	0	0	0	0	0	0	0	0	0	0	0	0	0	0	0	0	0	0	0	0	0	0	0	0	0	0	0	0	0	0	0	-1	0	-2.0279	-17.891	16.969	0	0	0	0	-1	0	-2.0278	-17.891	16.968	0	0	0	1	0	0	17.47	2.0148	16.554	2
1050	10.5	0	0	0	0	0	0	0	0	0	0	0	0	0	0	0	0	0	0	0	0	0	0	0	0	0	0	0	0	0	0	0	0	0	0	0	0	0	0	0	0	-1	0	-2.0279	-17.891	16.969	0	0	0	0	-1	0	-2.0278	-17.891	16.968	0	0	0	0	0	0	0	0	0	0
1051	10.51	0	0	0	0	0	0	0	0	0	0	0	0	0	0	0	0	0	0	0	0	0	0	0	0	0	0	0	0	0	0	0	0	0	0	0	0	0	0	0	0	0	0	0	0	0	0	0	0	0	0	0	0	0	0	0	0	0	1	0	0	17.47	2.0148	16.554	2
1052	10.52	0	0	0	0	0	0	0	0	0	0	0	0	0	0	0	0	0	0	0	0	0	0	0	0	0	0	0	0	0	0	1	0	0	17.883	2.027	16.961	0	0	0	0	0	0	0	0	0	0	0	0	0	-1	0	-2.0278	-17.891	16.968	0	0	0	0	0	0	0	0	0	2
1053	10.53	0	0	0	0	0	0	10.917	-10.917	18.908	0	0	0	0	0	0	0	0	0	0	0	0	0	0	0	0	0	0	0	0	0	0	0	0	0	0	0	0	0	0	0	0	0	0	0	0	0	0	0	0	-1	0	-2.0278	-17.891	16.968	0	0	0	1	0	0	17.47	2.0148	16.554	2
1054	10.54	0	0	0	0	0	0	10.917	-10.917	18.908	0	0	0	0	0	0	0	0	0	0	0	0	0	0	0	10.989	-10.989	19.033	0	0	0	0	0	0	0	0	0	0	0	0	0	0	0	0	0	0	0	0	0	0	-1	0	-2.0278	-17.891	16.968	0	0	0	0	0	0	0	0	0	2
1055	10.55	0	0	0	0	0	0	0	0	0	0	0	0	0	0	0	0	0	0	0	0	0	0	0	0	0	0	0	0	0	0	0	0	0	0	0	0	0	0	0	0	0	0	0	0	0	0	0	0	0	-1	0	-2.0278	-17.891	16.968	0	0	0	0	0	0	0	0	0	2
1056	10.56	0	0	0	0	0	0	0	0	0	0	0	0	0	0	0	0	0	0	0	0	0	0	0	0	0	0	0	0	0	0	0	0	0	0	0	0	0	0	0	0	0	0	0	0	0	0	0	0	0	0	0	0	0	0	0	0	0	1	0	0	17.47	2.0148	16.554	2
1057	10.57	0	0	0	0	0	0	0	0	0	0	0	0	0	0	0	0	0	0	0	0	0	0	0	0	0	0	0	0	0	0	0	0	0	0	0	0	0	0	0	0	0	0	0	0	0	0	0	0	0	-1	0	-2.0278	-17.891	16.968	0	0	0	0	0	0	0	0	0	0
1058	10.58	0	0	0	0	0	0	0	0	0	0	0	0	0	-1	0	-2.0372	-17.821	16.895	0	0	0	0	0	0	0	0	0	0	0	0	0	0	0	0	0	0	0	0	0	0	0	0	0	0	0	0	0	0	0	0	0	0	0	0	0	0	0	1	0	0	17.47	2.0148	16.554	2
1059	10.59	0	0	0	0	0	0	0	0	0	0	0	0	0	0	0	0	0	0	0	0	0	0	0	0	0	0	0	0	0	0	0	0	0	0	0	0	0	0	0	0	0	0	0	0	0	0	0	0	0	-1	0	-2.0278	-17.891	16.968	0	0	0	1	0	0	17.47	2.0148	16.554	0
1060	10.6	0	0	0	0	0	0	0	0	0	0	0	0	0	-1	0	-2.0366	-17.816	16.89	0	0	0	0	0	0	0	0	0	0	0	0	0	0	0	0	0	0	0	0	0	0	0	0	0	0	0	0	0	0	0	-1	0	-2.0278	-17.891	16.968	0	0	0	0	0	0	0	0	0	2
1061	10.61	0	0	0	0	0	0	0	0	0	0	0	0	0	0	0	0	0	0	0	0	0	0	0	0	0	0	0	0	0	0	0	0	0	0	0	0	0	0	0	0	0	0	0	0	0	0	0	0	0	0	0	0	0	0	0	0	0	1	0	0	17.47	2.0148	16.554	2
1062	10.62	0	0	0	0	0	0	0	0	0	0	0	0	0	-1	0	-2.0372	-17.821	16.895	0	0	0	0	0	0	0	0	0	0	0	0	1	0	0	17.883	2.027	16.961	0	0	0	0	0	0	10.996	-10.996	19.046	0	0	0	0	-1	0	-2.0278	-17.891	16.968	0	0	0	1	0	0	17.47	2.0148	16.554	2
1063	10.63	0	0	0	0	0	0	0	0	0	0	0	0	0	0	0	0	0	0	0	0	0	0	-1	0	-2.0266	-17.88	16.957	0	0	0	0	0	0	0	0	0	0	0	0	0	0	0	0	0	0	0	0	0	0	-1	0	-2.0278	-17.891	16.968	0	0	0	0	0	0	0	0	0	0
1064	10.64	0	0	0	0	0	0	0	0	0	0	0	0	0	0	0	0	0	0	0	0	0	0	0	0	10.989	-10.989	19.033	0	0	0	0	0	0	11.258	-11.253	19.496	0	0	0	0	0	0	0	0	0	0	0	0	0	0	0	0	0	0	0	0	0	0	0	0	0	0	0	2
1065	10.65	0	0	0	0	0	0	0	0	0	0	0	0	0	0	0	0	0	0	0	0	0	0	0	0	0	0	0	0	0	0	0	0	0	0	0	0	0	0	0	0	0	0	0	0	0	0	0	0	0	0	0	0	0	0	0	0	0	0	0	0	0	0	0	2
1066	10.66	0	0	0	0	0	0	0	0	0	0	0	0	0	0	0	0	0	0	0	0	0	0	0	0	0	0	0	0	0	0	0	0	0	0	0	0	0	0	0	0	-1	0	-2.0279	-17.891	16.969	0	0	0	0	-1	0	-2.0278	-17.891	16.968	0	0	0	1	0	0	17.471	2.0135	16.556	2
1067	10.67	0	0	0	0	0	0	0	0	0	0	0	0	0	0	0	0	0	0	0	0	0	0	-1	0	-2.0266	-17.88	16.957	0	0	0	0	0	0	0	0	0	0	0	0	0	0	0	0	0	0	0	0	0	0	0	0	0	0	0	0	0	0	1	0	0	17.47	2.0148	16.554	0
1068	10.68	0	0	0	0	0	0	0	0	0	0	0	0	0	0	0	0	0	0	0	0	0	0	0	0	0	0	0	0	0	0	0	0	0	0	0	0	0	0	0	0	0	0	10.996	-10.996	19.046	0	0	0	0	-1	0	-2.0278	-17.891	16.968	0	0	0	0	0	0	0	0	0	2
1069	10.69	0	0	0	0	0	0	0	0	0	0	0	0	0	0	0	0	0	0	0	0	0	0	0	0	0	0	0	0	0	0	0	0	0	0	0	0	0	0	0	0	0	0	0	0	0	0	0	0	0	0	0	0	0	0	0	0	0	1	0	0	17.47	2.0148	16.554	2
1070	10.7	0	0	0	0	0	0	0	0	0	0	0	0	0	0	0	0	0	0	0	0	0	0	0	0	10.989	-10.989	19.033	0	0	0	0	0	0	0	0	0	0	0	0	0	0	0	10.996	-10.996	19.046	0	0	0	0	-1	0	-2.0278	-17.891	16.968	0	0	0	0	0	0	0	0	0	2
1071	10.71	0	0	0	0	0	0	0	0	0	0	0	0	0	0	0	0	0	0	0	0	0	0	0	0	0	0	0	0	0	0	1	0	0	17.883	2.027	16.961	0	0	0	0	0	0	0	0	0	0	0	0	0	0	0	0	0	0	0	0	0	1	0	0	17.47	2.0148	16.554	2
1072	10.72	0	0	0	0	0	0	0	0	0	0	0	0	0	0	0	0	0	0	0	0	0	0	0	0	0	0	0	0	0	0	0	0	0	0	0	0	0	0	0	0	0	0	0	0	0	0	0	0	0	-1	0	-2.0278	-17.891	16.968	0	0	0	1	0	0	17.47	2.0148	16.554	2
1073	10.73	0	0	0	0	0	0	0	0	0	0	0	0	0	0	0	0	0	0	0	0	0	0	0	0	0	0	0	0	0	0	0	0	0	0	0	0	0	0	0	0	0	0	0	0	0	0	0	0	0	-1	0	-2.0278	-17.891	16.968	0	0	0	0	0	0	0	0	0	2
1074	10.74	0	0	0	0	0	0	10.917	-10.917	18.908	0	0	0	0	0	0	0	0	0	0	0	0	0	0	0	10.989	-10.989	19.033	0	0	0	0	-1	0	-2.0265	-17.879	16.957	0	0	0	0	0	0	0	0	0	0	0	0	0	0	0	0	0	0	0	0	0	1	0	0	17.47	2.0148	16.554	0
1075	10.75	0	0	0	0	0	0	0	0	0	0	0	0	0	0	0	0	0	0	0	0	0	0	0	0	0	0	0	0	0	0	0	0	0	0	0	0	0	0	0	0	-1	0	-2.1508	-17.769	16.797	0	0	0	0	-1	0	-2.0278	-17.891	16.968	0	0	0	0	0	0	0	0	0	2
1076	10.76	0	0	0	0	0	0	0	0	0	0	0	0	0	0	0	0	0	0	0	0	0	0	0	0	10.989	-10.989	19.033	0	0	0	1	0	0	17.883	2.027	16.961	0	0	0	0	0	0	0	0	0	0	0	0	0	0	0	0	0	0	0	0	0	1	0	0	17.47	2.0148	16.554	2
1077	10.77	0	0	0	0	0	0	0	0	0	0	0	0	0	0	0	0	0	0	0	0	0	0	0	0	0	0	0	0	0	0	0	0	0	0	0	0	0	0	0	0	0	0	0	0	0	0	0	0	0	-1	0	-2.0278	-17.891	16.968	0	0	0	0	0	0	0	0	0	2
1078	10.78	0	0	0	0	0	0	0	0	0	0	0	0	0	0	0	0	0	0	0	0	0	0	0	0	0	0	0	0	0	0	0	0	0	0	0	0	0	0	0	0	0	0	0	0	0	0	0	0	0	-1	0	-2.0278	-17.891	16.968	0	0	0	0	0	0	0	0	0	2
1079	10.79	0	0	0	0	0	0	0	0	0	0	0	0	0	0	0	0	0	0	0	0	0	0	0	0	0	0	0	0	0	0	1	0	0	17.883	2.027	16.961	0	0	0	0	0	0	0	0	0	0	0	0	0	-1	0	-2.0278	-17.891	16.968	0	0	0	1	0	0	17.47	2.0148	16.554	0
1080	10.8	0	0	0	0	0	0	0	0	0	0	0	0	0	0	0	0	0	0	0	0	0	0	0	0	0	0	0	0	0	0	0	0	0	0	0	0	0	0	0	0	0	0	0	0	0	0	0	0	0	-1	0	-2.0278	-17.891	16.968	0	0	0	0	0	0	0	0	0	2
1081	10.81	0	0	0	0	0	0	0	0	0	0	0	0	0	0	0	0	0	0	0	0	0	0	0	0	0	0	0	0	0	0	0	0	0	0	0	0	0	0	0	0	0	0	0	0	0	0	0	0	0	0	0	0	0	0	0	0	0	1	0	0	17.47	2.0148	16.554	2
1082	10.82	0	0	0	0	0	0	0	0	0	0	0	0	0	0	0	0	0	0	0	0	0	0	0	0	10.989	-10.989	19.033	0	0	0	1	0	0	17.883	2.027	16.961	0	0	0	0	0	0	10.996	-10.996	19.046	0	0	0	0	-1	0	-2.0278	-17.891	16.968	0	0	0	1	0	0	17.47	2.0148	16.554	2
1083	10.83	0	0	0	0	0	0	0	0	0	0	0	0	0	0	0	0	0	0	0	0	0	0	0	0	0	0	0	0	0	0	0	0	0	0	0	0	0	0	0	0	0	0	10.996	-10.996	19.046	0	0	0	0	-1	0	-2.0278	-17.891	16.968	0	0	0	1	0	0	17.47	2.0148	16.554	2
1084	10.84	0	0	0	0	0	0	0	0	0	0	0	0	0	0	0	0	0	0	0	0	0	0	0	0	10.989	-10.989	19.033	0	0	0	0	0	0	0	0	0	0	0	0	0	0	0	0	0	0	0	0	0	0	-1	0	-2.0278	-17.891	16.968	0	0	0	1	0	0	17.47	2.0148	16.554	2
1085	10.85	0	0	0	0	0	0	0	0	0	0	0	0	0	0	0	0	0	0	0	0	0	0	0	0	0	0	0	0	0	0	0	0	0	0	0	0	0	0	0	0	0	0	0	0	0	0	0	0	0	0	0	0	0	0	0	0	0	0	0	0	0	0	0	0
1086	10.86	0	0	0	0	0	0	0	0	0	0	0	0	0	0	0	0	0	0	0	0	0	0	0	0	0	0	0	0	0	0	0	0	0	0	0	0	0	0	0	0	0	0	0	0	0	0	0	0	0	-1	0	-2.0278	-17.891	16.968	0	0	0	0	0	0	0	0	0	0
1087	10.87	0	0	0	0	0	0	0	0	0	0	0	0	0	0	0	0	0	0	0	0	0	0	0	0	0	0	0	0	0	0	0	0	0	0	0	0	0	0	0	0	0	0	0	0	0	0	0	0	0	-1	0	-2.0278	-17.891	16.968	0	0	0	0	0	0	0	0	0	2
1088	10.88	0	0	0	0	0	0	10.917	-10.917	18.908	0	0	0	0	0	0	0	0	0	0	0	0	0	0	0	0	0	0	0	0	0	1	0	0	17.883	2.027	16.961	0	0	0	0	0	0	10.996	-10.996	19.046	0	0	0	0	-1	0	-2.0278	-17.891	16.968	0	0	0	0	0	0	0	0	0	2
1089	10.89	0	0	0	0	0	0	0	0	0	0	0	0	0	0	0	0	0	0	0	0	0	0	0	0	10.989	-10.989	19.033	0	0	0	1	0	0	17.883	2.027	16.961	0	0	0	0	0	0	0	0	0	0	0	0	0	-1	0	-2.0278	-17.891	16.968	0	0	0	1	0	0	30.423	8.5595	27.174	2
1090	10.9	0	0	0	0	0	0	0	0	0	0	0	0	0	0	0	0	0	0	0	0	0	0	0	0	0	0	0	0	0	0	0	0	0	0	0	0	0	0	0	0	-1	0	-2.0279	-17.891	16.969	0	0	0	0	0	0	0	0	0	0	0	0	0	0	0	0	0	0	2
1091	10.91	0	0	0	0	0	0	0	0	0	0	0	0	0	0	0	0	0	0	0	0	0	0	0	0	0	0	0	0	0	0	0	0	0	0	0	0	0	0	0	0	0	0	0	0	0	0	0	0	0	0	0	10.994	-10.994	19.042	0	0	0	0	0	0	0	0	0	2
1092	10.92	0	0	0	0	0	0	10.917	-10.917	18.908	0	0	0	0	0	0	0	0	0	0	0	0	0	0	0	0	0	0	0	0	0	0	0	0	0	0	0	0	0	0	0	0	0	0	0	0	0	0	0	0	-1	0	-2.0278	-17.891	16.968	0	0	0	0	0	0	0	0	0	2
1093	10.93	0	0	0	0	0	0	0	0	0	0	0	0	0	-1	0	-2.0372	-17.821	16.895	0	0	0	0	0	0	0	0	0	0	0	0	0	0	0	10.991	-10.991	19.037	0	0	0	0	0	0	10.996	-10.996	19.046	0	0	0	0	-1	0	-2.0278	-17.891	16.968	0	0	0	0	0	0	0	0	0	2
1094	10.94	0	0	0	0	0	0	0	0	0	0	0	0	0	0	0	0	0	0	0	0	0	0	0	0	10.989	-10.989	19.033	0	0	0	0	0	0	0	0	0	0	0	0	0	0	0	0	0	0	0	0	0	0	-1	0	-2.0278	-17.891	16.968	0	0	0	1	0	0	17.47	2.0148	16.554	2
1095	10.95	0	0	0	0	0	0	0	0	0	0	0	0	0	0	0	0	0	0	0	0	0	0	-1	0	-2.0266	-17.88	16.957	0	0	0	1	0	0	17.883	2.027	16.961	0	0	0	0	0	0	10.996	-10.996	19.046	0	0	0	0	-1	0	-2.0278	-17.891	16.968	0	0	0	0	0	0	0	0	0	0
1096	10.96	0	0	0	0	0	0	0	0	0	0	0	0	0	0	0	0	0	0	0	0	0	0	0	0	10.989	-10.989	19.033	0	0	0	1	0	0	17.883	2.027	16.961	0	0	0	0	0	0	0	0	0	0	0	0	0	0	0	0	0	0	0	0	0	0	0	0	0	0	0	2
1097	10.97	0	0	0	0	0	0	0	0	0	0	0	0	0	0	0	0	0	0	0	0	0	0	-1	0	-2.0266	-17.88	16.957	0	0	0	0	0	0	0	0	0	0	0	0	0	0	0	0	0	0	0	0	0	0	0	0	0	0	0	0	0	0	0	0	0	0	0	0	2
1098	10.98	0	0	0	0	0	0	0	0	0	0	0	0	0	0	0	0	0	0	0	0	0	0	0	0	0	0	0	0	0	0	0	0	0	0	0	0	0	0	0	0	-1	0	-2.1508	-17.769	16.797	0	0	0	0	-1	0	-2.0278	-17.891	16.968	0	0	0	1	0	0	17.47	2.0148	16.554	2
1099	10.99	0	0	0	0	0	0	0	0	0	0	0	0	0	0	0	0	0	0	0	0	0	0	0	0	0	0	0	0	0	0	0	0	0	0	0	0	0	0	0	0	0	0	0	0	0	0	0	0	0	-1	0	-2.0278	-17.891	16.968	0	0	0	1	0	0	17.47	2.0148	16.554	2
1100	11	0	0	0	0	0	0	0	0	0	0	0	0	0	0	0	0	0	0	0	0	0	0	0	0	0	0	0	0	0	0	0	0	0	0	0	0	0	0	0	0	0	0	0	0	0	0	0	0	0	0	0	0	0	0	0	0	0	0	0	0	0	0	0	2
1101	11.01	0	0	0	0	0	0	0	0	0	0	0	0	0	0	0	0	0	0	0	0	0	0	0	0	0	0	0	0	0	0	1	0	0	17.883	2.027	16.961	0	0	0	0	0	0	0	0	0	0	0	0	0	0	0	0	0	0	0	0	0	1	0	0	17.47	2.0148	16.554	2
1102	11.02	0	0	0	0	-1	0	-2.0364	-17.814	16.888	0	0	0	0	0	0	0	0	0	0	0	0	0	0	0	0	0	0	0	0	0	0	0	0	10.991	-10.991	19.037	0	0	0	0	0	0	10.996	-10.996	19.046	0	0	0	0	-1	0	-2.0278	-17.891	16.968	0	0	0	0	0	0	0	0	0	2
1103	11.03	0	0	0	0	0	0	0	0	0	0	0	0	0	0	0	0	0	0	0	0	0	0	0	0	0	0	0	0	0	0	0	0	0	0	0	0	0	0	0	0	-1	0	-2.0279	-17.891	16.969	0	0	0	0	-1	0	-2.0278	-17.891	16.968	0	0	0	1	0	0	17.47	2.0148	16.554	2
1104	11.04	0	0	0	0	0	0	0	0	0	0	0	0	0	0	0	0	0	0	0	0	0	0	0	0	0	0	0	0	0	0	1	0	0	17.883	2.027	16.961	0	0	0	0	0	0	0	0	0	0	0	0	0	0	0	0	0	0	0	0	0	1	0	0	17.47	2.0148	16.554	2
1105	11.05	0	0	0	0	0	0	0	0	0	0	0	0	0	0	0	0	0	0	0	0	0	0	0	0	0	0	0	0	0	0	0	0	0	0	0	0	0	0	0	0	-1	0	-2.0279	-17.891	16.969	0	0	0	0	-1	0	-2.0278	-17.891	16.968	0	0	0	0	0	0	0	0	0	2
1106	11.06	0	0	0	0	0	0	0	0	0	0	0	0	0	0	0	0	0	0	0	0	0	0	0	0	10.989	-10.989	19.033	0	0	0	0	0	0	0	0	0	0	0	0	0	0	0	0	0	0	0	0	0	0	-1	0	-2.0278	-17.891	16.968	0	0	0	0	0	0	0	0	0	2
1107	11.07	0	0	0	0	0	0	10.917	-10.917	18.908	0	0	0	0	0	0	0	0	0	0	0	0	0	0	0	0	0	0	0	0	0	1	0	0	17.883	2.027	16.961	0	0	0	0	0	0	0	0	0	0	0	0	0	-1	0	-2.0278	-17.891	16.968	0	0	0	1	0	0	17.47	2.0148	16.554	2
1108	11.08	0	0	0	0	0	0	0	0	0	0	0	0	0	0	0	0	0	0	0	0	0	0	0	0	0	0	0	0	0	0	0	0	0	0	0	0	0	0	0	0	0	0	10.996	-10.996	19.046	0	0	0	0	0	0	0	0	0	0	0	0	0	0	0	0	0	0	0
1109	11.09	0	0	0	0	0	0	0	0	0	0	0	0	0	0	0	0	0	0	0	0	0	0	0	0	0	0	0	0	0	0	0	0	0	0	0	0	0	0	0	0	0	0	0	0	0	0	0	0	0	0	0	0	0	0	0	0	0	0	0	0	0	0	0	0
1110	11.1	0	0	0	0	0	0	0	0	0	0	0	0	0	0	0	0	0	0	0	0	0	0	0	0	0	0	0	0	0	0	0	0	0	0	0	0	0	0	0	0	0	0	10.996	-10.996	19.046	0	0	0	0	-1	0	-2.0278	-17.891	16.968	0	0	0	0	0	0	0	0	0	2
1111	11.11	0	0	0	0	0	0	0	0	0	0	0	0	0	0	0	0	0	0	0	0	0	0	0	0	0	0	0	0	0	0	1	0	0	17.883	2.027	16.961	0	0	0	0	0	0	0	0	0	0	0	0	0	0	0	0	0	0	0	0	0	1	0	0	17.471	2.0135	16.556	2
1112	11.12	0	0	0	0	0	0	0	0	0	0	0	0	0	0	0	0	0	0	0	0	0	0	0	0	0	0	0	0	0	0	0	0	0	0	0	0	0	0	0	0	0	0	10.996	-10.996	19.046	0	0	0	0	-1	0	-2.0278	-17.891	16.968	0	0	0	0	0	0	0	0	0	2
1113	11.13	0	0	0	0	0	0	0	0	0	0	0	0	0	0	0	0	0	0	0	0	0	0	0	0	0	0	0	0	0	0	0	0	0	0	0	0	0	0	0	0	0	0	0	0	0	0	0	0	0	-1	0	-2.0278	-17.891	16.968	0	0	0	1	0	0	17.47	2.0148	16.554	2
1114	11.14	0	0	0	0	0	0	0	0	0	0	0	0	0	0	0	0	0	0	0	0	0	0	0	0	0	0	0	0	0	0	1	0	0	17.883	2.027	16.961	0	0	0	0	0	0	10.996	-10.996	19.046	0	0	0	0	-1	0	-2.0278	-17.891	16.968	0	0	0	1	0	0	17.47	2.0148	16.554	0
1115	11.15	0	0	0	0	0	0	0	0	0	0	0	0	0	0	0	0	0	0	0	0	0	0	-1	0	-2.0266	-17.88	16.957	0	0	0	1	0	0	17.883	2.027	16.961	0	0	0	0	0	0	0	0	0	0	0	0	0	0	0	0	0	0	0	0	0	0	0	0	0	0	0	2
1116	11.16	0	0	0	0	0	0	0	0	0	0	0	0	0	0	0	0	0	0	0	0	0	0	0	0	10.989	-10.989	19.033	0	0	0	0	0	0	0	0	0	0	0	0	0	0	0	0	0	0	0	0	0	0	-1	0	-2.0278	-17.891	16.968	0	0	0	1	0	0	17.47	2.0148	16.554	2
1117	11.17	0	0	0	0	0	0	0	0	0	0	0	0	0	0	0	0	0	0	0	0	0	0	0	0	0	0	0	0	0	0	1	0	0	17.883	2.027	16.961	0	0	0	0	0	0	0	0	0	0	0	0	0	-1	0	-2.0278	-17.891	16.968	0	0	0	0	0	0	0	0	0	2
1118	11.18	0	0	0	0	0	0	0	0	0	0	0	0	0	0	0	0	0	0	0	0	0	0	0	0	0	0	0	0	0	0	0	0	0	0	0	0	0	0	0	0	0	0	0	0	0	0	0	0	0	-1	0	-2.0278	-17.891	16.968	0	0	0	0	0	0	10.93	-10.93	18.931	2
1119	11.19	0	0	0	0	0	0	0	0	0	0	0	0	0	0	0	0	0	0	0	0	0	0	0	0	10.989	-10.989	19.033	0	0	0	0	0	0	0	0	0	0	0	0	0	0	0	0	0	0	0	0	0	0	-1	0	-2.0278	-17.891	16.968	0	0	0	0	0	0	0	0	0	2
1120	11.2	0	0	0	0	0	0	0	0	0	0	0	0	0	0	0	0	0	0	0	0	0	0	0	0	0	0	0	0	0	0	0	0	0	0	0	0	0	0	0	0	0	0	10.996	-10.996	19.046	0	0	0	0	-1	0	-2.0278	-17.891	16.968	0	0	0	1	0	0	17.47	2.0148	16.554	2
1121	11.21	0	0	0	0	0	0	0	0	0	0	0	0	0	0	0	0	0	0	0	0	0	0	0	0	10.989	-10.989	19.033	0	0	0	1	-1	0	7.5496	-27.455	31.907	0	0	0	0	0	0	0	0	0	0	0	0	0	-1	0	-2.0278	-17.891	16.968	0	0	0	1	0	0	17.47	2.0148	16.554	0
1122	11.22	0	0	0	0	0	0	0	0	0	0	0	0	0	0	0	0	0	0	0	0	0	0	0	0	0	0	0	0	0	0	0	0	0	0	0	0	0	0	0	0	0	0	0	0	0	0	0	0	0	0	0	0	0	0	0	0	0	1	0	0	17.47	2.0148	16.554	2
1123	11.23	0	0	0	0	0	0	0	0	0	0	0	0	0	0	0	0	0	0	0	0	0	0	0	0	0	0	0	0	0	0	0	0	0	0	0	0	0	0	0	0	0	0	10.996	-10.996	19.046	0	0	0	0	-1	0	-2.0278	-17.891	16.968	0	0	0	1	0	0	17.47	2.0148	16.554	0
1124	11.24	0	0	0	0	0	0	0	0	0	0	0	0	0	0	0	0	0	0	0	0	0	0	0	0	10.989	-10.989	19.033	0	0	0	0	0	0	11.258	-11.253	19.496	0	0	0	0	0	0	0	0	0	0	0	0	0	-1	0	-2.0278	-17.891	16.968	0	0	0	0	0	0	0	0	0	2
1125	11.25	0	0	0	0	0	0	0	0	0	0	0	0	0	0	0	0	0	0	0	0	0	0	0	0	0	0	0	0	0	0	0	0	0	0	0	0	0	0	0	0	-1	0	-2.1508	-17.769	16.797	0	0	0	0	-1	0	-2.0278	-17.891	16.968	0	0	0	1	0	0	17.47	2.0148	16.554	2
1126	11.26	0	0	0	0	0	0	0	0	0	0	0	0	0	0	0	0	0	0	0	0	0	0	0	0	0	0	0	0	0	0	0	0	0	0	0	0	0	0	0	0	0	0	0	0	0	0	0	0	0	0	0	0	0	0	0	0	0	0	0	0	0	0	0	2
1127	11.27	0	0	0	0	0	0	0	0	0	0	0	0	0	0	0	0	0	0	0	0	0	0	0	0	0	0	0	0	0	0	0	-1	0	-2.0265	-17.879	16.957	0	0	0	0	0	0	10.996	-10.996	19.046	0	0	0	0	-1	0	-2.0278	-17.891	16.968	0	0	0	0	0	0	0	0	0	2
1128	11.28	0	0	0	0	0	0	0	0	0	0	0	0	0	0	0	0	0	0	0	0	0	0	0	0	0	0	0	0	0	0	0	0	0	0	0	0	0	0	0	0	0	0	0	0	0	0	0	0	0	-1	0	-2.0278	-17.891	16.968	0	0	0	0	0	0	0	0	0	2
1129	11.29	0	0	0	0	0	0	0	0	0	0	0	0	0	0	0	0	0	0	0	0	0	0	0	0	0	0	0	0	0	0	0	0	0	0	0	0	0	0	0	0	0	0	0	0	0	0	0	0	0	-1	0	-2.0278	-17.891	16.968	0	0	0	1	0	0	17.47	2.0148	16.554	0
1130	11.3	0	0	0	0	0	0	0	0	0	0	0	0	0	0	0	0	0	0	0	0	0	0	0	0	0	0	0	0	0	0	0	-1	0	-2.0265	-17.879	16.957	0	0	0	0	-1	0	-2.1508	-17.769	16.797	0	0	0	0	-1	0	-2.0278	-17.891	16.968	0	0	0	0	0	0	0	0	0	0
1131	11.31	0	0	0	0	0	0	0	0	0	0	0	0	0	0	0	0	0	0	0	0	0	0	0	0	10.989	-10.989	19.033	0	0	0	1	-1	0	7.5496	-27.455	31.907	0	0	0	0	0	0	0	0	0	0	0	0	0	-1	0	-2.0278	-17.891	16.968	0	0	0	0	0	0	0	0	0	2
1132	11.32	0	0	0	0	0	0	0	0	0	0	0	0	0	0	0	0	0	0	0	0	0	0	0	0	0	0	0	0	0	0	0	0	0	0	0	0	0	0	0	0	-1	0	-2.1508	-17.769	16.797	0	0	0	0	-1	0	-2.0278	-17.891	16.968	0	0	0	1	0	0	17.47	2.0148	16.554	0
1133	11.33	0	0	0	0	0	0	0	0	0	0	0	0	0	0	0	0	0	0	0	0	0	0	0	0	0	0	0	0	0	0	0	0	0	0	0	0	0	0	0	0	0	0	0	0	0	0	0	0	0	0	0	0	0	0	0	0	0	0	0	0	0	0	0	2
1134	11.34	0	0	0	0	0	0	0	0	0	0	0	0	0	0	0	0	0	0	0	0	0	0	0	0	0	0	0	0	0	0	1	0	0	17.761	2.1499	16.789	0	0	0	0	0	0	10.996	-10.996	19.046	0	0	0	0	-1	0	-2.0278	-17.891	16.968	0	0	0	1	0	0	17.47	2.0148	16.554	2
1135	11.35	0	0	0	0	0	0	0	0	0	0	0	0	0	0	0	0	0	0	0	0	0	0	0	0	0	0	0	0	0	0	0	-1	0	-2.0265	-17.879	16.957	0	0	0	0	0	0	10.996	-10.996	19.046	0	0	0	0	-1	0	-2.0278	-17.891	16.968	0	0	0	0	0	0	0	0	0	2
1136	11.36	0	0	0	0	0	0	0	0	0	0	0	0	0	0	0	0	0	0	0	0	0	0	0	0	0	0	0	0	0	0	1	0	0	17.883	2.027	16.961	0	0	0	0	0	0	0	0	0	0	0	0	0	-1	0	-2.0278	-17.891	16.968	0	0	0	1	0	0	17.47	2.0148	16.554	2
1137	11.37	0	0	0	0	0	0	0	0	0	0	0	0	0	0	0	0	0	0	0	0	0	0	0	0	0	0	0	0	0	0	0	0	0	0	0	0	0	0	0	0	0	0	0	0	0	0	0	0	1	-1	0	7.5503	-27.469	31.921	0	0	0	0	0	0	0	0	0	0
1138	11.38	0	0	0	0	0	0	0	0	0	0	0	0	0	0	0	0	0	0	0	0	0	0	0	0	0	0	0	0	0	0	0	0	0	10.991	-10.991	19.037	0	0	0	0	-1	0	-2.0279	-17.891	16.969	0	0	0	0	0	0	0	0	0	0	0	0	0	0	0	0	0	0	2
1139	11.39	0	0	0	0	0	0	0	0	0	0	0	0	0	0	0	0	0	0	0	0	0	0	0	0	0	0	0	0	0	0	1	0	0	17.883	2.027	16.961	0	0	0	0	0	0	0	0	0	0	0	0	0	-1	0	-2.0278	-17.891	16.968	0	0	0	0	0	0	0	0	0	0
1140	11.4	0	0	0	0	0	0	0	0	0	0	0	0	0	0	0	0	0	0	0	0	0	0	0	0	0	0	0	0	0	0	0	0	0	0	0	0	0	0	0	0	0	0	10.996	-10.996	19.046	0	0	0	0	-1	0	-2.0278	-17.891	16.968	0	0	0	0	0	0	0	0	0	2
1141	11.41	0	0	0	0	0	0	0	0	0	0	0	0	0	0	0	0	0	0	0	0	0	0	0	0	0	0	0	0	0	0	1	0	0	17.883	2.027	16.961	0	0	0	0	0	0	0	0	0	0	0	0	0	-1	0	-2.0278	-17.891	16.968	0	0	0	1	0	0	17.47	2.0148	16.554	0
1142	11.42	0	0	0	0	0	0	0	0	0	0	0	0	0	0	0	0	0	0	0	0	0	0	0	0	0	0	0	0	0	0	0	0	0	0	0	0	0	0	0	0	-1	0	-2.1508	-17.769	16.797	0	0	0	0	-1	0	-2.0278	-17.891	16.968	0	0	0	1	0	0	17.47	2.0148	16.554	2
1143	11.43	0	0	0	0	0	0	0	0	0	0	0	0	0	0	0	0	0	0	0	0	0	0	0	0	0	0	0	0	0	0	0	0	0	0	0	0	0	0	0	0	0	0	10.996	-10.996	19.046	0	0	0	0	0	0	0	0	0	0	0	0	0	0	0	0	0	0	2
1144	11.44	0	0	0	0	0	0	0	0	0	0	0	0	0	0	0	0	0	0	0	0	0	0	0	0	0	0	0	0	0	0	0	0	0	0	0	0	0	0	0	0	0	0	0	0	0	0	0	0	0	-1	0	-2.0278	-17.891	16.968	0	0	0	1	0	0	17.47	2.0148	16.554	2
1145	11.45	0	0	0	0	0	0	0	0	0	0	0	0	0	0	0	0	0	0	0	0	0	0	0	0	0	0	0	0	0	0	0	0	0	0	0	0	0	0	0	0	-1	0	-2.0279	-17.891	16.969	0	0	0	0	-1	0	-2.0278	-17.891	16.968	0	0	0	0	0	0	0	0	0	0
1146	11.46	0	0	0	0	0	0	0	0	0	0	0	0	0	0	0	0	0	0	0	0	0	0	0	0	0	0	0	0	0	0	1	0	0	17.883	2.027	16.961	0	0	0	0	0	0	10.996	-10.996	19.046	0	0	0	0	-1	0	-2.0278	-17.891	16.968	0	0	0	0	0	0	0	0	0	2
1147	11.47	0	0	0	0	0	0	0	0	0	0	0	0	0	0	0	0	0	0	0	0	0	0	0	0	0	0	0	0	0	0	0	0	0	0	0	0	0	0	0	0	0	0	0	0	0	0	0	0	0	-1	0	-2.0278	-17.891	16.968	0	0	0	1	0	0	17.47	2.0148	16.554	2
1148	11.48	0	0	0	0	0	0	0	0	0	0	0	0	0	0	0	0	0	0	0	0	0	0	0	0	0	0	0	0	0	0	0	0	0	0	0	0	0	0	0	0	-1	0	-2.0279	-17.891	16.969	0	0	0	0	-1	0	-2.0278	-17.891	16.968	0	0	0	0	0	0	0	0	0	2
1149	11.49	0	0	0	0	0	0	0	0	0	0	0	0	0	0	0	0	0	0	0	0	0	0	0	0	0	0	0	0	0	0	1	0	0	17.883	2.027	16.961	0	0	0	0	0	0	0	0	0	0	0	0	0	0	0	0	0	0	0	0	0	1	0	0	17.47	2.0148	16.554	2
1150	11.5	0	0	0	0	0	0	0	0	0	0	0	0	0	0	0	0	0	0	0	0	0	0	0	0	0	0	0	0	0	0	0	0	0	0	0	0	0	0	0	0	0	0	10.996	-10.996	19.046	0	0	0	0	-1	0	-2.0278	-17.891	16.968	0	0	0	0	0	0	0	0	0	2
1151	11.51	0	0	0	0	0	0	10.917	-10.917	18.908	0	0	0	0	0	0	0	0	0	0	0	0	0	0	0	0	0	0	0	0	0	0	0	0	0	0	0	0	0	0	0	0	0	0	0	0	0	0	0	0	0	0	0	0	0	0	0	0	1	0	0	17.47	2.0148	16.554	2
1152	11.52	0	0	0	0	0	0	0	0	0	0	0	0	0	0	0	0	0	0	0	0	0	0	0	0	0	0	0	0	0	0	0	0	0	0	0	0	0	0	0	0	0	0	0	0	0	0	0	0	0	-1	0	-2.0278	-17.891	16.968	0	0	0	1	0	0	17.47	2.0148	16.554	2
1153	11.53	0	0	0	0	0	0	0	0	0	0	0	0	0	0	0	0	0	0	0	0	0	0	0	0	0	0	0	0	0	0	0	0	0	0	0	0	0	0	0	0	-1	0	-2.0279	-17.891	16.969	0	0	0	0	-1	0	-2.0278	-17.891	16.968	0	0	0	0	0	0	0	0	0	2
1154	11.54	0	0	0	0	0	0	0	0	0	0	0	0	0	0	0	0	0	0	0	0	0	0	0	0	0	0	0	0	0	0	0	0	0	0	0	0	0	0	0	0	0	0	0	0	0	0	0	0	0	-1	0	-2.0278	-17.891	16.968	0	0	0	1	0	0	17.47	2.0148	16.554	2
1155	11.55	0	0	0	0	0	0	0	0	0	0	0	0	0	0	0	0	0	0	0	0	0	0	0	0	0	0	0	0	0	0	0	0	0	0	0	0	0	0	0	0	-1	0	-2.0279	-17.891	16.969	0	0	0	0	-1	0	-2.0278	-17.891	16.968	0	0	0	1	0	0	17.47	2.0148	16.554	2
1156	11.56	0	0	0	0	0	0	0	0	0	0	0	0	0	0	0	0	0	0	0	0	0	0	0	0	0	0	0	0	0	0	0	0	0	0	0	0	0	0	0	0	0	0	10.996	-10.996	19.046	0	0	0	0	0	0	0	0	0	0	0	0	1	0	0	17.47	2.0148	16.554	2
1157	11.57	0	0	0	0	0	0	0	0	0	0	0	0	0	0	0	0	0	0	0	0	0	0	0	0	0	0	0	0	0	0	1	0	0	17.883	2.027	16.961	0	0	0	0	0	0	0	0	0	0	0	0	0	0	0	0	0	0	0	0	0	1	0	0	17.47	2.0148	16.554	0
1158	11.58	0	0	0	0	0	0	0	0	0	0	0	0	0	0	0	0	0	0	0	0	0	0	0	0	0	0	0	0	0	0	0	0	0	0	0	0	0	0	0	0	0	0	0	0	0	0	0	0	0	0	0	0	0	0	0	0	0	0	0	0	0	0	0	2
1159	11.59	0	0	0	0	0	0	10.917	-10.917	18.908	0	0	0	0	0	0	0	0	0	0	0	0	0	0	0	0	0	0	0	0	0	1	0	0	17.883	2.027	16.961	0	0	0	0	0	0	0	0	0	0	0	0	0	0	0	0	0	0	0	0	0	1	0	0	17.47	2.0148	16.554	2
1160	11.6	0	0	0	0	0	0	0	0	0	0	0	0	0	0	0	0	0	0	0	0	0	0	0	0	0	0	0	0	0	0	0	0	0	0	0	0	0	0	0	0	0	0	10.996	-10.996	19.046	0	0	0	0	0	0	0	0	0	0	0	0	0	0	0	0	0	0	2
1161	11.61	0	0	0	0	0	0	0	0	0	0	0	0	0	0	0	0	0	0	0	0	0	0	0	0	0	0	0	0	0	0	1	0	0	17.883	2.027	16.961	0	0	0	0	0	0	0	0	0	0	0	0	0	-1	0	-2.0278	-17.891	16.968	0	0	0	1	0	0	17.47	2.0148	16.554	0
1162	11.62	0	0	0	0	0	0	0	0	0	0	0	0	0	0	0	0	0	0	0	0	0	0	0	0	0	0	0	0	0	0	0	0	0	0	0	0	0	0	0	0	-1	0	-2.0279	-17.891	16.969	0	0	0	0	0	0	0	0	0	0	0	0	1	0	0	17.47	2.0148	16.554	2
1163	11.63	0	0	0	0	0	0	0	0	0	0	0	0	0	0	0	0	0	0	0	0	0	0	0	0	0	0	0	0	0	0	0	0	0	0	0	0	0	0	0	0	0	0	0	0	0	0	0	0	0	0	0	0	0	0	0	0	0	1	0	0	17.47	2.0148	16.554	2
1164	11.64	0	0	0	0	0	0	0	0	0	0	0	0	0	0	0	0	0	0	0	0	0	0	0	0	10.989	-10.989	19.033	0	0	0	1	0	0	17.883	2.027	16.961	0	0	0	0	0	0	0	0	0	0	0	0	0	-1	0	-2.0278	-17.891	16.968	0	0	0	1	0	0	17.47	2.0148	16.554	2
1165	11.65	0	0	0	0	0	0	0	0	0	0	0	0	0	0	0	0	0	0	0	0	0	0	0	0	0	0	0	0	0	0	0	-1	0	-2.0265	-17.879	16.957	0	0	0	0	-1	0	-2.1508	-17.769	16.797	0	0	0	0	0	0	0	0	0	0	0	0	0	0	0	0	0	0	2
1166	11.66	0	0	0	0	0	0	0	0	0	0	0	0	0	0	0	0	0	0	0	0	0	0	0	0	0	0	0	0	0	0	1	0	0	17.883	2.027	16.961	0	0	0	0	-1	0	-2.0279	-17.891	16.969	0	0	0	0	0	0	0	0	0	0	0	0	1	0	0	17.47	2.0148	16.554	0
1167	11.67	0	0	0	0	0	0	0	0	0	0	0	0	0	0	0	0	0	0	0	0	0	0	0	0	0	0	0	0	0	0	0	0	0	11.258	-11.253	19.496	0	0	0	0	0	0	10.996	-10.996	19.046	0	0	0	0	0	0	0	0	0	0	0	0	0	0	0	0	0	0	2
1168	11.68	0	0	0	0	0	0	0	0	0	0	0	0	0	0	0	0	0	0	0	0	0	0	0	0	0	0	0	0	0	0	0	0	0	0	0	0	0	0	0	0	0	0	0	0	0	0	0	0	0	0	0	0	0	0	0	0	0	1	0	0	17.47	2.0148	16.554	2
1169	11.69	0	0	0	0	0	0	0	0	0	0	0	0	0	0	0	0	0	0	0	0	0	0	0	0	0	0	0	0	0	0	1	0	0	17.883	2.027	16.961	0	0	0	0	-1	0	-2.1508	-17.769	16.797	0	0	0	0	-1	0	-2.0278	-17.891	16.968	0	0	0	1	0	0	17.47	2.0148	16.554	0
1170	11.7	0	0	0	0	0	0	0	0	0	0	0	0	0	0	0	0	0	0	0	0	0	0	0	0	0	0	0	0	0	0	1	0	0	17.883	2.027	16.961	0	0	0	0	-1	0	-2.0279	-17.891	16.969	0	0	0	0	0	0	0	0	0	0	0	0	1	0	0	17.47	2.0148	16.554	2
1171	11.71	0	0	0	0	0	0	0	0	0	0	0	0	0	0	0	0	0	0	0	0	0	0	0	0	0	0	0	0	0	0	0	0	0	10.991	-10.991	19.037	0	0	0	0	-1	0	-2.0279	-17.891	16.969	0	0	0	0	-1	0	-2.0278	-17.891	16.968	0	0	0	0	0	0	0	0	0	0
1172	11.72	0	0	0	0	0	0	0	0	0	0	0	0	0	-1	0	-2.0372	-17.821	16.895	0	0	0	0	0	0	0	0	0	0	0	0	0	-1	0	-2.0265	-17.879	16.957	0	0	0	0	0	0	0	0	0	0	0	0	0	0	0	0	0	0	0	0	0	1	0	0	17.47	2.0148	16.554	2
1173	11.73	0	0	0	0	0	0	0	0	0	0	0	0	0	0	0	0	0	0	0	0	0	0	0	0	0	0	0	0	0	0	0	0	0	0	0	0	0	0	0	0	0	0	0	0	0	0	0	0	0	-1	0	-2.0278	-17.891	16.968	0	0	0	0	0	0	0	0	0	2
1174	11.74	0	0	0	0	0	0	0	0	0	0	0	0	0	0	0	0	0	0	0	0	0	0	0	0	10.989	-10.989	19.033	0	0	0	0	0	0	10.991	-10.991	19.037	0	0	0	0	0	0	10.996	-10.996	19.046	0	0	0	0	-1	0	-2.0278	-17.891	16.968	0	0	0	1	0	0	30.423	8.5595	27.174	2
1175	11.75	0	0	0	0	0	0	0	0	0	0	0	0	0	0	0	0	0	0	0	0	0	0	0	0	0	0	0	0	0	0	1	0	0	17.883	2.027	16.961	0	0	0	0	-1	0	-2.0279	-17.891	16.969	0	0	0	0	-1	0	-2.0278	-17.891	16.968	0	0	0	0	0	0	0	0	0	2
1176	11.76	0	0	0	0	0	0	0	0	0	0	0	0	0	0	0	0	0	0	0	0	0	0	0	0	0	0	0	0	0	0	1	0	0	17.883	2.027	16.961	0	0	0	0	0	0	10.996	-10.996	19.046	0	0	0	0	0	0	0	0	0	0	0	0	1	0	0	17.47	2.0148	16.554	2
1177	11.77	0	0	0	0	0	0	0	0	0	0	0	0	0	0	0	0	0	0	0	0	0	0	0	0	0	0	0	0	0	0	1	0	0	17.883	2.027	16.961	0	0	0	0	0	0	0	0	0	0	0	0	0	-1	0	-2.0278	-17.891	16.968	0	0	0	1	0	0	17.47	2.0148	16.554	2
1178	11.78	0	0	0	0	0	0	0	0	0	0	0	0	0	0	0	0	0	0	0	0	0	0	0	0	0	0	0	0	0	0	0	0	0	0	0	0	0	0	0	0	0	0	0	0	0	0	0	0	0	-1	0	-2.0278	-17.891	16.968	0	0	0	0	0	0	0	0	0	2
1179	11.79	0	0	0	0	0	0	0	0	0	0	0	0	0	0	0	0	0	0	0	0	0	0	0	0	0	0	0	0	0	0	1	0	0	17.761	2.1499	16.789	0	0	0	0	-1	0	-2.1508	-17.769	16.797	0	0	0	0	-1	0	-2.0278	-17.891	16.968	0	0	0	1	0	0	17.47	2.0148	16.554	2
1180	11.8	0	0	0	0	0	0	0	0	0	0	0	0	0	0	0	0	0	0	0	0	0	0	0	0	0	0	0	0	0	0	0	0	0	0	0	0	0	0	0	0	-1	0	-2.1508	-17.769	16.797	0	0	0	0	0	0	0	0	0	0	0	0	0	0	0	0	0	0	2
1181	11.81	0	0	0	0	0	0	10.917	-10.917	18.908	0	0	0	0	0	0	0	0	0	0	0	0	0	0	0	0	0	0	0	0	0	1	0	0	17.883	2.027	16.961	0	0	0	0	0	0	10.996	-10.996	19.046	0	0	0	0	-1	0	-2.0278	-17.891	16.968	0	0	0	0	0	0	0	0	0	2
1182	11.82	0	0	0	0	0	0	0	0	0	0	0	0	0	0	0	0	0	0	0	0	0	0	0	0	0	0	0	0	0	0	0	0	0	0	0	0	0	0	0	0	0	0	0	0	0	0	0	0	0	-1	0	-2.0278	-17.891	16.968	0	0	0	0	0	0	0	0	0	2
1183	11.83	0	0	0	0	0	0	0	0	0	0	0	0	0	0	0	0	0	0	0	0	0	0	0	0	0	0	0	0	0	0	1	0	0	17.883	2.027	16.961	0	0	0	0	0	0	0	0	0	0	0	0	0	-1	0	-2.0278	-17.891	16.968	0	0	0	1	0	0	17.47	2.0148	16.554	0
1184	11.84	0	0	0	0	0	0	0	0	0	0	0	0	0	0	0	0	0	0	0	0	0	0	0	0	0	0	0	0	0	0	1	0	0	17.883	2.027	16.961	0	0	0	0	0	0	0	0	0	0	0	0	0	0	0	0	0	0	0	0	0	1	0	0	17.47	2.0148	16.554	2
1185	11.85	0	0	0	0	0	0	0	0	0	0	0	0	0	0	0	0	0	0	0	0	0	0	0	0	0	0	0	0	0	0	0	0	0	0	0	0	0	0	0	0	-1	0	-2.1508	-17.769	16.797	0	0	0	0	-1	0	-2.0278	-17.891	16.968	0	0	0	0	0	0	0	0	0	0
1186	11.86	0	0	0	0	0	0	0	0	0	0	0	0	0	0	0	0	0	0	0	0	0	0	0	0	0	0	0	0	0	0	0	0	0	0	0	0	0	0	0	0	0	0	10.996	-10.996	19.046	0	0	0	0	-1	0	-2.0278	-17.891	16.968	0	0	0	1	0	0	17.47	2.0148	16.554	2
1187	11.87	0	0	0	0	0	0	0	0	0	0	0	0	0	0	0	0	0	0	0	0	0	0	0	0	0	0	0	0	0	0	1	0	0	17.883	2.027	16.961	0	0	0	0	0	0	10.996	-10.996	19.046	0	0	0	0	0	0	0	0	0	0	0	0	1	0	0	17.47	2.0148	16.554	2
1188	11.88	0	0	0	0	0	0	0	0	0	0	0	0	0	0	0	0	0	0	0	0	0	0	0	0	0	0	0	0	0	0	0	0	0	11.258	-11.253	19.496	0	0	0	0	-1	0	-2.0279	-17.891	16.969	0	0	0	0	-1	0	-2.0278	-17.891	16.968	0	0	0	1	0	0	17.47	2.0148	16.554	2
1189	11.89	0	0	0	0	0	0	0	0	0	0	0	0	0	0	0	0	0	0	0	0	0	0	0	0	0	0	0	0	0	0	0	0	0	0	0	0	0	0	0	0	-1	0	-2.0279	-17.891	16.969	0	0	0	0	-1	0	-2.0278	-17.891	16.968	0	0	0	1	0	0	17.47	2.0148	16.554	2
1190	11.9	0	0	0	0	0	0	0	0	0	0	0	0	0	0	0	0	0	0	0	0	0	0	0	0	0	0	0	0	0	0	0	0	0	0	0	0	0	0	0	0	-1	0	-2.1508	-17.769	16.797	0	0	0	0	-1	0	-2.0278	-17.891	16.968	0	0	0	0	0	0	0	0	0	2
1191	11.91	0	0	0	0	0	0	0	0	0	0	0	0	0	-1	0	-2.0372	-17.821	16.895	0	0	0	0	0	0	0	0	0	0	0	0	1	0	0	17.883	2.027	16.961	0	0	0	0	0	0	0	0	0	0	0	0	0	-1	0	-2.0278	-17.891	16.968	0	0	0	0	0	0	0	0	0	0
1192	11.92	0	0	0	0	0	0	0	0	0	0	0	0	0	0	0	0	0	0	0	0	0	0	0	0	0	0	0	0	0	0	1	0	0	17.883	2.027	16.961	0	0	0	0	0	0	0	0	0	0	0	0	0	-1	0	-2.0278	-17.891	16.968	0	0	0	0	0	0	0	0	0	2
1193	11.93	0	0	0	0	0	0	0	0	0	0	0	0	0	0	0	0	0	0	0	0	0	0	0	0	0	0	0	0	0	0	0	-1	0	-2.0265	-17.879	16.957	0	0	0	0	0	0	10.996	-10.996	19.046	0	0	0	0	-1	0	-2.0278	-17.891	16.968	0	0	0	0	0	0	0	0	0	2
1194	11.94	0	0	0	0	0	0	0	0	0	0	0	0	0	0	0	0	0	0	0	0	0	0	0	0	0	0	0	0	0	0	0	0	0	0	0	0	0	0	0	0	0	0	0	0	0	0	0	0	0	-1	0	-2.0278	-17.891	16.968	0	0	0	0	0	0	0	0	0	2
1195	11.95	0	0	0	0	0	0	0	0	0	0	0	0	0	0	0	0	0	0	0	0	0	0	0	0	0	0	0	0	0	0	0	0	0	0	0	0	0	0	0	0	0	0	10.996	-10.996	19.046	0	0	0	0	-1	0	-2.0278	-17.891	16.968	0	0	0	0	0	0	0	0	0	2
1196	11.96	0	0	0	0	0	0	0	0	0	0	0	0	0	0	0	0	0	0	0	0	0	0	0	0	0	0	0	0	0	0	0	0	0	0	0	0	0	0	0	0	-1	0	-2.0279	-17.891	16.969	0	0	0	0	-1	0	-2.0278	-17.891	16.968	0	0	0	1	0	0	17.47	2.0148	16.554	2
1197	11.97	0	0	0	0	0	0	0	0	0	0	0	0	0	0	0	0	0	0	0	0	0	0	0	0	0	0	0	0	0	0	1	0	0	17.883	2.027	16.961	0	0	0	0	0	0	0	0	0	0	0	0	0	-1	0	-2.0278	-17.891	16.968	0	0	0	1	0	0	17.47	2.0148	16.554	2
1198	11.98	0	0	0	0	0	0	0	0	0	0	0	0	0	0	0	0	0	0	0	0	0	0	0	0	0	0	0	0	0	0	0	0	0	0	0	0	0	0	0	0	0	0	0	0	0	0	0	0	0	-1	0	-2.0278	-17.891	16.968	0	0	0	0	0	0	0	0	0	2
1199	11.99	0	0	0	0	0	0	0	0	0	0	0	0	0	0	0	0	0	0	0	0	0	0	0	0	0	0	0	0	0	0	0	0	0	10.991	-10.991	19.037	0	0	0	0	0	0	0	0	0	0	0	0	0	-1	0	-2.0278	-17.891	16.968	0	0	0	0	0	0	0	0	0	2
1200	12	0	0	0	0	0	0	0	0	0	0	0	0	0	0	0	0	0	0	0	0	0	0	0	0	0	0	0	0	0	0	1	0	0	17.883	2.027	16.961	0	0	0	0	-1	0	-2.0279	-17.891	16.969	0	0	0	0	-1	0	-2.0278	-17.891	16.968	0	0	0	1	0	0	17.47	2.0148	16.554	2
1201	12.01	0	0	0	0	0	0	0	0	0	0	0	0	0	0	0	0	0	0	0	0	0	0	0	0	0	0	0	0	0	0	0	0	0	0	0	0	0	0	0	0	-1	0	-2.0279	-17.891	16.969	0	0	0	0	-1	0	-2.0278	-17.891	16.968	0	0	0	0	0	0	0	0	0	2
1202	12.02	0	0	0	0	0	0	0	0	0	0	0	0	0	0	0	0	0	0	0	0	0	0	0	0	0	0	0	0	0	0	0	0	0	0	0	0	0	0	0	0	0	0	10.996	-10.996	19.046	0	0	0	0	-1	0	-2.0278	-17.891	16.968	0	0	0	1	0	0	17.47	2.0148	16.554	2
1203	12.03	0	0	0	0	0	0	0	0	0	0	0	0	0	0	0	0	0	0	0	0	0	0	0	0	0	0	0	0	0	0	0	-1	0	-2.0265	-17.879	16.957	0	0	0	0	-1	0	-2.0279	-17.891	16.969	0	0	0	0	-1	0	-2.0278	-17.891	16.968	0	0	0	0	0	0	0	0	0	2
1204	12.04	0	0	0	0	0	0	0	0	0	0	0	0	0	0	0	0	0	0	0	0	0	0	0	0	0	0	0	0	0	0	1	0	0	17.883	2.027	16.961	0	0	0	0	0	0	10.996	-10.996	19.046	0	0	0	0	0	0	0	0	0	0	0	0	1	0	0	17.47	2.0148	16.554	2
1205	12.05	0	0	0	0	0	0	0	0	0	0	0	0	0	0	0	0	0	0	0	0	0	0	0	0	0	0	0	0	0	0	0	-1	0	-2.0265	-17.879	16.957	0	0	0	0	-1	0	-2.0279	-17.891	16.969	0	0	0	0	-1	0	-2.0278	-17.891	16.968	0	0	0	0	0	0	0	0	0	0
1206	12.06	0	0	0	0	0	0	0	0	0	0	0	0	0	0	0	0	0	0	0	0	0	0	0	0	0	0	0	0	0	0	1	0	0	17.883	2.027	16.961	0	0	0	0	0	0	0	0	0	0	0	0	0	0	0	0	0	0	0	0	0	0	0	0	0	0	0	2
1207	12.07	0	0	0	0	0	0	0	0	0	0	0	0	0	0	0	0	0	0	0	0	0	0	0	0	0	0	0	0	0	0	1	0	0	17.883	2.027	16.961	0	0	0	0	0	0	0	0	0	0	0	0	0	-1	0	-2.0278	-17.891	16.968	0	0	0	1	0	0	17.47	2.0148	16.554	2
1208	12.08	0	0	0	0	0	0	0	0	0	0	0	0	0	0	0	0	0	0	0	0	0	0	0	0	0	0	0	0	0	0	0	0	0	0	0	0	0	0	0	0	0	0	0	0	0	0	0	0	0	0	0	0	0	0	0	0	0	0	0	0	0	0	0	2
1209	12.09	0	0	0	0	0	0	0	0	0	0	0	0	0	0	0	0	0	0	0	0	0	0	0	0	0	0	0	0	0	0	1	0	0	17.883	2.027	16.961	0	0	0	0	0	0	0	0	0	0	0	0	0	-1	0	-2.0278	-17.891	16.968	0	0	0	1	0	0	17.47	2.0148	16.554	2
1210	12.1	0	0	0	0	0	0	0	0	0	0	0	0	0	0	0	0	0	0	0	0	0	0	0	0	0	0	0	0	0	0	0	0	0	0	0	0	0	0	0	0	0	0	10.996	-10.996	19.046	0	0	0	0	-1	0	-2.0278	-17.891	16.968	0	0	0	0	0	0	0	0	0	2
1211	12.11	0	0	0	0	0	0	0	0	0	0	0	0	0	0	0	0	0	0	0	0	0	0	0	0	0	0	0	0	0	0	1	0	0	17.883	2.027	16.961	0	0	0	0	0	0	10.996	-10.996	19.046	0	0	0	0	0	0	0	0	0	0	0	0	0	0	0	0	0	0	2
1212	12.12	0	0	0	0	0	0	0	0	0	0	0	0	0	0	0	0	0	0	0	0	0	0	0	0	0	0	0	0	0	0	0	0	0	0	0	0	0	0	0	0	-1	0	-2.0279	-17.891	16.969	0	0	0	0	-1	0	-2.0278	-17.891	16.968	0	0	0	1	0	0	17.47	2.0148	16.554	2
1213	12.13	0	0	0	0	0	0	0	0	0	0	0	0	0	0	0	0	0	0	0	0	0	0	0	0	10.989	-10.989	19.033	0	0	0	0	0	0	0	0	0	0	0	0	0	-1	0	-2.1508	-17.769	16.797	0	0	0	0	0	0	0	0	0	0	0	0	0	0	0	0	0	0	0
1214	12.14	0	0	0	0	0	0	0	0	0	0	0	0	0	0	0	0	0	0	0	0	0	0	0	0	0	0	0	0	0	0	1	0	0	17.761	2.1499	16.789	0	0	0	0	0	0	0	0	0	0	0	0	0	-1	0	-2.0278	-17.891	16.968	0	0	0	1	0	0	17.47	2.0148	16.554	2
1215	12.15	0	0	0	0	0	0	0	0	0	0	0	0	0	0	0	0	0	0	0	0	0	0	0	0	0	0	0	0	0	0	1	0	0	17.883	2.027	16.961	0	0	0	0	0	0	0	0	0	0	0	0	0	-1	0	-2.0278	-17.891	16.968	0	0	0	0	0	0	0	0	0	0
1216	12.16	0	0	0	0	0	0	0	0	0	0	0	0	0	0	0	0	0	0	0	0	0	0	0	0	0	0	0	0	0	0	1	0	0	17.883	2.027	16.961	0	0	0	0	0	0	0	0	0	0	0	0	0	0	0	0	0	0	0	0	0	1	0	0	17.47	2.0148	16.554	2
1217	12.17	0	0	0	0	0	0	0	0	0	0	0	0	0	0	0	0	0	0	0	0	0	0	0	0	0	0	0	0	0	0	1	0	0	17.883	2.027	16.961	0	0	0	0	0	0	10.996	-10.996	19.046	0	0	0	0	-1	0	-2.0278	-17.891	16.968	0	0	0	1	0	0	17.47	2.0148	16.554	0
1218	12.18	0	0	0	0	0	0	0	0	0	0	0	0	0	-1	0	-2.0372	-17.821	16.895	0	0	0	0	0	0	0	0	0	0	0	0	0	0	0	0	0	0	0	0	0	0	-1	0	-2.0279	-17.891	16.969	0	0	0	0	-1	0	-2.0278	-17.891	16.968	0	0	0	0	0	0	0	0	0	2
1219	12.19	0	0	0	0	0	0	0	0	0	0	0	0	0	0	0	0	0	0	0	0	0	0	0	0	0	0	0	0	0	0	0	0	0	0	0	0	0	0	0	0	0	0	0	0	0	0	0	0	0	0	0	0	0	0	0	0	0	1	0	0	17.47	2.0148	16.554	2
1220	12.2	0	0	0	0	0	0	0	0	0	0	0	0	0	0	0	0	0	0	0	0	0	0	0	0	0	0	0	0	0	0	1	0	0	17.883	2.027	16.961	0	0	0	0	0	0	10.996	-10.996	19.046	0	0	0	0	-1	0	-2.0278	-17.891	16.968	0	0	0	0	0	0	0	0	0	2
1221	12.21	0	0	0	0	0	0	0	0	0	0	0	0	0	0	0	0	0	0	0	0	0	0	0	0	10.989	-10.989	19.033	0	0	0	1	0	0	17.883	2.027	16.961	0	0	0	0	0	0	0	0	0	0	0	0	0	-1	0	-2.0278	-17.891	16.968	0	0	0	1	0	0	17.47	2.0148	16.554	0
1222	12.22	0	0	0	0	0	0	0	0	0	0	0	0	0	0	0	0	0	0	0	0	0	0	0	0	0	0	0	0	0	0	1	0	0	17.761	2.1499	16.789	0	0	0	0	0	0	0	0	0	0	0	0	0	0	0	0	0	0	0	0	0	1	0	0	17.47	2.0148	16.554	2
1223	12.23	0	0	0	0	0	0	0	0	0	0	0	0	0	0	0	0	0	0	0	0	0	0	0	0	0	0	0	0	0	0	1	0	0	17.761	2.1499	16.789	0	0	0	0	0	0	10.996	-10.996	19.046	0	0	0	0	-1	0	-2.0278	-17.891	16.968	0	0	0	0	0	0	0	0	0	2
1224	12.24	0	0	0	0	0	0	0	0	0	0	0	0	0	0	0	0	0	0	0	0	0	0	0	0	0	0	0	0	0	0	1	0	0	17.883	2.027	16.961	0	0	0	0	0	0	0	0	0	0	0	0	0	-1	0	-2.0278	-17.891	16.968	0	0	0	1	0	0	30.423	8.5595	27.174	2
1225	12.25	0	0	0	0	0	0	0	0	0	0	0	0	0	0	0	0	0	0	0	0	0	0	0	0	10.989	-10.989	19.033	0	0	0	0	0	0	0	0	0	0	0	0	0	0	0	10.996	-10.996	19.046	0	0	0	0	-1	0	-2.0278	-17.891	16.968	0	0	0	1	0	0	17.47	2.0148	16.554	2
1226	12.26	0	0	0	0	0	0	0	0	0	0	0	0	0	0	0	0	0	0	0	0	0	0	0	0	0	0	0	0	0	0	1	0	0	17.761	2.1499	16.789	0	0	0	0	-1	0	-2.0279	-17.891	16.969	0	0	0	0	-1	0	-2.0278	-17.891	16.968	0	0	0	0	0	0	0	0	0	2
1227	12.27	0	0	0	0	0	0	0	0	0	0	0	0	0	0	0	0	0	0	0	0	0	0	0	0	0	0	0	0	0	0	1	0	0	17.761	2.1499	16.789	0	0	0	0	0	0	10.996	-10.996	19.046	0	0	0	0	0	0	0	0	0	0	0	0	1	0	0	17.47	2.0148	16.554	2
1228	12.28	0	0	0	0	0	0	0	0	0	0	0	0	0	0	0	0	0	0	0	0	0	0	0	0	0	0	0	0	0	0	0	0	0	0	0	0	0	0	0	0	0	0	0	0	0	0	0	0	0	-1	0	-2.0278	-17.891	16.968	0	0	0	0	0	0	0	0	0	2
1229	12.29	0	0	0	0	0	0	0	0	0	0	0	0	0	0	0	0	0	0	0	0	0	0	0	0	0	0	0	0	0	0	0	0	0	10.991	-10.991	19.037	0	0	0	0	0	0	0	0	0	0	0	0	0	-1	0	-2.0278	-17.891	16.968	0	0	0	1	0	0	17.471	2.0135	16.556	2
1230	12.3	0	0	0	0	0	0	0	0	0	0	0	0	0	0	0	0	0	0	0	0	0	0	0	0	0	0	0	0	0	0	0	0	0	0	0	0	0	0	0	0	-1	0	-2.1508	-17.769	16.797	0	0	0	0	-1	0	-2.0278	-17.891	16.968	0	0	0	0	0	0	0	0	0	2
1231	12.31	0	0	0	0	0	0	0	0	0	0	0	0	0	0	0	0	0	0	0	0	0	0	0	0	0	0	0	0	0	0	0	0	0	0	0	0	0	0	0	0	-1	0	-2.0279	-17.891	16.969	0	0	0	0	-1	0	-2.0278	-17.891	16.968	0	0	0	1	0	0	17.47	2.0148	16.554	2
1232	12.32	0	0	0	0	0	0	0	0	0	0	0	0	0	0	0	0	0	0	0	0	0	0	0	0	0	0	0	0	0	0	1	0	0	17.761	2.1499	16.789	0	0	0	0	0	0	0	0	0	0	0	0	0	0	0	0	0	0	0	0	0	0	0	0	0	0	0	2
1233	12.33	0	0	0	0	0	0	0	0	0	0	0	0	0	-1	0	-2.0372	-17.821	16.895	0	0	0	0	0	0	0	0	0	0	0	0	0	0	0	0	0	0	0	0	0	0	0	0	0	0	0	0	0	0	0	-1	0	-2.0278	-17.891	16.968	0	0	0	0	0	0	0	0	0	2
1234	12.34	0	0	0	0	0	0	0	0	0	0	0	0	0	0	0	0	0	0	0	0	0	0	0	0	0	0	0	0	0	0	0	0	0	0	0	0	0	0	0	0	0	0	0	0	0	0	0	0	0	-1	0	-2.0278	-17.891	16.968	0	0	0	1	0	0	17.47	2.0148	16.554	2
1235	12.35	0	0	0	0	0	0	0	0	0	0	0	0	0	-1	0	-2.0366	-17.816	16.89	0	0	0	0	0	0	0	0	0	0	0	0	1	0	0	17.883	2.027	16.961	0	0	0	0	0	0	0	0	0	0	0	0	0	-1	0	-2.0278	-17.891	16.968	0	0	0	0	0	0	0	0	0	2
1236	12.36	0	0	0	0	0	0	0	0	0	0	0	0	0	0	0	0	0	0	0	0	0	0	0	0	0	0	0	0	0	0	0	0	0	0	0	0	0	0	0	0	0	0	0	0	0	0	0	0	0	-1	0	-2.0278	-17.891	16.968	0	0	0	0	0	0	0	0	0	0
1237	12.37	0	0	0	0	0	0	0	0	0	0	0	0	0	0	0	0	0	0	0	0	0	0	0	0	0	0	0	0	0	0	0	0	0	10.991	-10.991	19.037	0	0	0	0	-1	0	-2.1508	-17.769	16.797	0	0	0	0	-1	0	-2.0278	-17.891	16.968	0	0	0	1	0	0	17.47	2.0148	16.554	2
1238	12.38	0	0	0	0	0	0	0	0	0	0	0	0	0	0	0	0	0	0	0	0	0	0	0	0	0	0	0	0	0	0	0	0	0	0	0	0	0	0	0	0	0	0	0	0	0	0	0	0	0	-1	0	-2.0278	-17.891	16.968	0	0	0	1	0	0	17.47	2.0148	16.554	0
1239	12.39	0	0	0	0	0	0	10.917	-10.917	18.908	0	0	0	0	0	0	0	0	0	0	0	0	0	0	0	0	0	0	0	0	0	0	0	0	0	0	0	0	0	0	0	0	0	0	0	0	0	0	0	0	-1	0	-2.0278	-17.891	16.968	0	0	0	0	0	0	0	0	0	2
1240	12.4	0	0	0	0	0	0	0	0	0	0	0	0	0	0	0	0	0	0	0	0	0	0	0	0	0	0	0	0	0	0	0	0	0	10.991	-10.991	19.037	0	0	0	0	-1	0	-2.1508	-17.769	16.797	0	0	0	0	-1	0	-2.0278	-17.891	16.968	0	0	0	1	0	0	17.47	2.0148	16.554	0
1241	12.41	0	0	0	0	0	0	0	0	0	0	0	0	0	0	0	0	0	0	0	0	0	0	0	0	0	0	0	0	0	0	1	0	0	17.883	2.027	16.961	0	0	0	0	0	0	0	0	0	0	0	0	0	-1	0	-2.0278	-17.891	16.968	0	0	0	0	0	0	0	0	0	0
1242	12.42	0	0	0	0	0	0	0	0	0	0	0	0	0	0	0	0	0	0	0	0	0	0	0	0	0	0	0	0	0	0	0	0	0	10.991	-10.991	19.037	0	0	0	0	0	0	0	0	0	0	0	0	0	-1	0	-2.0278	-17.891	16.968	0	0	0	0	0	0	0	0	0	2
1243	12.43	0	0	0	0	0	0	0	0	0	0	0	0	0	0	0	0	0	0	0	0	0	0	0	0	0	0	0	0	0	0	0	0	0	0	0	0	0	0	0	0	0	0	0	0	0	0	0	0	0	0	0	0	0	0	0	0	0	0	0	0	0	0	0	0
1244	12.44	0	0	0	0	0	0	0	0	0	0	0	0	0	0	0	0	0	0	0	0	0	0	0	0	10.989	-10.989	19.033	0	0	0	0	0	0	10.991	-10.991	19.037	0	0	0	0	0	0	0	0	0	0	0	0	0	-1	0	-2.0278	-17.891	16.968	0	0	0	1	0	0	17.47	2.0148	16.554	2
1245	12.45	0	0	0	0	0	0	0	0	0	0	0	0	0	0	0	0	0	0	0	0	0	0	0	0	0	0	0	0	0	0	0	0	0	0	0	0	0	0	0	0	0	0	0	0	0	0	0	0	0	-1	0	-2.0278	-17.891	16.968	0	0	0	0	0	0	0	0	0	2
1246	12.46	0	0	0	0	0	0	0	0	0	0	0	0	0	0	0	0	0	0	0	0	0	0	0	0	0	0	0	0	0	0	0	0	0	0	0	0	0	0	0	0	0	0	10.996	-10.996	19.046	0	0	0	0	0	0	0	0	0	0	0	0	1	0	0	17.47	2.0148	16.554	2
1247	12.47	0	0	0	0	0	0	0	0	0	0	0	0	0	0	0	0	0	0	0	0	0	0	0	0	0	0	0	0	0	0	0	0	0	10.991	-10.991	19.037	0	0	0	0	0	0	0	0	0	0	0	0	0	0	0	0	0	0	0	0	0	1	0	0	17.47	2.0148	16.554	2
1248	12.48	0	0	0	0	0	0	0	0	0	0	0	0	0	0	0	0	0	0	0	0	0	0	0	0	0	0	0	0	0	0	0	0	0	0	0	0	0	0	0	0	0	0	0	0	0	0	0	0	0	-1	0	-2.0278	-17.891	16.968	0	0	0	0	0	0	0	0	0	2
1249	12.49	0	0	0	0	0	0	0	0	0	0	0	0	0	0	0	0	0	0	0	0	0	0	0	0	0	0	0	0	0	0	0	0	0	10.991	-10.991	19.037	0	0	0	0	0	0	0	0	0	0	0	0	0	0	0	0	0	0	0	0	0	1	0	0	17.47	2.0148	16.554	0
1250	12.5	0	0	0	0	0	0	0	0	0	0	0	0	0	-1	0	-2.0372	-17.821	16.895	0	0	0	0	0	0	0	0	0	0	0	0	0	0	0	0	0	0	0	0	0	0	0	0	0	0	0	0	0	0	0	-1	0	-2.0278	-17.891	16.968	0	0	0	0	0	0	0	0	0	2
1251	12.51	0	0	0	0	0	0	0	0	0	0	0	0	0	0	0	0	0	0	0	0	0	0	0	0	0	0	0	0	0	0	1	0	0	17.883	2.027	16.961	0	0	0	0	0	0	10.996	-10.996	19.046	0	0	0	0	-1	0	-2.0278	-17.891	16.968	0	0	0	1	0	0	17.47	2.0148	16.554	2
1252	12.52	0	0	0	0	0	0	0	0	0	0	0	0	0	0	0	0	0	0	0	0	0	0	0	0	0	0	0	0	0	0	0	0	0	0	0	0	0	0	0	0	0	0	0	0	0	0	0	0	0	-1	0	-2.0278	-17.891	16.968	0	0	0	1	0	0	17.47	2.0148	16.554	2
1253	12.53	0	0	0	0	0	0	0	0	0	0	0	0	0	0	0	0	0	0	0	0	0	0	0	0	0	0	0	0	0	0	0	0	0	0	0	0	0	0	0	0	0	0	10.996	-10.996	19.046	0	0	0	0	-1	0	-2.0278	-17.891	16.968	0	0	0	0	0	0	0	0	0	2
1254	12.54	0	0	0	0	0	0	0	0	0	0	0	0	0	0	0	0	0	0	0	0	0	0	0	0	0	0	0	0	0	0	0	0	0	0	0	0	0	0	0	0	0	0	0	0	0	0	0	0	0	-1	0	-2.0278	-17.891	16.968	0	0	0	1	0	0	17.47	2.0148	16.554	2
1255	12.55	0	0	0	0	0	0	0	0	0	0	0	0	0	0	0	0	0	0	0	0	0	0	0	0	0	0	0	0	0	0	0	0	0	0	0	0	0	0	0	0	-1	0	-2.0279	-17.891	16.969	0	0	0	0	-1	0	-2.0278	-17.891	16.968	0	0	0	0	0	0	0	0	0	2
1256	12.56	0	0	0	0	0	0	0	0	0	0	0	0	0	0	0	0	0	0	0	0	0	0	0	0	0	0	0	0	0	0	0	0	0	0	0	0	0	0	0	0	0	0	0	0	0	0	0	0	0	-1	0	-2.0278	-17.891	16.968	0	0	0	0	0	0	0	0	0	2
1257	12.57	0	0	0	0	0	0	0	0	0	0	0	0	0	0	0	0	0	0	0	0	0	0	0	0	0	0	0	0	0	0	0	0	0	10.991	-10.991	19.037	0	0	0	0	0	0	0	0	0	0	0	0	0	-1	0	-2.0278	-17.891	16.968	0	0	0	0	0	0	0	0	0	2
1258	12.58	0	0	0	0	0	0	0	0	0	0	0	0	0	0	0	0	0	0	0	0	0	0	0	0	0	0	0	0	0	0	1	0	0	17.883	2.027	16.961	0	0	0	0	0	0	0	0	0	0	0	0	0	-1	0	-2.0278	-17.891	16.968	0	0	0	0	0	0	0	0	0	2
1259	12.59	0	0	0	0	0	0	0	0	0	0	0	0	0	0	0	0	0	0	0	0	0	0	0	0	0	0	0	0	0	0	0	0	0	0	0	0	0	0	0	0	0	0	0	0	0	0	0	0	0	-1	0	-2.0278	-17.891	16.968	0	0	0	1	0	0	17.47	2.0148	16.554	2
1260	12.6	0	0	0	0	0	0	0	0	0	0	0	0	0	0	0	0	0	0	0	0	0	0	0	0	0	0	0	0	0	0	0	0	0	0	0	0	0	0	0	0	0	0	10.996	-10.996	19.046	0	0	0	0	0	0	0	0	0	0	0	0	0	0	0	0	0	0	2
1261	12.61	0	0	0	0	0	0	0	0	0	0	0	0	0	0	0	0	0	0	0	0	0	0	0	0	0	0	0	0	0	0	0	0	0	0	0	0	0	0	0	0	0	0	0	0	0	0	0	0	0	0	0	0	0	0	0	0	0	0	0	0	0	0	0	2
1262	12.62	0	0	0	0	0	0	0	0	0	0	0	0	0	0	0	0	0	0	0	0	0	0	0	0	0	0	0	0	0	0	0	0	0	0	0	0	0	0	0	0	-1	0	-2.0279	-17.891	16.969	0	0	0	0	-1	0	-2.0278	-17.891	16.968	0	0	0	0	0	0	0	0	0	0
1263	12.63	0	0	0	0	0	0	0	0	0	0	0	0	0	0	0	0	0	0	0	0	0	0	0	0	0	0	0	0	0	0	0	0	0	0	0	0	0	0	0	0	0	0	0	0	0	0	0	0	0	0	0	0	0	0	0	0	0	0	0	0	0	0	0	2
1264	12.64	0	0	0	0	0	0	0	0	0	0	0	0	0	0	0	0	0	0	0	0	0	0	0	0	0	0	0	0	0	0	1	0	0	17.883	2.027	16.961	0	0	0	0	0	0	0	0	0	0	0	0	0	-1	0	-2.0278	-17.891	16.968	0	0	0	1	0	0	17.47	2.0148	16.554	0
1265	12.65	0	0	0	0	0	0	0	0	0	0	0	0	0	0	0	0	0	0	0	0	0	0	0	0	0	0	0	0	0	0	0	0	0	0	0	0	0	0	0	0	0	0	0	0	0	0	0	0	0	-1	0	-2.0278	-17.891	16.968	0	0	0	0	0	0	0	0	0	2
1266	12.66	0	0	0	0	0	0	0	0	0	0	0	0	0	0	0	0	0	0	0	0	0	0	0	0	0	0	0	0	0	0	1	0	0	17.883	2.027	16.961	0	0	0	0	0	0	0	0	0	0	0	0	0	-1	0	-2.0278	-17.891	16.968	0	0	0	1	0	0	17.47	2.0148	16.554	2
1267	12.67	0	0	0	0	0	0	0	0	0	0	0	0	0	0	0	0	0	0	0	0	0	0	0	0	0	0	0	0	0	0	0	0	0	0	0	0	0	0	0	0	0	0	0	0	0	0	0	0	0	-1	0	-2.0278	-17.891	16.968	0	0	0	0	0	0	10.93	-10.93	18.931	2
1268	12.68	0	0	0	0	0	0	0	0	0	0	0	0	0	0	0	0	0	0	0	0	0	0	0	0	0	0	0	0	0	0	0	0	0	0	0	0	0	0	0	0	0	0	10.996	-10.996	19.046	0	0	0	0	-1	0	-2.0278	-17.891	16.968	0	0	0	1	0	0	17.47	2.0148	16.554	2
1269	12.69	0	0	0	0	0	0	0	0	0	0	0	0	0	0	0	0	0	0	0	0	0	0	0	0	0	0	0	0	0	0	0	0	0	0	0	0	0	0	0	0	0	0	0	0	0	0	0	0	0	-1	0	-2.0278	-17.891	16.968	0	0	0	0	0	0	0	0	0	2
1270	12.7	0	0	0	0	0	0	0	0	0	0	0	0	0	0	0	0	0	0	0	0	0	0	0	0	0	0	0	0	0	0	0	0	0	0	0	0	0	0	0	0	-1	0	-2.0279	-17.891	16.969	0	0	0	0	-1	0	-2.0278	-17.891	16.968	0	0	0	0	0	0	0	0	0	2
1271	12.71	0	0	0	0	0	0	0	0	0	0	0	0	0	0	0	0	0	0	0	0	0	0	0	0	0	0	0	0	0	0	0	0	0	10.991	-10.991	19.037	0	0	0	0	0	0	0	0	0	0	0	0	0	-1	0	-2.0278	-17.891	16.968	0	0	0	1	0	0	17.47	2.0148	16.554	2
1272	12.72	0	0	0	0	0	0	0	0	0	0	0	0	0	0	0	0	0	0	0	0	0	0	0	0	0	0	0	0	0	0	1	0	0	17.761	2.1499	16.789	0	0	0	0	0	0	0	0	0	0	0	0	0	-1	0	-2.0278	-17.891	16.968	0	0	0	1	0	0	17.47	2.0148	16.554	2
1273	12.73	0	0	0	0	0	0	0	0	0	0	0	0	0	0	0	0	0	0	0	0	0	0	0	0	0	0	0	0	0	0	0	0	0	0	0	0	0	0	0	0	-1	0	-2.1508	-17.769	16.797	0	0	0	0	0	0	0	0	0	0	0	0	1	0	0	17.47	2.0148	16.554	2
1274	12.74	0	0	0	0	0	0	0	0	0	0	0	0	0	0	0	0	0	0	0	0	0	0	0	0	0	0	0	0	0	0	0	0	0	10.991	-10.991	19.037	0	0	0	0	-1	0	-2.0279	-17.891	16.969	0	0	0	0	-1	0	-2.0278	-17.891	16.968	0	0	0	1	0	0	17.47	2.0148	16.554	2
1275	12.75	0	0	0	0	0	0	0	0	0	0	0	0	0	0	0	0	0	0	0	0	0	0	0	0	0	0	0	0	0	0	0	0	0	0	0	0	0	0	0	0	-1	0	-2.1508	-17.769	16.797	0	0	0	0	0	0	0	0	0	0	0	0	1	0	0	17.47	2.0148	16.554	2
1276	12.76	0	0	0	0	0	0	0	0	0	0	0	0	0	0	0	0	0	0	0	0	0	0	0	0	0	0	0	0	0	0	0	0	0	0	0	0	0	0	0	0	-1	0	-2.0279	-17.891	16.969	0	0	0	0	-1	0	-2.0278	-17.891	16.968	0	0	0	1	0	0	17.47	2.0148	16.554	2
1277	12.77	0	0	0	0	0	0	0	0	0	0	0	0	0	0	0	0	0	0	0	0	0	0	0	0	0	0	0	0	0	0	0	0	0	0	0	0	0	0	0	0	-1	0	-2.0279	-17.891	16.969	0	0	0	0	0	0	0	0	0	0	0	0	0	0	0	0	0	0	2
1278	12.78	0	0	0	0	0	0	0	0	0	0	0	0	0	0	0	0	0	0	0	0	0	0	0	0	0	0	0	0	0	0	0	0	0	0	0	0	0	0	0	0	0	0	0	0	0	0	0	0	0	-1	0	-2.0278	-17.891	16.968	0	0	0	1	0	0	17.47	2.0148	16.554	2
1279	12.79	0	0	0	0	0	0	0	0	0	0	0	0	0	0	0	0	0	0	0	0	0	0	0	0	0	0	0	0	0	0	0	0	0	10.991	-10.991	19.037	0	0	0	0	0	0	0	0	0	0	0	0	0	0	0	0	0	0	0	0	0	1	0	0	17.47	2.0148	16.554	2
1280	12.8	0	0	0	0	0	0	0	0	0	0	0	0	0	0	0	0	0	0	0	0	0	0	0	0	0	0	0	0	0	0	0	0	0	0	0	0	0	0	0	0	-1	0	-2.0279	-17.891	16.969	0	0	0	0	-1	0	-2.0278	-17.891	16.968	0	0	0	0	0	0	0	0	0	2
1281	12.81	0	0	0	0	0	0	0	0	0	0	0	0	0	0	0	0	0	0	0	0	0	0	0	0	0	0	0	0	0	0	0	0	0	0	0	0	0	0	0	0	0	0	0	0	0	0	0	0	0	0	0	10.994	-10.994	19.042	0	0	0	0	0	0	0	0	0	2
1282	12.82	0	0	0	0	0	0	0	0	0	0	0	0	0	0	0	0	0	0	0	0	0	0	0	0	0	0	0	0	0	0	0	0	0	0	0	0	0	0	0	0	0	0	11.255	-11.264	19.502	0	0	0	0	-1	0	-2.0278	-17.891	16.968	0	0	0	1	0	0	17.47	2.0148	16.554	2
1283	12.83	0	0	0	0	0	0	0	0	0	0	0	0	0	0	0	0	0	0	0	0	0	0	0	0	0	0	0	0	0	0	1	0	0	17.883	2.027	16.961	0	0	0	0	-1	0	-2.0279	-17.891	16.969	0	0	0	0	-1	0	-2.0278	-17.891	16.968	0	0	0	0	0	0	0	0	0	2
1284	12.84	0	0	0	0	0	0	0	0	0	0	0	0	0	0	0	0	0	0	0	0	0	0	0	0	0	0	0	0	0	0	0	0	0	0	0	0	0	0	0	0	0	0	0	0	0	0	0	0	0	0	0	0	0	0	0	0	0	1	0	0	17.47	2.0148	16.554	2
1285	12.85	0	0	0	0	0	0	0	0	0	0	0	0	0	0	0	0	0	0	0	0	0	0	0	0	0	0	0	0	0	0	1	0	0	17.883	2.027	16.961	0	0	0	0	0	0	0	0	0	0	0	0	0	-1	0	-2.0278	-17.891	16.968	0	0	0	0	0	0	0	0	0	2
1286	12.86	0	0	0	0	0	0	0	0	0	0	0	0	0	0	0	0	0	0	0	0	0	0	0	0	0	0	0	0	0	0	1	0	0	17.883	2.027	16.961	0	0	0	0	-1	0	-2.0279	-17.891	16.969	0	0	0	0	-1	0	-2.0278	-17.891	16.968	0	0	0	1	0	0	17.47	2.0148	16.554	2
1287	12.87	0	0	0	0	0	0	0	0	0	0	0	0	0	0	0	0	0	0	0	0	0	0	0	0	0	0	0	0	0	0	0	0	0	0	0	0	0	0	0	0	0	0	0	0	0	0	0	0	0	0	0	0	0	0	0	0	0	1	0	0	17.47	2.0148	16.554	2
1288	12.88	0	0	0	0	0	0	0	0	0	0	0	0	0	0	0	0	0	0	0	0	0	0	0	0	0	0	0	0	0	0	0	0	0	0	0	0	0	0	0	0	0	0	0	0	0	0	0	0	0	0	0	0	0	0	0	0	0	0	0	0	0	0	0	2
1289	12.89	0	0	0	0	0	0	0	0	0	0	0	0	0	0	0	0	0	0	0	0	0	0	0	0	10.989	-10.989	19.033	0	0	0	0	0	0	10.991	-10.991	19.037	0	0	0	0	0	0	0	0	0	0	0	0	0	-1	0	-2.0278	-17.891	16.968	0	0	0	1	0	0	17.47	2.0148	16.554	2
1290	12.9	0	0	0	0	0	0	0	0	0	0	0	0	0	0	0	0	0	0	0	0	0	0	0	0	0	0	0	0	0	0	0	0	0	0	0	0	0	0	0	0	-1	0	-2.0279	-17.891	16.969	0	0	0	0	-1	0	-2.0278	-17.891	16.968	0	0	0	0	0	0	0	0	0	2
1291	12.91	0	0	0	0	0	0	0	0	0	0	0	0	0	0	0	0	0	0	0	0	0	0	0	0	0	0	0	0	0	0	0	0	0	10.991	-10.991	19.037	0	0	0	0	0	0	0	0	0	0	0	0	0	-1	0	-2.0278	-17.891	16.968	0	0	0	1	0	0	17.47	2.0148	16.554	2
1292	12.92	0	0	0	0	0	0	0	0	0	0	0	0	0	0	0	0	0	0	0	0	0	0	0	0	0	0	0	0	0	0	0	0	0	0	0	0	0	0	0	0	0	0	0	0	0	0	0	0	0	0	0	0	0	0	0	0	0	1	0	0	17.47	2.0148	16.554	2
1293	12.93	0	0	0	0	0	0	0	0	0	0	0	0	0	0	0	0	0	0	0	0	0	0	0	0	0	0	0	0	0	0	0	0	0	0	0	0	0	0	0	0	0	0	0	0	0	0	0	0	0	-1	0	-2.0278	-17.891	16.968	0	0	0	0	0	0	0	0	0	2
1294	12.94	0	0	0	0	0	0	0	0	0	0	0	0	0	0	0	0	0	0	0	0	0	0	0	0	0	0	0	0	0	0	1	0	0	17.761	2.1499	16.789	0	0	0	0	0	0	0	0	0	0	0	0	0	-1	0	-2.0278	-17.891	16.968	0	0	0	1	0	0	17.471	2.0135	16.556	2
1295	12.95	0	0	0	0	0	0	0	0	0	0	0	0	0	0	0	0	0	0	0	0	0	0	0	0	0	0	0	0	0	0	1	0	0	17.883	2.027	16.961	0	0	0	0	-1	0	-2.0279	-17.891	16.969	0	0	0	1	-1	0	7.5503	-27.469	31.921	0	0	0	0	0	0	0	0	0	2
1296	12.96	0	0	0	0	0	0	0	0	0	0	0	0	0	0	0	0	0	0	0	0	0	0	0	0	0	0	0	0	0	0	1	0	0	17.883	2.027	16.961	0	0	0	0	0	0	0	0	0	0	0	0	0	-1	0	-2.0278	-17.891	16.968	0	0	0	0	0	0	0	0	0	2
1297	12.97	0	0	0	0	0	0	0	0	0	0	0	0	0	0	0	0	0	0	0	0	0	0	0	0	0	0	0	0	0	0	0	0	0	10.991	-10.991	19.037	0	0	0	0	0	0	0	0	0	0	0	0	0	-1	0	-2.0278	-17.891	16.968	0	0	0	1	0	0	17.47	2.0148	16.554	2
1298	12.98	0	0	0	0	0	0	0	0	0	0	0	0	0	0	0	0	0	0	0	0	0	0	0	0	0	0	0	0	0	0	0	0	0	0	0	0	0	0	0	0	-1	0	-2.0279	-17.891	16.969	0	0	0	0	-1	0	-2.0278	-17.891	16.968	0	0	0	0	0	0	0	0	0	0
1299	12.99	0	0	0	0	0	0	0	0	0	0	0	0	0	0	0	0	0	0	0	0	0	0	0	0	0	0	0	0	0	0	1	0	0	17.761	2.1499	16.789	0	0	0	0	-1	0	-2.0279	-17.891	16.969	0	0	0	0	0	0	0	0	0	0	0	0	1	0	0	17.471	2.0135	16.556	2
1300	13	0	0	0	0	0	0	0	0	0	0	0	0	0	0	0	0	0	0	0	0	0	0	0	0	0	0	0	0	0	0	0	0	0	0	0	0	0	0	0	0	-1	0	-2.0279	-17.891	16.969	0	0	0	0	0	0	0	0	0	0	0	0	0	0	0	0	0	0	2
1301	13.01	0	0	0	0	0	0	0	0	0	0	0	0	0	0	0	0	0	0	0	0	0	0	0	0	0	0	0	0	0	0	1	0	0	17.883	2.027	16.961	0	0	0	0	0	0	0	0	0	0	0	0	0	-1	0	-2.0278	-17.891	16.968	0	0	0	1	0	0	17.47	2.0148	16.554	2
1302	13.02	0	0	0	0	0	0	0	0	0	0	0	0	0	0	0	0	0	0	0	0	0	0	0	0	0	0	0	0	0	0	0	0	0	10.991	-10.991	19.037	0	0	0	0	-1	0	-2.0279	-17.891	16.969	0	0	0	0	0	0	0	0	0	0	0	0	0	0	0	0	0	0	2
1303	13.03	0	0	0	0	0	0	0	0	0	0	0	0	0	0	0	0	0	0	0	0	0	0	0	0	0	0	0	0	0	0	0	0	0	0	0	0	0	0	0	0	-1	0	-2.0279	-17.891	16.969	0	0	0	0	-1	0	-2.0278	-17.891	16.968	0	0	0	1	0	0	17.47	2.0148	16.554	2
1304	13.04	0	0	0	0	0	0	0	0	0	0	0	0	0	0	0	0	0	0	0	0	0	0	0	0	0	0	0	0	0	0	1	0	0	17.883	2.027	16.961	0	0	0	0	0	0	0	0	0	0	0	0	0	-1	0	-2.0278	-17.891	16.968	0	0	0	1	0	0	17.47	2.0148	16.554	2
1305	13.05	0	0	0	0	0	0	0	0	0	0	0	0	0	0	0	0	0	0	0	0	0	0	-1	0	-2.0266	-17.88	16.957	0	0	0	0	0	0	0	0	0	0	0	0	0	0	0	10.996	-10.996	19.046	0	0	0	0	-1	0	-2.0278	-17.891	16.968	0	0	0	0	0	0	0	0	0	0
1306	13.06	0	0	0	0	0	0	0	0	0	0	0	0	0	0	0	0	0	0	0	0	0	0	0	0	0	0	0	0	0	0	1	0	0	17.883	2.027	16.961	0	0	0	0	0	0	0	0	0	0	0	0	0	-1	0	-2.0278	-17.891	16.968	0	0	0	1	0	0	17.47	2.0148	16.554	2
1307	13.07	0	0	0	0	0	0	0	0	0	0	0	0	0	0	0	0	0	0	0	0	0	0	0	0	0	0	0	0	0	0	1	-1	0	7.5496	-27.455	31.907	0	0	0	0	0	0	0	0	0	0	0	0	0	0	0	0	0	0	0	0	0	1	0	0	17.47	2.0148	16.554	2
1308	13.08	0	0	0	0	0	0	0	0	0	0	0	0	0	0	0	0	0	0	0	0	0	0	0	0	0	0	0	0	0	0	0	0	0	10.991	-10.991	19.037	0	0	0	0	0	0	0	0	0	0	0	0	0	-1	0	-2.0278	-17.891	16.968	0	0	0	0	0	0	0	0	0	0
1309	13.09	0	0	0	0	0	0	0	0	0	0	0	0	0	0	0	0	0	0	0	0	0	0	0	0	0	0	0	0	0	0	1	0	0	17.761	2.1499	16.789	0	0	0	0	0	0	0	0	0	0	0	0	0	0	0	0	0	0	0	0	0	1	0	0	17.47	2.0148	16.554	2
1310	13.1	0	0	0	0	0	0	0	0	0	0	0	0	0	0	0	0	0	0	0	0	0	0	0	0	10.989	-10.989	19.033	0	0	0	0	0	0	0	0	0	0	0	0	0	0	0	0	0	0	0	0	0	0	-1	0	-2.0278	-17.891	16.968	0	0	0	0	0	0	0	0	0	2
1311	13.11	0	0	0	0	0	0	0	0	0	0	0	0	0	0	0	0	0	0	0	0	0	0	0	0	0	0	0	0	0	0	1	0	0	17.761	2.1499	16.789	0	0	0	0	-1	0	-2.0279	-17.891	16.969	0	0	0	0	-1	0	-2.0278	-17.891	16.968	0	0	0	1	0	0	17.47	2.0148	16.554	2
1312	13.12	0	0	0	0	0	0	0	0	0	0	0	0	0	0	0	0	0	0	0	0	0	0	0	0	0	0	0	0	0	0	1	0	0	17.883	2.027	16.961	0	0	0	0	0	0	0	0	0	0	0	0	0	-1	0	-2.0278	-17.891	16.968	0	0	0	0	0	0	0	0	0	2
1313	13.13	0	0	0	0	0	0	0	0	0	0	0	0	0	0	0	0	0	0	0	0	0	0	0	0	0	0	0	0	0	0	0	0	0	0	0	0	0	0	0	0	-1	0	-2.0279	-17.891	16.969	0	0	0	0	-1	0	-2.0278	-17.891	16.968	0	0	0	0	0	0	0	0	0	0
1314	13.14	0	0	0	0	0	0	0	0	0	0	0	0	0	0	0	0	0	0	0	0	0	0	0	0	0	0	0	0	0	0	1	0	0	17.883	2.027	16.961	0	0	0	0	0	0	0	0	0	0	0	0	0	-1	0	-2.0278	-17.891	16.968	0	0	0	0	0	0	0	0	0	2
1315	13.15	0	0	0	0	0	0	0	0	0	0	0	0	0	0	0	0	0	0	0	0	0	0	0	0	0	0	0	0	0	0	0	0	0	0	0	0	0	0	0	0	-1	0	-2.1508	-17.769	16.797	0	0	0	0	0	0	0	0	0	0	0	0	0	0	0	0	0	0	2
1316	13.16	0	0	0	0	0	0	0	0	0	0	0	0	0	0	0	0	0	0	0	0	0	0	0	0	0	0	0	0	0	0	1	0	0	17.883	2.027	16.961	0	0	0	0	0	0	0	0	0	0	0	0	0	-1	0	-2.0278	-17.891	16.968	0	0	0	0	0	0	0	0	0	2
1317	13.17	0	0	0	0	0	0	0	0	0	0	0	0	0	0	0	0	0	0	0	0	0	0	0	0	0	0	0	0	0	0	0	0	0	0	0	0	0	0	0	0	0	0	0	0	0	0	0	0	0	-1	0	-2.0278	-17.891	16.968	0	0	0	0	0	0	0	0	0	2
1318	13.18	0	0	0	0	0	0	0	0	0	0	0	0	0	0	0	0	0	0	0	0	0	0	0	0	0	0	0	0	0	0	0	0	0	0	0	0	0	0	0	0	-1	0	-2.0279	-17.891	16.969	0	0	0	0	-1	0	-2.0278	-17.891	16.968	0	0	0	0	0	0	0	0	0	0
1319	13.19	0	0	0	0	0	0	0	0	0	0	0	0	0	0	0	0	0	0	0	0	0	0	0	0	0	0	0	0	0	0	1	0	0	17.761	2.1499	16.789	0	0	0	0	0	0	0	0	0	0	0	0	0	0	0	0	0	0	0	0	0	1	0	0	17.47	2.0148	16.554	2
1320	13.2	0	0	0	0	0	0	0	0	0	0	0	0	0	0	0	0	0	0	0	0	0	0	0	0	0	0	0	0	0	0	0	0	0	0	0	0	0	0	0	0	-1	0	-2.0279	-17.891	16.969	0	0	0	0	0	0	0	0	0	0	0	0	0	0	0	0	0	0	2
1321	13.21	0	0	0	0	0	0	0	0	0	0	0	0	0	0	0	0	0	0	0	0	0	0	0	0	0	0	0	0	0	0	0	0	0	0	0	0	0	0	0	0	0	0	0	0	0	0	0	0	0	-1	0	-2.0278	-17.891	16.968	0	0	0	0	0	0	0	0	0	2
1322	13.22	0	0	0	0	0	0	0	0	0	0	0	0	0	0	0	0	0	0	0	0	0	0	0	0	0	0	0	0	0	0	0	0	0	0	0	0	0	0	0	0	0	0	0	0	0	0	0	0	0	-1	0	-2.0278	-17.891	16.968	0	0	0	0	0	0	0	0	0	2
1323	13.23	0	0	0	0	0	0	0	0	0	0	0	0	0	0	0	0	0	0	0	0	0	0	0	0	0	0	0	0	0	0	0	0	0	0	0	0	0	0	0	0	0	0	0	0	0	0	0	0	0	-1	0	-2.0278	-17.891	16.968	0	0	0	0	0	0	0	0	0	2
1324	13.24	0	0	0	0	0	0	0	0	0	0	0	0	0	0	0	0	0	0	0	0	0	0	0	0	0	0	0	0	0	0	0	0	0	0	0	0	0	0	0	0	0	0	0	0	0	0	0	0	0	-1	0	-2.0278	-17.891	16.968	0	0	0	0	0	0	0	0	0	2
1325	13.25	0	0	0	0	0	0	0	0	0	0	0	0	0	0	0	0	0	0	0	0	0	0	0	0	0	0	0	0	0	0	0	0	0	11.258	-11.253	19.496	0	0	0	0	0	0	0	0	0	0	0	0	0	0	0	0	0	0	0	0	0	0	0	0	0	0	0	2
1326	13.26	0	0	0	0	0	0	0	0	0	0	0	0	0	0	0	0	0	0	0	0	0	0	0	0	0	0	0	0	0	0	0	0	0	10.991	-10.991	19.037	0	0	0	0	0	0	0	0	0	0	0	0	0	-1	0	-2.0278	-17.891	16.968	0	0	0	1	0	0	17.47	2.0148	16.554	2
1327	13.27	0	0	0	0	0	0	0	0	0	0	0	0	0	0	0	0	0	0	0	0	0	0	0	0	0	0	0	0	0	0	0	0	0	0	0	0	0	0	0	0	-1	0	-2.0279	-17.891	16.969	0	0	0	0	0	0	0	0	0	0	0	0	0	0	0	0	0	0	2
1328	13.28	0	0	0	0	0	0	0	0	0	0	0	0	0	0	0	0	0	0	0	0	0	0	0	0	0	0	0	0	0	0	0	0	0	0	0	0	0	0	0	0	0	0	0	0	0	0	0	0	0	-1	0	-2.0278	-17.891	16.968	0	0	0	0	0	0	0	0	0	2
1329	13.29	0	0	0	0	0	0	0	0	0	0	0	0	0	0	0	0	0	0	0	0	0	0	0	0	0	0	0	0	0	0	0	0	0	10.991	-10.991	19.037	0	0	0	0	0	0	0	0	0	0	0	0	0	-1	0	-2.0278	-17.891	16.968	0	0	0	1	0	0	17.47	2.0148	16.554	2
1330	13.3	0	0	0	0	0	0	0	0	0	0	0	0	0	0	0	0	0	0	0	0	0	0	0	0	0	0	0	0	0	0	0	0	0	0	0	0	0	0	0	0	0	0	0	0	0	0	0	0	0	-1	0	-2.0278	-17.891	16.968	0	0	0	0	0	0	0	0	0	2
1331	13.31	0	0	0	0	0	0	0	0	0	0	0	0	0	0	0	0	0	0	0	0	0	0	0	0	0	0	0	0	0	0	0	-1	0	-2.0265	-17.879	16.957	0	0	0	0	-1	0	-2.0279	-17.891	16.969	0	0	0	0	-1	0	-2.0278	-17.891	16.968	0	0	0	0	0	0	0	0	0	2
1332	13.32	0	0	0	0	0	0	0	0	0	0	0	0	0	0	0	0	0	0	0	0	0	0	0	0	0	0	0	0	0	0	0	0	0	10.991	-10.991	19.037	0	0	0	0	0	0	0	0	0	0	0	0	0	0	0	0	0	0	0	0	0	0	0	0	0	0	0	2
1333	13.33	0	0	0	0	0	0	0	0	0	0	0	0	0	0	0	0	0	0	0	0	0	0	0	0	0	0	0	0	0	0	0	0	0	0	0	0	0	0	0	0	0	0	10.996	-10.996	19.046	0	0	0	0	0	0	0	0	0	0	0	0	0	0	0	0	0	0	2
1334	13.34	0	0	0	0	0	0	0	0	0	0	0	0	0	0	0	0	0	0	0	0	0	0	0	0	0	0	0	0	0	0	0	0	0	0	0	0	0	0	0	0	0	0	10.996	-10.996	19.046	0	0	0	1	-1	0	7.5503	-27.469	31.921	0	0	0	1	0	0	17.47	2.0148	16.554	2
1335	13.35	0	0	0	0	0	0	0	0	0	0	0	0	0	0	0	0	0	0	0	0	0	0	0	0	0	0	0	0	0	0	0	0	0	10.991	-10.991	19.037	0	0	0	0	-1	0	-2.1508	-17.769	16.797	0	0	0	0	-1	0	-2.0278	-17.891	16.968	0	0	0	0	0	0	0	0	0	2
1336	13.36	0	0	0	0	0	0	0	0	0	0	0	0	0	0	0	0	0	0	0	0	0	0	0	0	10.989	-10.989	19.033	0	0	0	0	0	0	0	0	0	0	0	0	0	0	0	0	0	0	0	0	0	0	0	0	0	0	0	0	0	0	0	0	0	0	0	0	2
1337	13.37	0	0	0	0	0	0	0	0	0	0	0	0	0	0	0	0	0	0	0	0	0	0	0	0	0	0	0	0	0	0	1	0	0	17.883	2.027	16.961	0	0	0	0	0	0	0	0	0	0	0	0	0	0	0	0	0	0	0	0	0	0	0	0	0	0	0	2
1338	13.38	0	0	0	0	0	0	0	0	0	0	0	0	0	0	0	0	0	0	0	0	0	0	0	0	0	0	0	0	0	0	0	0	0	10.991	-10.991	19.037	0	0	0	0	-1	0	-2.0279	-17.891	16.969	0	0	0	0	-1	0	-2.0278	-17.891	16.968	0	0	0	0	0	0	0	0	0	2
1339	13.39	0	0	0	0	0	0	0	0	0	0	0	0	0	0	0	0	0	0	0	0	0	0	0	0	0	0	0	0	0	0	1	0	0	17.761	2.1499	16.789	0	0	0	0	0	0	0	0	0	0	0	0	1	-1	0	7.5503	-27.469	31.921	0	0	0	1	0	0	17.47	2.0148	16.554	2
1340	13.4	0	0	0	0	-1	0	-2.0364	-17.814	16.888	0	0	0	0	0	0	0	0	0	0	0	0	0	0	0	0	0	0	0	0	0	0	0	0	0	0	0	0	0	0	0	-1	0	-2.0279	-17.891	16.969	0	0	0	0	-1	0	-2.0278	-17.891	16.968	0	0	0	0	0	0	0	0	0	2
1341	13.41	0	0	0	0	0	0	0	0	0	0	0	0	0	0	0	0	0	0	0	0	0	0	0	0	0	0	0	0	0	0	0	0	0	0	0	0	0	0	0	0	-1	0	-2.0279	-17.891	16.969	0	0	0	0	0	0	0	0	0	0	0	0	0	0	0	0	0	0	2
1342	13.42	0	0	0	0	0	0	0	0	0	0	0	0	0	0	0	0	0	0	0	0	0	0	0	0	0	0	0	0	0	0	0	0	0	0	0	0	0	0	0	0	0	0	0	0	0	0	0	0	0	-1	0	-2.0278	-17.891	16.968	0	0	0	0	0	0	0	0	0	2
1343	13.43	0	0	0	0	0	0	0	0	0	0	0	0	0	0	0	0	0	0	0	0	0	0	0	0	0	0	0	0	0	0	0	0	0	0	0	0	0	0	0	0	-1	0	-2.1508	-17.769	16.797	0	0	0	0	-1	0	-2.0278	-17.891	16.968	0	0	0	1	0	0	17.47	2.0148	16.554	2
1344	13.44	0	0	0	0	0	0	0	0	0	0	0	0	0	0	0	0	0	0	0	0	0	0	0	0	0	0	0	0	0	0	0	-1	0	-2.0265	-17.879	16.957	0	0	0	0	0	0	0	0	0	0	0	0	0	-1	0	-2.0278	-17.891	16.968	0	0	0	1	0	0	17.47	2.0148	16.554	2
1345	13.45	0	0	0	0	0	0	0	0	0	0	0	0	0	0	0	0	0	0	0	0	0	0	0	0	0	0	0	0	0	0	0	0	0	10.991	-10.991	19.037	0	0	0	0	-1	0	-2.0279	-17.891	16.969	0	0	0	0	-1	0	-2.0278	-17.891	16.968	0	0	0	0	0	0	0	0	0	2
1346	13.46	0	0	0	0	0	0	0	0	0	0	0	0	0	0	0	0	0	0	0	0	0	0	0	0	0	0	0	0	0	0	0	0	0	0	0	0	0	0	0	0	0	0	0	0	0	0	0	0	0	-1	0	-2.0278	-17.891	16.968	0	0	0	1	0	0	17.47	2.0148	16.554	2
1347	13.47	0	0	0	0	0	0	0	0	0	0	0	0	0	0	0	0	0	0	0	0	0	0	0	0	0	0	0	0	0	0	1	0	0	17.761	2.1499	16.789	0	0	0	0	-1	0	-2.0279	-17.891	16.969	0	0	0	0	0	0	0	0	0	0	0	0	0	0	0	0	0	0	2
1348	13.48	0	0	0	0	0	0	0	0	0	0	0	0	0	0	0	0	0	0	0	0	0	0	0	0	0	0	0	0	0	0	0	0	0	0	0	0	0	0	0	0	0	0	0	0	0	0	0	0	0	-1	0	-2.0278	-17.891	16.968	0	0	0	0	0	0	0	0	0	2
1349	13.49	0	0	0	0	0	0	0	0	0	0	0	0	0	0	0	0	0	0	0	0	0	0	0	0	0	0	0	0	0	0	0	-1	0	-2.0265	-17.879	16.957	0	0	0	0	-1	0	-2.0279	-17.891	16.969	0	0	0	0	0	0	0	0	0	0	0	0	0	0	0	0	0	0	2
1350	13.5	0	0	0	0	0	0	0	0	0	0	0	0	0	-1	0	-2.0372	-17.821	16.895	0	0	0	0	-1	0	-2.0266	-17.88	16.957	0	0	0	0	0	0	0	0	0	0	0	0	0	-1	0	-2.0279	-17.891	16.969	0	0	0	0	-1	0	-2.0278	-17.891	16.968	0	0	0	0	0	0	0	0	0	2
1351	13.51	0	0	0	0	0	0	0	0	0	0	0	0	0	0	0	0	0	0	0	0	0	0	0	0	0	0	0	0	0	0	1	0	0	17.883	2.027	16.961	0	0	0	0	0	0	0	0	0	0	0	0	0	0	0	0	0	0	0	0	0	1	0	0	17.47	2.0148	16.554	2
1352	13.52	0	0	0	0	0	0	0	0	0	0	0	0	0	0	0	0	0	0	0	0	0	0	0	0	0	0	0	0	0	0	0	0	0	10.991	-10.991	19.037	0	0	0	0	-1	0	-2.1508	-17.769	16.797	0	0	0	0	-1	0	-2.0278	-17.891	16.968	0	0	0	1	0	0	17.47	2.0148	16.554	2
1353	13.53	0	0	0	0	0	0	0	0	0	0	0	0	0	0	0	0	0	0	0	0	0	0	0	0	0	0	0	0	0	0	0	0	0	0	0	0	0	0	0	0	0	0	0	0	0	0	0	0	0	-1	0	-2.0278	-17.891	16.968	0	0	0	0	0	0	0	0	0	2
1354	13.54	0	0	0	0	0	0	0	0	0	0	0	0	0	0	0	0	0	0	0	0	0	0	0	0	10.989	-10.989	19.033	0	0	0	0	0	0	10.991	-10.991	19.037	0	0	0	0	0	0	0	0	0	0	0	0	0	-1	0	-2.0278	-17.891	16.968	0	0	0	1	0	0	17.482	2.0162	16.566	2
1355	13.55	0	0	0	0	0	0	0	0	0	0	0	0	0	0	0	0	0	0	0	0	0	0	0	0	0	0	0	0	0	0	0	0	0	0	0	0	0	0	0	0	0	0	0	0	0	0	0	0	0	-1	0	-2.0278	-17.891	16.968	0	0	0	0	0	0	0	0	0	0
1356	13.56	0	0	0	0	0	0	0	0	0	0	0	0	0	0	0	0	0	0	0	0	0	0	0	0	0	0	0	0	0	0	0	0	0	0	0	0	0	0	0	0	0	0	0	0	0	0	0	0	0	0	0	0	0	0	0	0	0	0	0	0	0	0	0	2
1357	13.57	0	0	0	0	0	0	0	0	0	0	0	0	0	-1	0	-2.0372	-17.821	16.895	0	0	0	0	0	0	10.989	-10.989	19.033	0	0	0	0	0	0	10.991	-10.991	19.037	0	0	0	0	0	0	0	0	0	0	0	0	0	-1	0	-2.0278	-17.891	16.968	0	0	0	0	0	0	0	0	0	2
1358	13.58	0	0	0	0	0	0	0	0	0	0	0	0	0	0	0	0	0	0	0	0	0	0	0	0	0	0	0	0	0	0	0	-1	0	-2.0265	-17.879	16.957	0	0	0	0	0	0	0	0	0	0	0	0	0	-1	0	-2.0278	-17.891	16.968	0	0	0	0	0	0	0	0	0	2
1359	13.59	0	0	0	0	0	0	0	0	0	0	0	0	0	0	0	0	0	0	0	0	0	0	0	0	10.989	-10.989	19.033	0	0	0	0	0	0	0	0	0	0	0	0	0	-1	0	-2.0279	-17.891	16.969	0	0	0	0	0	0	0	0	0	0	0	0	1	0	0	17.471	2.0135	16.556	2
1360	13.6	0	0	0	0	0	0	0	0	0	0	0	0	0	0	0	0	0	0	0	0	0	0	0	0	0	0	0	0	0	0	0	0	0	0	0	0	0	0	0	0	0	0	0	0	0	0	0	0	0	-1	0	-2.0278	-17.891	16.968	0	0	0	0	0	0	0	0	0	2
1361	13.61	0	0	0	0	0	0	0	0	0	0	0	0	0	0	0	0	0	0	0	0	0	0	0	0	0	0	0	0	0	0	0	0	0	0	0	0	0	0	0	0	0	0	0	0	0	0	0	0	0	0	0	0	0	0	0	0	0	1	0	0	17.47	2.0148	16.554	2
1362	13.62	0	0	0	0	0	0	0	0	0	0	0	0	0	0	0	0	0	0	0	0	0	0	0	0	0	0	0	0	0	0	0	0	0	0	0	0	0	0	0	0	0	0	0	0	0	0	0	0	0	-1	0	-2.0278	-17.891	16.968	0	0	0	0	0	0	0	0	0	2
1363	13.63	0	0	0	0	0	0	0	0	0	0	0	0	0	0	0	0	0	0	0	0	0	0	0	0	0	0	0	0	0	0	0	0	0	0	0	0	0	0	0	0	0	0	0	0	0	0	0	0	0	0	0	0	0	0	0	0	0	0	0	0	0	0	0	0
1364	13.64	0	0	0	0	0	0	0	0	0	0	0	0	0	0	0	0	0	0	0	0	0	0	0	0	0	0	0	0	0	0	1	0	0	17.883	2.027	16.961	0	0	0	0	0	0	0	0	0	0	0	0	0	-1	0	-2.0278	-17.891	16.968	0	0	0	0	0	0	0	0	0	2
1365	13.65	0	0	0	0	0	0	0	0	0	0	0	0	0	0	0	0	0	0	0	0	0	0	0	0	0	0	0	0	0	0	0	0	0	0	0	0	0	0	0	0	0	0	10.996	-10.996	19.046	0	0	0	0	0	0	0	0	0	0	0	0	0	0	0	0	0	0	2
1366	13.66	0	0	0	0	0	0	0	0	0	0	0	0	0	0	0	0	0	0	0	0	0	0	0	0	0	0	0	0	0	0	0	0	0	0	0	0	0	0	0	0	-1	0	-2.0279	-17.891	16.969	0	0	0	0	-1	0	-2.0278	-17.891	16.968	0	0	0	0	0	0	0	0	0	2
1367	13.67	0	0	0	0	0	0	0	0	0	0	0	0	0	0	0	0	0	0	0	0	0	0	0	0	0	0	0	0	0	0	1	0	0	17.883	2.027	16.961	0	0	0	0	0	0	0	0	0	0	0	0	0	-1	0	-2.0278	-17.891	16.968	0	0	0	0	0	0	0	0	0	2
1368	13.68	0	0	0	0	0	0	0	0	0	0	0	0	0	0	0	0	0	0	0	0	0	0	0	0	0	0	0	0	0	0	0	0	0	0	0	0	0	0	0	0	0	0	0	0	0	0	0	0	0	-1	0	-2.0278	-17.891	16.968	0	0	0	1	0	0	17.47	2.0148	16.554	2
1369	13.69	0	0	0	0	0	0	10.917	-10.917	18.908	0	0	0	0	0	0	0	0	0	0	0	0	0	0	0	0	0	0	0	0	0	0	0	0	0	0	0	0	0	0	0	0	0	0	0	0	0	0	0	0	-1	0	-2.0278	-17.891	16.968	0	0	0	1	0	0	17.47	2.0148	16.554	2
1370	13.7	0	0	0	0	0	0	0	0	0	0	0	0	0	0	0	0	0	0	0	0	0	0	0	0	0	0	0	0	0	0	0	0	0	0	0	0	0	0	0	0	0	0	0	0	0	0	0	0	0	0	0	0	0	0	0	0	0	0	0	0	0	0	0	2
1371	13.71	0	0	0	0	0	0	0	0	0	0	0	0	0	0	0	0	0	0	0	0	0	0	0	0	0	0	0	0	0	0	1	0	0	17.761	2.1499	16.789	0	0	0	0	0	0	0	0	0	0	0	0	0	0	0	0	0	0	0	0	0	1	0	0	17.47	2.0148	16.554	2
1372	13.72	0	0	0	0	0	0	0	0	0	0	0	0	0	0	0	0	0	0	0	0	0	0	0	0	0	0	0	0	0	0	0	0	0	10.991	-10.991	19.037	0	0	0	0	0	0	0	0	0	0	0	0	0	-1	0	-2.0278	-17.891	16.968	0	0	0	1	0	0	17.47	2.0148	16.554	2
1373	13.73	0	0	0	0	0	0	0	0	0	0	0	0	0	0	0	0	0	0	0	0	0	0	0	0	0	0	0	0	0	0	0	0	0	0	0	0	0	0	0	0	0	0	0	0	0	0	0	0	0	0	0	0	0	0	0	0	0	1	0	0	17.47	2.0148	16.554	2
1374	13.74	0	0	0	0	0	0	0	0	0	0	0	0	0	0	0	0	0	0	0	0	0	0	0	0	0	0	0	0	0	0	0	0	0	0	0	0	0	0	0	0	0	0	0	0	0	0	0	0	0	0	0	0	0	0	0	0	0	1	0	0	17.482	2.0162	16.566	2
1375	13.75	0	0	0	0	0	0	0	0	0	0	0	0	0	0	0	0	0	0	0	0	0	0	0	0	0	0	0	0	0	0	0	0	0	0	0	0	0	0	0	0	0	0	10.996	-10.996	19.046	0	0	0	0	0	0	0	0	0	0	0	0	1	0	0	17.47	2.0148	16.554	2
1376	13.76	0	0	0	0	0	0	0	0	0	0	0	0	0	0	0	0	0	0	0	0	0	0	0	0	0	0	0	0	0	0	0	0	0	0	0	0	0	0	0	0	0	0	0	0	0	0	0	0	0	0	0	0	0	0	0	0	0	1	0	0	17.482	2.0162	16.566	2
1377	13.77	0	0	0	0	0	0	0	0	0	0	0	0	0	-1	0	-2.0372	-17.821	16.895	0	0	0	0	0	0	0	0	0	0	0	0	0	0	0	0	0	0	0	0	0	0	0	0	10.996	-10.996	19.046	0	0	0	0	-1	0	-2.0278	-17.891	16.968	0	0	0	0	0	0	0	0	0	0
1378	13.78	0	0	0	0	0	0	0	0	0	0	0	0	0	0	0	0	0	0	0	0	0	0	0	0	0	0	0	0	0	0	0	0	0	0	0	0	0	0	0	0	0	0	10.996	-10.996	19.046	0	0	0	0	0	0	0	0	0	0	0	0	0	0	0	0	0	0	2
1379	13.79	0	0	0	0	0	0	0	0	0	0	0	0	0	0	0	0	0	0	0	0	0	0	0	0	0	0	0	0	0	0	0	0	0	0	0	0	0	0	0	0	0	0	0	0	0	0	0	0	0	-1	0	-2.0278	-17.891	16.968	0	0	0	1	0	0	17.47	2.0148	16.554	2
1380	13.8	0	0	0	0	0	0	0	0	0	0	0	0	0	0	0	0	0	0	0	0	0	0	0	0	0	0	0	0	0	0	0	0	0	0	0	0	0	0	0	0	-1	0	-2.1508	-17.769	16.797	0	0	0	0	-1	0	-2.0278	-17.891	16.968	0	0	0	0	0	0	0	0	0	2
1381	13.81	0	0	0	0	0	0	0	0	0	0	0	0	0	0	0	0	0	0	0	0	0	0	0	0	0	0	0	0	0	0	1	0	0	17.761	2.1499	16.789	0	0	0	0	-1	0	-2.0279	-17.891	16.969	0	0	0	0	0	0	0	0	0	0	0	0	1	0	0	17.47	2.0148	16.554	2
1382	13.82	0	0	0	0	0	0	0	0	0	0	0	0	0	0	0	0	0	0	0	0	0	0	0	0	0	0	0	0	0	0	0	0	0	0	0	0	0	0	0	0	0	0	0	0	0	0	0	0	0	0	0	0	0	0	0	0	0	1	0	0	17.47	2.0148	16.554	2
1383	13.83	0	0	0	0	0	0	0	0	0	0	0	0	0	0	0	0	0	0	0	0	0	0	0	0	0	0	0	0	0	0	0	0	0	0	0	0	0	0	0	0	0	0	0	0	0	0	0	0	0	-1	0	-2.0278	-17.891	16.968	0	0	0	0	0	0	0	0	0	2
1384	13.84	0	0	0	0	0	0	0	0	0	0	0	0	0	0	0	0	0	0	0	0	0	0	0	0	0	0	0	0	0	0	0	0	0	0	0	0	0	0	0	0	0	0	0	0	0	0	0	0	0	-1	0	-2.0278	-17.891	16.968	0	0	0	0	0	0	0	0	0	0
1385	13.85	0	0	0	0	0	0	0	0	0	0	0	0	0	0	0	0	0	0	0	0	0	0	0	0	0	0	0	0	0	0	0	0	0	0	0	0	0	0	0	0	-1	0	-2.1508	-17.769	16.797	0	0	0	0	-1	0	-2.0278	-17.891	16.968	0	0	0	0	0	0	0	0	0	2
1386	13.86	0	0	0	0	0	0	0	0	0	0	0	0	0	0	0	0	0	0	0	0	0	0	0	0	0	0	0	0	0	0	0	0	0	10.991	-10.991	19.037	0	0	0	0	-1	0	-2.0279	-17.891	16.969	0	0	0	0	-1	0	-2.0278	-17.891	16.968	0	0	0	0	0	0	0	0	0	2
1387	13.87	0	0	0	0	0	0	0	0	0	0	0	0	0	-1	0	-2.0372	-17.821	16.895	0	0	0	0	0	0	0	0	0	0	0	0	1	0	0	17.761	2.1499	16.789	0	0	0	0	0	0	10.996	-10.996	19.046	0	0	0	0	-1	0	-2.0278	-17.891	16.968	0	0	0	1	0	0	17.47	2.0148	16.554	2
1388	13.88	0	0	0	0	0	0	10.917	-10.917	18.908	0	0	0	0	0	0	0	0	0	0	0	0	0	0	0	0	0	0	0	0	0	0	0	0	0	0	0	0	0	0	0	-1	0	-2.0279	-17.891	16.969	0	0	0	0	-1	0	-2.0278	-17.891	16.968	0	0	0	0	0	0	0	0	0	2
1389	13.89	0	0	0	0	0	0	0	0	0	0	0	0	0	0	0	0	0	0	0	0	0	0	0	0	0	0	0	0	0	0	0	0	0	10.991	-10.991	19.037	0	0	0	0	0	0	0	0	0	0	0	0	0	-1	0	-2.0278	-17.891	16.968	0	0	0	0	0	0	0	0	0	2
1390	13.9	0	0	0	0	0	0	0	0	0	0	0	0	0	0	0	0	0	0	0	0	0	0	0	0	0	0	0	0	0	0	0	0	0	0	0	0	0	0	0	0	-1	0	-2.1508	-17.769	16.797	0	0	0	0	-1	0	-2.0278	-17.891	16.968	0	0	0	0	0	0	0	0	0	0
1391	13.91	0	0	0	0	0	0	10.917	-10.917	18.908	0	0	0	0	0	0	0	0	0	0	0	0	0	0	0	10.989	-10.989	19.033	0	0	0	1	0	0	17.761	2.1499	16.789	0	0	0	0	-1	0	-2.0279	-17.891	16.969	0	0	0	0	0	0	0	0	0	0	0	0	0	0	0	0	0	0	2
1392	13.92	0	0	0	0	0	0	0	0	0	0	0	0	0	-1	0	-2.0372	-17.821	16.895	0	0	0	0	0	0	0	0	0	0	0	0	0	0	0	0	0	0	0	0	0	0	0	0	0	0	0	0	0	0	0	-1	0	-2.0278	-17.891	16.968	0	0	0	0	0	0	0	0	0	2
1393	13.93	0	0	0	0	0	0	0	0	0	0	0	0	0	0	0	0	0	0	0	0	0	0	0	0	0	0	0	0	0	0	0	0	0	10.991	-10.991	19.037	0	0	0	0	-1	0	-2.0279	-17.891	16.969	0	0	0	0	-1	0	-2.0278	-17.891	16.968	0	0	0	0	0	0	0	0	0	2
1394	13.94	0	0	0	0	-1	0	-2.0364	-17.814	16.888	0	0	0	0	0	0	0	0	0	0	0	0	0	0	0	0	0	0	0	0	0	1	0	0	17.883	2.027	16.961	0	0	0	0	0	0	0	0	0	0	0	0	0	-1	0	-2.0278	-17.891	16.968	0	0	0	0	0	0	0	0	0	2
1395	13.95	0	0	0	0	0	0	0	0	0	0	0	0	0	0	0	0	0	0	0	0	0	0	0	0	0	0	0	0	0	0	0	0	0	10.991	-10.991	19.037	0	0	0	0	0	0	0	0	0	0	0	0	0	0	0	0	0	0	0	0	0	0	0	0	0	0	0	2
1396	13.96	0	0	0	0	0	0	0	0	0	0	0	0	0	0	0	0	0	0	0	0	0	0	0	0	0	0	0	0	0	0	0	0	0	0	0	0	0	0	0	0	0	0	0	0	0	0	0	0	0	-1	0	-2.0278	-17.891	16.968	0	0	0	1	0	0	17.47	2.0148	16.554	2
1397	13.97	0	0	0	0	0	0	0	0	0	0	0	0	0	0	0	0	0	0	0	0	0	0	0	0	0	0	0	0	0	0	0	0	0	0	0	0	0	0	0	0	0	0	0	0	0	0	0	0	0	-1	0	-2.0278	-17.891	16.968	0	0	0	1	0	0	17.47	2.0148	16.554	2
1398	13.98	0	0	0	0	0	0	0	0	0	0	0	0	0	0	0	0	0	0	0	0	0	0	0	0	0	0	0	0	0	0	0	0	0	0	0	0	0	0	0	0	0	0	0	0	0	0	0	0	0	0	0	0	0	0	0	0	0	0	0	0	0	0	0	2
1399	13.99	0	0	0	0	0	0	0	0	0	0	0	0	0	0	0	0	0	0	0	0	0	0	0	0	0	0	0	0	0	0	0	0	0	0	0	0	0	0	0	0	0	0	0	0	0	0	0	0	0	-1	0	-2.0278	-17.891	16.968	0	0	0	0	0	0	0	0	0	2
1400	14	0	0	0	0	0	0	0	0	0	0	0	0	0	0	0	0	0	0	0	0	0	0	0	0	0	0	0	0	0	0	0	0	0	0	0	0	0	0	0	0	-1	0	-2.1508	-17.769	16.797	0	0	0	0	0	0	0	0	0	0	0	0	0	0	0	0	0	0	2
1401	14.01	0	0	0	0	0	0	0	0	0	0	0	0	0	0	0	0	0	0	0	0	0	0	0	0	0	0	0	0	0	0	0	0	0	0	0	0	0	0	0	0	0	0	0	0	0	0	0	0	0	-1	0	-2.0278	-17.891	16.968	0	0	0	1	0	0	17.47	2.0148	16.554	2
1402	14.02	0	0	0	0	0	0	10.917	-10.917	18.908	0	0	0	0	0	0	0	0	0	0	0	0	0	0	0	0	0	0	0	0	0	0	0	0	10.991	-10.991	19.037	0	0	0	0	0	0	10.996	-10.996	19.046	0	0	0	0	-1	0	-2.0278	-17.891	16.968	0	0	0	0	0	0	0	0	0	2
1403	14.03	0	0	0	0	0	0	0	0	0	0	0	0	0	0	0	0	0	0	0	0	0	0	0	0	0	0	0	0	0	0	0	0	0	0	0	0	0	0	0	0	0	0	0	0	0	0	0	0	0	0	0	0	0	0	0	0	0	0	0	0	0	0	0	0
1404	14.04	0	0	0	0	0	0	0	0	0	0	0	0	0	0	0	0	0	0	0	0	0	0	0	0	0	0	0	0	0	0	0	0	0	0	0	0	0	0	0	0	0	0	0	0	0	0	0	0	0	-1	0	-2.0278	-17.891	16.968	0	0	0	0	0	0	0	0	0	0
1405	14.05	0	0	0	0	0	0	0	0	0	0	0	0	0	0	0	0	0	0	0	0	0	0	0	0	0	0	0	0	0	0	1	0	0	17.883	2.027	16.961	0	0	0	0	0	0	0	0	0	0	0	0	0	-1	0	-2.0278	-17.891	16.968	0	0	0	0	0	0	0	0	0	2
1406	14.06	0	0	0	0	0	0	0	0	0	0	0	0	0	0	0	0	0	0	0	0	0	0	0	0	0	0	0	0	0	0	0	0	0	0	0	0	0	0	0	0	-1	0	-2.0279	-17.891	16.969	0	0	0	0	0	0	0	0	0	0	0	0	1	0	0	17.47	2.0148	16.554	2
1407	14.07	0	0	0	0	0	0	0	0	0	0	0	0	0	0	0	0	0	0	0	0	0	0	0	0	0	0	0	0	0	0	0	0	0	0	0	0	0	0	0	0	0	0	0	0	0	0	0	0	0	-1	0	-2.0278	-17.891	16.968	0	0	0	0	0	0	0	0	0	2
1408	14.08	0	0	0	0	0	0	0	0	0	0	0	0	0	0	0	0	0	0	0	0	0	0	0	0	0	0	0	0	0	0	1	0	0	17.883	2.027	16.961	0	0	0	0	0	0	10.996	-10.996	19.046	0	0	0	0	-1	0	-2.0278	-17.891	16.968	0	0	0	0	0	0	0	0	0	2
1409	14.09	0	0	0	0	0	0	0	0	0	0	0	0	0	-1	0	-2.0372	-17.821	16.895	0	0	0	0	0	0	0	0	0	0	0	0	1	0	0	17.883	2.027	16.961	0	0	0	0	0	0	0	0	0	0	0	0	0	-1	0	-2.0278	-17.891	16.968	0	0	0	1	0	0	30.423	8.5595	27.174	2
1410	14.1	0	0	0	0	0	0	0	0	0	0	0	0	0	0	0	0	0	0	0	0	0	0	0	0	0	0	0	0	0	0	0	0	0	10.991	-10.991	19.037	0	0	0	0	0	0	0	0	0	0	0	0	0	-1	0	-2.0278	-17.891	16.968	0	0	0	0	0	0	0	0	0	2
1411	14.11	0	0	0	0	0	0	0	0	0	0	0	0	0	0	0	0	0	0	0	0	0	0	0	0	0	0	0	0	0	0	0	0	0	0	0	0	0	0	0	0	-1	0	-2.0279	-17.891	16.969	0	0	0	0	-1	0	-2.0278	-17.891	16.968	0	0	0	1	0	0	17.47	2.0148	16.554	2
1412	14.12	0	0	0	0	0	0	0	0	0	0	0	0	0	0	0	0	0	0	0	0	0	0	0	0	0	0	0	0	0	0	0	0	0	10.991	-10.991	19.037	0	0	0	0	0	0	0	0	0	0	0	0	0	-1	0	-2.0278	-17.891	16.968	0	0	0	1	0	0	17.47	2.0148	16.554	2
1413	14.13	0	0	0	0	0	0	0	0	0	0	0	0	0	0	0	0	0	0	0	0	0	0	0	0	0	0	0	0	0	0	0	0	0	0	0	0	0	0	0	0	0	0	10.996	-10.996	19.046	0	0	0	0	0	0	0	0	0	0	0	0	0	0	0	0	0	0	2
1414	14.14	0	0	0	0	0	0	10.917	-10.917	18.908	0	0	0	0	0	0	0	0	0	0	0	0	0	0	0	10.989	-10.989	19.033	0	0	0	0	0	0	0	0	0	0	0	0	0	0	0	0	0	0	0	0	0	0	-1	0	-2.0278	-17.891	16.968	0	0	0	1	0	0	17.482	2.0162	16.566	2
1415	14.15	0	0	0	0	0	0	0	0	0	0	0	0	0	0	0	0	0	0	0	0	0	0	0	0	0	0	0	0	0	0	0	0	0	0	0	0	0	0	0	0	0	0	0	0	0	0	0	0	0	-1	0	-2.0278	-17.891	16.968	0	0	0	0	0	0	0	0	0	2
1416	14.16	0	0	0	0	0	0	0	0	0	0	0	0	0	0	0	0	0	0	0	0	0	0	0	0	0	0	0	0	0	0	1	0	0	17.883	2.027	16.961	0	0	0	0	0	0	10.996	-10.996	19.046	0	0	0	0	-1	0	-2.0278	-17.891	16.968	0	0	0	1	0	0	17.471	2.0135	16.556	2
1417	14.17	0	0	0	0	0	0	0	0	0	0	0	0	0	0	0	0	0	0	0	0	0	0	0	0	10.989	-10.989	19.033	0	0	0	0	0	0	0	0	0	0	0	0	0	0	0	0	0	0	0	0	0	0	-1	0	-2.0278	-17.891	16.968	0	0	0	1	0	0	17.47	2.0148	16.554	2
1418	14.18	0	0	0	0	0	0	0	0	0	0	0	0	0	0	0	0	0	0	0	0	0	0	0	0	0	0	0	0	0	0	0	0	0	0	0	0	0	0	0	0	0	0	0	0	0	0	0	0	0	-1	0	-2.0278	-17.891	16.968	0	0	0	0	0	0	0	0	0	2
1419	14.19	0	0	0	0	0	0	0	0	0	0	0	0	0	0	0	0	0	0	0	0	0	0	0	0	0	0	0	0	0	0	1	0	0	17.761	2.1499	16.789	0	0	0	0	0	0	0	0	0	0	0	0	0	-1	0	-2.0278	-17.891	16.968	0	0	0	1	0	0	17.47	2.0148	16.554	2
1420	14.2	0	0	0	0	0	0	0	0	0	0	0	0	0	0	0	0	0	0	0	0	0	0	0	0	0	0	0	0	0	0	0	0	0	0	0	0	0	0	0	0	0	0	0	0	0	0	0	0	0	-1	0	-2.0278	-17.891	16.968	0	0	0	0	0	0	0	0	0	2
1421	14.21	0	0	0	0	0	0	0	0	0	0	0	0	0	0	0	0	0	0	0	0	0	0	0	0	0	0	0	0	0	0	1	0	0	17.761	2.1499	16.789	0	0	0	0	0	0	10.996	-10.996	19.046	0	0	0	0	0	0	0	0	0	0	0	0	1	0	0	17.47	2.0148	16.554	2
1422	14.22	0	0	0	0	0	0	0	0	0	0	0	0	0	0	0	0	0	0	0	0	0	0	0	0	0	0	0	0	0	0	0	0	0	0	0	0	0	0	0	0	0	0	10.996	-10.996	19.046	0	0	0	0	-1	0	-2.0278	-17.891	16.968	0	0	0	1	0	0	17.47	2.0148	16.554	2
1423	14.23	0	0	0	0	0	0	0	0	0	0	0	0	0	0	0	0	0	0	0	0	0	0	0	0	0	0	0	0	0	0	0	0	0	0	0	0	0	0	0	0	-1	0	-2.1508	-17.769	16.797	0	0	0	0	-1	0	-2.0278	-17.891	16.968	0	0	0	0	0	0	0	0	0	0
1424	14.24	0	0	0	0	0	0	0	0	0	0	0	0	0	0	0	0	0	0	0	0	0	0	0	0	0	0	0	0	0	0	0	0	0	10.991	-10.991	19.037	0	0	0	0	0	0	0	0	0	0	0	0	0	-1	0	-2.0278	-17.891	16.968	0	0	0	1	0	0	17.47	2.0148	16.554	2
1425	14.25	0	0	0	0	0	0	0	0	0	0	0	0	0	0	0	0	0	0	0	0	0	0	0	0	0	0	0	0	0	0	0	0	0	11.258	-11.253	19.496	0	0	0	0	-1	0	-2.0279	-17.891	16.969	0	0	0	0	-1	0	-2.0278	-17.891	16.968	0	0	0	0	0	0	0	0	0	0
1426	14.26	0	0	0	0	0	0	0	0	0	0	0	0	0	0	0	0	0	0	0	0	0	0	0	0	0	0	0	0	0	0	0	0	0	0	0	0	0	0	0	0	0	0	0	0	0	0	0	0	0	0	0	0	0	0	0	0	0	0	0	0	0	0	0	0
1427	14.27	0	0	0	0	0	0	0	0	0	0	0	0	0	0	0	0	0	0	0	0	0	0	0	0	0	0	0	0	0	0	0	0	0	0	0	0	0	0	0	0	0	0	0	0	0	0	0	0	0	-1	0	-2.0278	-17.891	16.968	0	0	0	1	0	0	17.47	2.0148	16.554	2
1428	14.28	0	0	0	0	0	0	0	0	0	0	0	0	0	0	0	0	0	0	0	0	0	0	0	0	0	0	0	0	0	0	0	0	0	0	0	0	0	0	0	0	0	0	0	0	0	0	0	0	0	-1	0	-2.0278	-17.891	16.968	0	0	0	0	0	0	0	0	0	2
1429	14.29	0	0	0	0	0	0	0	0	0	0	0	0	0	0	0	0	0	0	0	0	0	0	0	0	0	0	0	0	0	0	0	0	0	0	0	0	0	0	0	0	0	0	0	0	0	0	0	0	0	-1	0	-2.0278	-17.891	16.968	0	0	0	0	0	0	0	0	0	2
1430	14.3	0	0	0	0	0	0	0	0	0	0	0	0	0	0	0	0	0	0	0	0	0	0	0	0	0	0	0	0	0	0	0	0	0	10.991	-10.991	19.037	0	0	0	0	0	0	0	0	0	0	0	0	0	0	0	0	0	0	0	0	0	0	0	0	0	0	0	2
1431	14.31	0	0	0	0	0	0	0	0	0	0	0	0	0	0	0	0	0	0	0	0	0	0	0	0	0	0	0	0	0	0	0	0	0	0	0	0	0	0	0	0	0	0	0	0	0	0	0	0	0	-1	0	-2.0278	-17.891	16.968	0	0	0	1	0	0	17.47	2.0148	16.554	2
1432	14.32	0	0	0	0	0	0	10.917	-10.917	18.908	0	0	0	0	0	0	0	0	0	0	0	0	0	0	0	0	0	0	0	0	0	1	0	0	17.883	2.027	16.961	0	0	0	0	0	0	0	0	0	0	0	0	0	-1	0	-2.0278	-17.891	16.968	0	0	0	1	0	0	17.47	2.0148	16.554	2
1433	14.33	0	0	0	0	0	0	0	0	0	0	0	0	0	0	0	0	0	0	0	0	0	0	0	0	0	0	0	0	0	0	1	0	0	17.883	2.027	16.961	0	0	0	0	0	0	0	0	0	0	0	0	0	-1	0	-2.0278	-17.891	16.968	0	0	0	0	0	0	0	0	0	2
1434	14.34	0	0	0	0	0	0	0	0	0	0	0	0	0	0	0	0	0	0	0	0	0	0	0	0	0	0	0	0	0	0	1	0	0	17.883	2.027	16.961	0	0	0	0	0	0	0	0	0	0	0	0	0	-1	0	-2.0278	-17.891	16.968	0	0	0	1	0	0	17.47	2.0148	16.554	0
1435	14.35	0	0	0	0	0	0	0	0	0	0	0	0	0	0	0	0	0	0	0	0	0	0	0	0	0	0	0	0	0	0	0	0	0	0	0	0	0	0	0	0	0	0	0	0	0	0	0	0	0	-1	0	-2.0278	-17.891	16.968	0	0	0	1	0	0	17.47	2.0148	16.554	2
1436	14.36	0	0	0	0	0	0	0	0	0	0	0	0	0	0	0	0	0	0	0	0	0	0	0	0	10.989	-10.989	19.033	0	0	0	0	0	0	0	0	0	0	0	0	0	0	0	0	0	0	0	0	0	0	0	0	0	0	0	0	0	0	0	0	0	0	0	0	2
1437	14.37	0	0	0	0	0	0	0	0	0	0	0	0	0	0	0	0	0	0	0	0	0	0	0	0	0	0	0	0	0	0	0	0	0	0	0	0	0	0	0	0	0	0	0	0	0	0	0	0	0	0	0	0	0	0	0	0	0	0	0	0	0	0	0	2
1438	14.38	0	0	0	0	0	0	0	0	0	0	0	0	0	0	0	0	0	0	0	0	0	0	0	0	0	0	0	0	0	0	0	0	0	0	0	0	0	0	0	0	-1	0	-2.0279	-17.891	16.969	0	0	0	0	-1	0	-2.0278	-17.891	16.968	0	0	0	0	0	0	0	0	0	2
1439	14.39	0	0	0	0	0	0	0	0	0	0	0	0	0	0	0	0	0	0	0	0	0	0	0	0	0	0	0	0	0	0	1	0	0	17.883	2.027	16.961	0	0	0	0	0	0	0	0	0	0	0	0	0	0	0	0	0	0	0	0	0	1	0	0	17.47	2.0148	16.554	2
1440	14.4	0	0	0	0	0	0	0	0	0	0	0	0	0	0	0	0	0	0	0	0	0	0	0	0	0	0	0	0	0	0	0	0	0	0	0	0	0	0	0	0	0	0	0	0	0	0	0	0	0	-1	0	-2.0278	-17.891	16.968	0	0	0	0	0	0	0	0	0	0
1441	14.41	0	0	0	0	0	0	0	0	0	0	0	0	0	0	0	0	0	0	0	0	0	0	0	0	0	0	0	0	0	0	0	0	0	0	0	0	0	0	0	0	-1	0	-2.0279	-17.891	16.969	0	0	0	0	0	0	0	0	0	0	0	0	1	0	0	17.47	2.0148	16.554	0
1442	14.42	0	0	0	0	0	0	0	0	0	0	0	0	0	0	0	0	0	0	0	0	0	0	0	0	10.989	-10.989	19.033	0	0	0	0	0	0	0	0	0	0	0	0	0	0	0	0	0	0	0	0	0	0	-1	0	-2.0278	-17.891	16.968	0	0	0	1	0	0	17.47	2.0148	16.554	2
1443	14.43	0	0	0	0	0	0	0	0	0	0	0	0	0	0	0	0	0	0	0	0	0	0	0	0	0	0	0	0	0	0	0	0	0	0	0	0	0	0	0	0	0	0	10.996	-10.996	19.046	0	0	0	0	-1	0	-2.0278	-17.891	16.968	0	0	0	0	0	0	0	0	0	2
1444	14.44	0	0	0	0	0	0	0	0	0	0	0	0	0	0	0	0	0	0	0	0	0	0	0	0	0	0	0	0	0	0	0	0	0	0	0	0	0	0	0	0	0	0	0	0	0	0	0	0	0	0	0	0	0	0	0	0	0	1	0	0	17.471	2.0135	16.556	2
1445	14.45	0	0	0	0	0	0	0	0	0	0	0	0	0	0	0	0	0	0	0	0	0	0	-1	0	-2.0266	-17.88	16.957	0	0	0	0	0	0	0	0	0	0	0	0	0	0	0	0	0	0	0	0	0	0	-1	0	-2.0278	-17.891	16.968	0	0	0	0	0	0	0	0	0	2
1446	14.46	0	0	0	0	0	0	0	0	0	0	0	0	0	0	0	0	0	0	0	0	0	0	0	0	0	0	0	0	0	0	0	0	0	0	0	0	0	0	0	0	0	0	0	0	0	0	0	0	0	-1	0	-2.0278	-17.891	16.968	0	0	0	0	0	0	0	0	0	2
1447	14.47	0	0	0	0	0	0	0	0	0	0	0	0	0	0	0	0	0	0	0	0	0	0	0	0	0	0	0	0	0	0	1	0	0	17.883	2.027	16.961	0	0	0	0	0	0	0	0	0	0	0	0	0	0	0	0	0	0	0	0	0	1	0	0	17.47	2.0148	16.554	2
1448	14.48	0	0	0	0	0	0	0	0	0	0	0	0	0	0	0	0	0	0	0	0	0	0	0	0	0	0	0	0	0	0	0	0	0	0	0	0	0	0	0	0	0	0	0	0	0	0	0	0	0	-1	0	-2.0278	-17.891	16.968	0	0	0	1	0	0	17.47	2.0148	16.554	2
1449	14.49	0	0	0	0	0	0	0	0	0	0	0	0	0	0	0	0	0	0	0	0	0	0	0	0	10.989	-10.989	19.033	0	0	0	0	0	0	0	0	0	0	0	0	0	0	0	0	0	0	0	0	0	1	-1	0	7.5503	-27.469	31.921	0	0	0	1	0	0	17.47	2.0148	16.554	2
1450	14.5	0	0	0	0	0	0	0	0	0	0	0	0	0	0	0	0	0	0	0	0	0	0	0	0	0	0	0	0	0	0	1	0	0	17.883	2.027	16.961	0	0	0	0	0	0	0	0	0	0	0	0	0	0	0	0	0	0	0	0	0	0	0	0	0	0	0	2
1451	14.51	0	0	0	0	0	0	10.917	-10.917	18.908	0	0	0	0	0	0	0	0	0	0	0	0	0	0	0	0	0	0	0	0	0	1	0	0	17.761	2.1499	16.789	0	0	0	0	0	0	0	0	0	0	0	0	1	-1	0	7.5503	-27.469	31.921	0	0	0	1	0	0	17.47	2.0148	16.554	2
1452	14.52	0	0	0	0	0	0	0	0	0	0	0	0	0	0	0	0	0	0	0	0	0	0	0	0	0	0	0	0	0	0	1	0	0	17.883	2.027	16.961	0	0	0	0	-1	0	-2.0279	-17.891	16.969	0	0	0	0	-1	0	-2.0278	-17.891	16.968	0	0	0	0	0	0	0	0	0	2
1453	14.53	0	0	0	0	0	0	0	0	0	0	0	0	0	0	0	0	0	0	0	0	0	0	0	0	0	0	0	0	0	0	0	0	0	0	0	0	0	0	0	0	0	0	0	0	0	0	0	0	0	-1	0	-2.0278	-17.891	16.968	0	0	0	1	0	0	17.47	2.0148	16.554	0
1454	14.54	0	0	0	0	0	0	0	0	0	0	0	0	0	0	0	0	0	0	0	0	0	0	0	0	0	0	0	0	0	0	0	0	0	0	0	0	0	0	0	0	0	0	0	0	0	0	0	0	0	0	0	0	0	0	0	0	0	1	0	0	17.47	2.0148	16.554	2
1455	14.55	0	0	0	0	0	0	0	0	0	0	0	0	0	0	0	0	0	0	0	0	0	0	0	0	0	0	0	0	0	0	0	0	0	11.258	-11.253	19.496	0	0	0	0	0	0	0	0	0	0	0	0	0	-1	0	-2.0278	-17.891	16.968	0	0	0	0	0	0	0	0	0	2
1456	14.56	0	0	0	0	0	0	10.917	-10.917	18.908	0	0	0	0	0	0	0	0	0	0	0	0	0	0	0	10.989	-10.989	19.033	0	0	0	1	0	0	17.883	2.027	16.961	0	0	0	0	0	0	0	0	0	0	0	0	0	-1	0	-2.0278	-17.891	16.968	0	0	0	1	0	0	17.47	2.0148	16.554	2
1457	14.57	0	0	0	0	0	0	0	0	0	0	0	0	0	0	0	0	0	0	0	0	0	0	0	0	0	0	0	0	0	0	1	0	0	17.883	2.027	16.961	0	0	0	0	0	0	0	0	0	0	0	0	0	-1	0	-2.0278	-17.891	16.968	0	0	0	0	0	0	0	0	0	2
1458	14.58	0	0	0	0	0	0	0	0	0	0	0	0	0	0	0	0	0	0	0	0	0	0	0	0	0	0	0	0	0	0	0	0	0	0	0	0	0	0	0	0	0	0	0	0	0	0	0	0	0	-1	0	-2.0278	-17.891	16.968	0	0	0	0	0	0	0	0	0	2
1459	14.59	0	0	0	0	0	0	0	0	0	0	0	0	0	0	0	0	0	0	0	0	0	0	0	0	0	0	0	0	0	0	0	0	0	0	0	0	0	0	0	0	0	0	0	0	0	0	0	0	0	-1	0	-2.0278	-17.891	16.968	0	0	0	0	0	0	0	0	0	2
1460	14.6	0	0	0	0	0	0	0	0	0	0	0	0	0	0	0	0	0	0	0	0	0	0	0	0	0	0	0	0	0	0	0	-1	0	-2.0265	-17.879	16.957	0	0	0	0	-1	0	-2.0279	-17.891	16.969	0	0	0	0	-1	0	-2.0278	-17.891	16.968	0	0	0	0	0	0	0	0	0	2
1461	14.61	0	0	0	0	0	0	0	0	0	0	0	0	0	0	0	0	0	0	0	0	0	0	0	0	0	0	0	0	0	0	1	0	0	17.883	2.027	16.961	0	0	0	0	0	0	0	0	0	0	0	0	0	-1	0	-2.0278	-17.891	16.968	0	0	0	1	0	0	17.47	2.0148	16.554	0
1462	14.62	0	0	0	0	0	0	0	0	0	0	0	0	0	0	0	0	0	0	0	0	0	0	0	0	0	0	0	0	0	0	1	-1	0	15.733	-15.728	27.247	0	0	0	0	0	0	0	0	0	0	0	0	0	-1	0	-2.0278	-17.891	16.968	0	0	0	0	0	0	0	0	0	2
1463	14.63	0	0	0	0	0	0	0	0	0	0	0	0	0	0	0	0	0	0	0	0	0	0	0	0	0	0	0	0	0	0	0	0	0	0	0	0	0	0	0	0	0	0	0	0	0	0	0	0	0	-1	0	-2.0278	-17.891	16.968	0	0	0	0	0	0	0	0	0	2
1464	14.64	0	0	0	0	0	0	0	0	0	0	0	0	0	0	0	0	0	0	0	0	0	0	0	0	0	0	0	0	0	0	1	0	0	17.883	2.027	16.961	0	0	0	0	0	0	0	0	0	0	0	0	0	0	0	0	0	0	0	0	0	1	0	0	17.47	2.0148	16.554	2
1465	14.65	0	0	0	0	0	0	0	0	0	0	0	0	0	0	0	0	0	0	0	0	0	0	0	0	10.989	-10.989	19.033	0	0	0	0	0	0	0	0	0	0	0	0	0	0	0	10.996	-10.996	19.046	0	0	0	0	-1	0	-2.0278	-17.891	16.968	0	0	0	0	0	0	0	0	0	2
1466	14.66	0	0	0	0	0	0	0	0	0	0	0	0	0	-1	0	-2.0372	-17.821	16.895	0	0	0	0	0	0	0	0	0	0	0	0	0	-1	0	-2.0265	-17.879	16.957	0	0	0	0	-1	0	-2.0279	-17.891	16.969	0	0	0	0	0	0	0	0	0	0	0	0	1	0	0	17.47	2.0148	16.554	2
1467	14.67	0	0	0	0	0	0	0	0	0	0	0	0	0	0	0	0	0	0	0	0	0	0	0	0	0	0	0	0	0	0	1	0	0	17.883	2.027	16.961	0	0	0	0	0	0	0	0	0	0	0	0	0	-1	0	-2.0278	-17.891	16.968	0	0	0	0	0	0	0	0	0	2
1468	14.68	0	0	0	0	0	0	0	0	0	0	0	0	0	0	0	0	0	0	0	0	0	0	0	0	0	0	0	0	0	0	0	0	0	0	0	0	0	0	0	0	0	0	0	0	0	0	0	0	0	-1	0	-2.0278	-17.891	16.968	0	0	0	0	0	0	0	0	0	2
1469	14.69	0	0	0	0	0	0	0	0	0	0	0	0	0	0	0	0	0	0	0	0	0	0	0	0	0	0	0	0	0	0	1	0	0	17.761	2.1499	16.789	0	0	0	0	0	0	0	0	0	0	0	0	0	-1	0	-2.0278	-17.891	16.968	0	0	0	1	0	0	17.471	2.0135	16.556	2
1470	14.7	0	0	0	0	0	0	0	0	0	0	0	0	0	0	0	0	0	0	0	0	0	0	0	0	0	0	0	0	0	0	1	0	0	17.883	2.027	16.961	0	0	0	0	0	0	0	0	0	0	0	0	0	0	0	0	0	0	0	0	0	1	0	0	17.47	2.0148	16.554	2
1471	14.71	0	0	0	0	0	0	0	0	0	0	0	0	0	0	0	0	0	0	0	0	0	0	0	0	0	0	0	0	0	0	0	0	0	0	0	0	0	0	0	0	0	0	0	0	0	0	0	0	0	0	0	0	0	0	0	0	0	1	0	0	17.47	2.0148	16.554	0
1472	14.72	0	0	0	0	0	0	0	0	0	0	0	0	0	0	0	0	0	0	0	0	0	0	0	0	0	0	0	0	0	0	1	0	0	17.883	2.027	16.961	0	0	0	0	-1	0	-2.0279	-17.891	16.969	0	0	0	0	-1	0	-2.0278	-17.891	16.968	0	0	0	0	0	0	0	0	0	2
1473	14.73	0	0	0	0	0	0	0	0	0	0	0	0	0	0	0	0	0	0	0	0	0	0	0	0	0	0	0	0	0	0	0	0	0	0	0	0	0	0	0	0	0	0	10.996	-10.996	19.046	0	0	0	0	-1	0	-2.0278	-17.891	16.968	0	0	0	0	0	0	0	0	0	2
1474	14.74	0	0	0	0	0	0	0	0	0	0	0	0	0	0	0	0	0	0	0	0	0	0	0	0	0	0	0	0	0	0	1	0	0	17.761	2.1499	16.789	0	0	0	0	0	0	0	0	0	0	0	0	0	-1	0	-2.0278	-17.891	16.968	0	0	0	1	0	0	17.47	2.0148	16.554	2
1475	14.75	0	0	0	0	0	0	0	0	0	0	0	0	0	0	0	0	0	0	0	0	0	0	0	0	0	0	0	0	0	0	0	0	0	0	0	0	0	0	0	0	0	0	0	0	0	0	0	0	0	-1	0	-2.0278	-17.891	16.968	0	0	0	0	0	0	0	0	0	2
1476	14.76	0	0	0	0	0	0	0	0	0	0	0	0	0	-1	0	-2.0372	-17.821	16.895	0	0	0	0	0	0	0	0	0	0	0	0	1	0	0	17.883	2.027	16.961	0	0	0	0	0	0	0	0	0	0	0	0	0	0	0	0	0	0	0	0	0	0	0	0	0	0	0	2
1477	14.77	0	0	0	0	0	0	0	0	0	0	0	0	0	0	0	0	0	0	0	0	0	0	0	0	0	0	0	0	0	0	1	0	0	17.883	2.027	16.961	0	0	0	0	0	0	0	0	0	0	0	0	0	-1	0	-2.0278	-17.891	16.968	0	0	0	1	0	0	17.47	2.0148	16.554	2
1478	14.78	0	0	0	0	0	0	0	0	0	0	0	0	0	0	0	0	0	0	0	0	0	0	0	0	0	0	0	0	0	0	0	-1	0	-2.0265	-17.879	16.957	0	0	0	0	0	0	10.996	-10.996	19.046	0	0	0	0	-1	0	-2.0278	-17.891	16.968	0	0	0	0	0	0	0	0	0	2
1479	14.79	0	0	0	0	0	0	0	0	0	0	0	0	0	0	0	0	0	0	0	0	0	0	0	0	0	0	0	0	0	0	1	0	0	17.883	2.027	16.961	0	0	0	0	0	0	0	0	0	0	0	0	0	-1	0	-2.0278	-17.891	16.968	0	0	0	1	0	0	17.47	2.0148	16.554	2
1480	14.8	0	0	0	0	0	0	0	0	0	0	0	0	0	0	0	0	0	0	0	0	0	0	0	0	0	0	0	0	0	0	0	0	0	0	0	0	0	0	0	0	0	0	0	0	0	0	0	0	0	-1	0	-2.0278	-17.891	16.968	0	0	0	0	0	0	0	0	0	2
1481	14.81	0	0	0	0	0	0	0	0	0	0	0	0	0	0	0	0	0	0	0	0	0	0	0	0	10.989	-10.989	19.033	0	0	0	1	0	0	17.883	2.027	16.961	0	0	0	0	0	0	0	0	0	0	0	0	0	-1	0	-2.0278	-17.891	16.968	0	0	0	0	0	0	0	0	0	2
1482	14.82	0	0	0	0	0	0	0	0	0	0	0	0	0	0	0	0	0	0	0	0	0	0	0	0	10.989	-10.989	19.033	0	0	0	1	0	0	17.883	2.027	16.961	0	0	0	0	-1	0	-2.0279	-17.891	16.969	0	0	0	0	-1	0	-2.0278	-17.891	16.968	0	0	0	0	0	0	0	0	0	2
1483	14.83	0	0	0	0	0	0	0	0	0	0	0	0	0	0	0	0	0	0	0	0	0	0	0	0	0	0	0	0	0	0	0	0	0	0	0	0	0	0	0	0	0	0	0	0	0	0	0	0	0	-1	0	-2.0278	-17.891	16.968	0	0	0	0	0	0	0	0	0	2
1484	14.84	0	0	0	0	0	0	0	0	0	0	0	0	0	0	0	0	0	0	0	0	0	0	0	0	10.989	-10.989	19.033	0	0	0	0	0	0	0	0	0	0	0	0	0	-1	0	-2.0279	-17.891	16.969	0	0	0	0	-1	0	-2.0278	-17.891	16.968	0	0	0	0	0	0	0	0	0	0
1485	14.85	0	0	0	0	0	0	0	0	0	0	0	0	0	0	0	0	0	0	0	0	0	0	0	0	0	0	0	0	0	0	0	0	0	0	0	0	0	0	0	0	0	0	0	0	0	0	0	0	0	-1	0	-2.0278	-17.891	16.968	0	0	0	0	0	0	0	0	0	2
1486	14.86	0	0	0	0	0	0	0	0	0	0	0	0	0	0	0	0	0	0	0	0	0	0	0	0	0	0	0	0	0	0	1	0	0	17.883	2.027	16.961	0	0	0	0	0	0	0	0	0	0	0	0	0	0	0	0	0	0	0	0	0	0	0	0	0	0	0	2
1487	14.87	0	0	0	0	0	0	0	0	0	0	0	0	0	0	0	0	0	0	0	0	0	0	0	0	10.989	-10.989	19.033	0	0	0	0	0	0	0	0	0	0	0	0	0	0	0	0	0	0	0	0	0	0	-1	0	-2.0278	-17.891	16.968	0	0	0	0	0	0	0	0	0	2
1488	14.88	0	0	0	0	0	0	0	0	0	0	0	0	0	0	0	0	0	0	0	0	0	0	0	0	0	0	0	0	0	0	0	0	0	0	0	0	0	0	0	0	-1	0	-2.0279	-17.891	16.969	0	0	0	0	0	0	0	0	0	0	0	0	0	0	0	0	0	0	2
1489	14.89	0	0	0	0	0	0	0	0	0	0	0	0	0	0	0	0	0	0	0	0	0	0	0	0	0	0	0	0	0	0	1	0	0	17.883	2.027	16.961	0	0	0	0	0	0	0	0	0	0	0	0	0	-1	0	-2.0278	-17.891	16.968	0	0	0	1	0	0	17.47	2.0148	16.554	2
1490	14.9	0	0	0	0	0	0	0	0	0	0	0	0	0	0	0	0	0	0	0	0	0	0	0	0	0	0	0	0	0	0	0	-1	0	-2.0265	-17.879	16.957	0	0	0	0	0	0	0	0	0	0	0	0	0	0	0	0	0	0	0	0	0	0	0	0	0	0	0	2
1491	14.91	0	0	0	0	0	0	0	0	0	0	0	0	0	0	0	0	0	0	0	0	0	0	0	0	0	0	0	0	0	0	0	0	0	0	0	0	0	0	0	0	0	0	0	0	0	0	0	0	0	-1	0	-2.0278	-17.891	16.968	0	0	0	1	0	0	17.47	2.0148	16.554	2
1492	14.92	0	0	0	0	0	0	0	0	0	0	0	0	0	0	0	0	0	0	0	0	0	0	0	0	0	0	0	0	0	0	1	0	0	17.883	2.027	16.961	0	0	0	0	0	0	0	0	0	0	0	0	0	0	0	0	0	0	0	0	0	1	0	0	17.47	2.0148	16.554	0
1493	14.93	0	0	0	0	0	0	0	0	0	0	0	0	0	0	0	0	0	0	0	0	0	0	0	0	0	0	0	0	0	0	0	-1	0	-2.0265	-17.879	16.957	0	0	0	0	0	0	10.996	-10.996	19.046	0	0	0	0	-1	0	-2.0278	-17.891	16.968	0	0	0	0	0	0	0	0	0	0
1494	14.94	0	0	0	0	0	0	10.917	-10.917	18.908	0	0	0	0	0	0	0	0	0	0	0	0	0	0	0	0	0	0	0	0	0	1	0	0	17.883	2.027	16.961	0	0	0	0	0	0	0	0	0	0	0	0	0	-1	0	-2.0278	-17.891	16.968	0	0	0	0	0	0	0	0	0	2
1495	14.95	0	0	0	0	0	0	0	0	0	0	0	0	0	0	0	0	0	0	0	0	0	0	0	0	0	0	0	0	0	0	0	0	0	0	0	0	0	0	0	0	-1	0	-2.0279	-17.891	16.969	0	0	0	0	-1	0	-2.0278	-17.891	16.968	0	0	0	1	0	0	17.47	2.0148	16.554	2
1496	14.96	0	0	0	0	0	0	0	0	0	0	0	0	0	0	0	0	0	0	0	0	0	0	0	0	0	0	0	0	0	0	0	0	0	0	0	0	0	0	0	0	0	0	0	0	0	0	0	0	0	0	0	0	0	0	0	0	0	1	0	0	17.47	2.0148	16.554	2
1497	14.97	0	0	0	0	0	0	10.917	-10.917	18.908	0	0	0	0	0	0	0	0	0	0	0	0	0	0	0	0	0	0	0	0	0	1	0	0	17.883	2.027	16.961	0	0	0	0	0	0	0	0	0	0	0	0	0	-1	0	-2.0278	-17.891	16.968	0	0	0	0	0	0	0	0	0	2
1498	14.98	0	0	0	0	0	0	0	0	0	0	0	0	0	0	0	0	0	0	0	0	0	0	0	0	10.989	-10.989	19.033	0	0	0	0	0	0	0	0	0	0	0	0	0	-1	0	-2.1508	-17.769	16.797	0	0	0	0	0	0	0	0	0	0	0	0	0	0	0	0	0	0	2
1499	14.99	0	0	0	0	0	0	0	0	0	0	0	0	0	0	0	0	0	0	0	0	0	0	0	0	0	0	0	0	0	0	0	0	0	0	0	0	0	0	0	0	0	0	0	0	0	0	0	0	0	-1	0	-2.0278	-17.891	16.968	0	0	0	1	0	0	17.47	2.0148	16.554	2
1500	15	0	0	0	0	0	0	0	0	0	0	0	0	0	0	0	0	0	0	0	0	0	0	0	0	0	0	0	0	0	0	0	0	0	0	0	0	0	0	0	0	0	0	10.996	-10.996	19.046	0	0	0	0	-1	0	-2.0278	-17.891	16.968	0	0	0	0	0	0	0	0	0	2
1501	15.01	0	0	0	0	0	0	0	0	0	0	0	0	0	0	0	0	0	0	0	0	0	0	0	0	0	0	0	0	0	0	0	0	0	0	0	0	0	0	0	0	0	0	0	0	0	0	0	0	0	-1	0	-2.0278	-17.891	16.968	0	0	0	1	0	0	17.47	2.0148	16.554	2
1502	15.02	0	0	0	0	0	0	0	0	0	0	0	0	0	0	0	0	0	0	0	0	0	0	0	0	0	0	0	0	0	0	0	0	0	0	0	0	0	0	0	0	0	0	0	0	0	0	0	0	0	0	0	0	0	0	0	0	0	1	0	0	17.47	2.0148	16.554	2
1503	15.03	0	0	0	0	0	0	0	0	0	0	0	0	0	0	0	0	0	0	0	0	0	0	0	0	0	0	0	0	0	0	1	0	0	17.883	2.027	16.961	0	0	0	0	-1	0	-2.1508	-17.769	16.797	0	0	0	0	-1	0	-2.0278	-17.891	16.968	0	0	0	1	0	0	17.47	2.0148	16.554	2
1504	15.04	0	0	0	0	0	0	0	0	0	0	0	0	0	0	0	0	0	0	0	0	0	0	0	0	0	0	0	0	0	0	1	0	0	17.761	2.1499	16.789	0	0	0	0	0	0	0	0	0	0	0	0	0	-1	0	-2.0278	-17.891	16.968	0	0	0	1	0	0	17.47	2.0148	16.554	2
1505	15.05	0	0	0	0	0	0	0	0	0	0	0	0	0	0	0	0	0	0	0	0	0	0	0	0	0	0	0	0	0	0	0	0	0	0	0	0	0	0	0	0	-1	0	-2.1508	-17.769	16.797	0	0	0	0	-1	0	-2.0278	-17.891	16.968	0	0	0	0	0	0	0	0	0	0
1506	15.06	0	0	0	0	0	0	0	0	0	0	0	0	0	0	0	0	0	0	0	0	0	0	0	0	10.989	-10.989	19.033	0	0	0	0	0	0	0	0	0	0	0	0	0	0	0	0	0	0	0	0	0	0	-1	0	-2.0278	-17.891	16.968	0	0	0	1	0	0	17.47	2.0148	16.554	2
1507	15.07	0	0	0	0	0	0	0	0	0	0	0	0	0	0	0	0	0	0	0	0	0	0	0	0	0	0	0	0	0	0	1	0	0	17.883	2.027	16.961	0	0	0	0	0	0	0	0	0	0	0	0	0	0	0	0	0	0	0	0	0	1	0	0	17.47	2.0148	16.554	2
1508	15.08	0	0	0	0	0	0	0	0	0	0	0	0	0	0	0	0	0	0	0	0	0	0	0	0	0	0	0	0	0	0	0	0	0	0	0	0	0	0	0	0	0	0	10.996	-10.996	19.046	0	0	0	0	-1	0	-2.0278	-17.891	16.968	0	0	0	0	0	0	0	0	0	2
1509	15.09	0	0	0	0	0	0	0	0	0	0	0	0	0	0	0	0	0	0	0	0	0	0	0	0	0	0	0	0	0	0	1	0	0	17.883	2.027	16.961	0	0	0	0	0	0	0	0	0	0	0	0	0	-1	0	-2.0278	-17.891	16.968	0	0	0	1	0	0	17.47	2.0148	16.554	2
1510	15.1	0	0	0	0	0	0	0	0	0	0	0	0	0	0	0	0	0	0	0	0	0	0	0	0	0	0	0	0	0	0	0	0	0	0	0	0	0	0	0	0	0	0	0	0	0	0	0	0	0	0	0	0	0	0	0	0	0	0	0	0	0	0	0	2
1511	15.11	0	0	0	0	0	0	0	0	0	0	0	0	0	0	0	0	0	0	0	0	0	0	0	0	0	0	0	0	0	0	0	0	0	0	0	0	0	0	0	0	0	0	0	0	0	0	0	0	0	0	0	0	0	0	0	0	0	1	0	0	17.47	2.0148	16.554	2
1512	15.12	0	0	0	0	0	0	0	0	0	0	0	0	0	0	0	0	0	0	0	0	0	0	0	0	0	0	0	0	0	0	1	0	0	17.883	2.027	16.961	0	0	0	0	0	0	0	0	0	0	0	0	0	-1	0	-2.0278	-17.891	16.968	0	0	0	1	0	0	17.47	2.0148	16.554	2
1513	15.13	0	0	0	0	0	0	0	0	0	0	0	0	0	0	0	0	0	0	0	0	0	0	0	0	0	0	0	0	0	0	1	0	0	17.883	2.027	16.961	0	0	0	0	0	0	0	0	0	0	0	0	0	0	0	0	0	0	0	0	0	0	0	0	0	0	0	2
1514	15.14	0	0	0	0	0	0	0	0	0	0	0	0	0	0	0	0	0	0	0	0	0	0	0	0	0	0	0	0	0	0	1	0	0	17.883	2.027	16.961	0	0	0	0	0	0	0	0	0	0	0	0	0	0	0	0	0	0	0	0	0	0	0	0	0	0	0	2
1515	15.15	0	0	0	0	0	0	0	0	0	0	0	0	0	0	0	0	0	0	0	0	0	0	0	0	0	0	0	0	0	0	0	-1	0	-2.0265	-17.879	16.957	0	0	0	0	0	0	0	0	0	0	0	0	0	-1	0	-2.0278	-17.891	16.968	0	0	0	1	0	0	17.47	2.0148	16.554	2
1516	15.16	0	0	0	0	0	0	0	0	0	0	0	0	0	0	0	0	0	0	0	0	0	0	0	0	0	0	0	0	0	0	0	0	0	11.258	-11.253	19.496	0	0	0	0	0	0	0	0	0	0	0	0	0	-1	0	-2.0278	-17.891	16.968	0	0	0	0	0	0	0	0	0	2
1517	15.17	0	0	0	0	0	0	0	0	0	0	0	0	0	0	0	0	0	0	0	0	0	0	0	0	0	0	0	0	0	0	1	0	0	17.883	2.027	16.961	0	0	0	0	0	0	0	0	0	0	0	0	0	-1	0	-2.0278	-17.891	16.968	0	0	0	0	0	0	0	0	0	2
1518	15.18	0	0	0	0	0	0	0	0	0	0	0	0	0	0	0	0	0	0	0	0	0	0	0	0	0	0	0	0	0	0	0	0	0	0	0	0	0	0	0	0	0	0	0	0	0	0	0	0	0	0	0	0	0	0	0	0	0	0	0	0	0	0	0	2
1519	15.19	0	0	0	0	0	0	0	0	0	0	0	0	0	0	0	0	0	0	0	0	0	0	0	0	10.989	-10.989	19.033	0	0	0	0	0	0	0	0	0	0	0	0	0	0	0	0	0	0	0	0	0	0	0	0	0	0	0	0	0	0	1	0	0	17.47	2.0148	16.554	2
1520	15.2	0	0	0	0	0	0	0	0	0	0	0	0	0	0	0	0	0	0	0	0	0	0	0	0	0	0	0	0	0	0	0	0	0	0	0	0	0	0	0	0	0	0	0	0	0	0	0	0	0	-1	0	-2.0278	-17.891	16.968	0	0	0	0	0	0	0	0	0	2
1521	15.21	0	0	0	0	0	0	0	0	0	0	0	0	0	0	0	0	0	0	0	0	0	0	0	0	0	0	0	0	0	0	0	0	0	0	0	0	0	0	0	0	0	0	0	0	0	0	0	0	0	-1	0	-2.0278	-17.891	16.968	0	0	0	1	0	0	30.423	8.5595	27.174	2
1522	15.22	0	0	0	0	0	0	0	0	0	0	0	0	0	0	0	0	0	0	0	0	0	0	0	0	0	0	0	0	0	0	0	0	0	0	0	0	0	0	0	0	0	0	0	0	0	0	0	0	0	-1	0	-2.0278	-17.891	16.968	0	0	0	1	0	0	17.471	2.0135	16.556	2
1523	15.23	0	0	0	0	0	0	0	0	0	0	0	0	0	0	0	0	0	0	0	0	0	0	0	0	0	0	0	0	0	0	0	0	0	0	0	0	0	0	0	0	0	0	0	0	0	0	0	0	0	0	0	0	0	0	0	0	0	0	0	0	0	0	0	2
1524	15.24	0	0	0	0	0	0	0	0	0	0	0	0	0	0	0	0	0	0	0	0	0	0	0	0	0	0	0	0	0	0	0	0	0	0	0	0	0	0	0	0	0	0	0	0	0	0	0	0	0	-1	0	-2.0278	-17.891	16.968	0	0	0	0	0	0	0	0	0	2
1525	15.25	0	0	0	0	0	0	0	0	0	0	0	0	0	0	0	0	0	0	0	0	0	0	0	0	0	0	0	0	0	0	0	0	0	0	0	0	0	0	0	0	0	0	0	0	0	0	0	0	0	-1	0	-2.0278	-17.891	16.968	0	0	0	0	0	0	0	0	0	2
1526	15.26	0	0	0	0	0	0	0	0	0	0	0	0	0	0	0	0	0	0	0	0	0	0	0	0	0	0	0	0	0	0	0	0	0	0	0	0	0	0	0	0	0	0	0	0	0	0	0	0	0	0	0	0	0	0	0	0	0	1	0	0	17.47	2.0148	16.554	0
1527	15.27	0	0	0	0	0	0	0	0	0	0	0	0	0	0	0	0	0	0	0	0	0	0	0	0	0	0	0	0	0	0	0	0	0	0	0	0	0	0	0	0	0	0	0	0	0	0	0	0	0	-1	0	-2.0278	-17.891	16.968	0	0	0	1	0	0	17.47	2.0148	16.554	2
1528	15.28	0	0	0	0	0	0	0	0	0	0	0	0	0	0	0	0	0	0	0	0	0	0	0	0	10.989	-10.989	19.033	0	0	0	0	-1	0	-2.0265	-17.879	16.957	0	0	0	0	0	0	10.996	-10.996	19.046	0	0	0	0	-1	0	-2.0278	-17.891	16.968	0	0	0	0	0	0	0	0	0	0
1529	15.29	0	0	0	0	0	0	0	0	0	0	0	0	0	0	0	0	0	0	0	0	0	0	0	0	0	0	0	0	0	0	1	0	0	17.883	2.027	16.961	0	0	0	0	0	0	0	0	0	0	0	0	0	-1	0	-2.0278	-17.891	16.968	0	0	0	1	0	0	17.47	2.0148	16.554	2
1530	15.3	0	0	0	0	0	0	0	0	0	0	0	0	0	0	0	0	0	0	0	0	0	0	0	0	0	0	0	0	0	0	0	0	0	0	0	0	0	0	0	0	0	0	0	0	0	0	0	0	0	-1	0	-2.0278	-17.891	16.968	0	0	0	0	0	0	0	0	0	2
1531	15.31	0	0	0	0	0	0	0	0	0	0	0	0	0	0	0	0	0	0	0	0	0	0	0	0	0	0	0	0	0	0	0	0	0	11.258	-11.253	19.496	0	0	0	0	0	0	0	0	0	0	0	0	0	0	0	10.994	-10.994	19.042	0	0	0	1	0	0	17.47	2.0148	16.554	2
1532	15.32	0	0	0	0	0	0	0	0	0	0	0	0	0	0	0	0	0	0	0	0	0	0	0	0	0	0	0	0	0	0	1	0	0	17.883	2.027	16.961	0	0	0	0	0	0	0	0	0	0	0	0	0	-1	0	-2.0278	-17.891	16.968	0	0	0	1	0	0	17.47	2.0148	16.554	2
1533	15.33	0	0	0	0	0	0	0	0	0	0	0	0	0	0	0	0	0	0	0	0	0	0	0	0	0	0	0	0	0	0	0	0	0	11.258	-11.253	19.496	0	0	0	0	0	0	10.996	-10.996	19.046	0	0	0	0	-1	0	-2.0278	-17.891	16.968	0	0	0	0	0	0	0	0	0	2
1534	15.34	0	0	0	0	0	0	10.917	-10.917	18.908	0	0	0	0	0	0	0	0	0	0	0	0	0	0	0	0	0	0	0	0	0	0	0	0	10.991	-10.991	19.037	0	0	0	0	0	0	0	0	0	0	0	0	0	0	0	0	0	0	0	0	0	1	0	0	17.47	2.0148	16.554	2
1535	15.35	0	0	0	0	0	0	0	0	0	0	0	0	0	0	0	0	0	0	0	0	0	0	0	0	0	0	0	0	0	0	0	-1	0	-2.0265	-17.879	16.957	0	0	0	0	0	0	0	0	0	0	0	0	0	-1	0	-2.0278	-17.891	16.968	0	0	0	0	0	0	0	0	0	2
1536	15.36	0	0	0	0	0	0	0	0	0	0	0	0	0	0	0	0	0	0	0	0	0	0	0	0	0	0	0	0	0	0	0	-1	0	-2.0265	-17.879	16.957	0	0	0	0	0	0	0	0	0	0	0	0	0	-1	0	-2.0278	-17.891	16.968	0	0	0	0	0	0	0	0	0	2
1537	15.37	0	0	0	0	-1	0	-2.0364	-17.814	16.888	0	0	0	0	0	0	0	0	0	0	0	0	0	0	0	0	0	0	0	0	0	1	0	0	17.883	2.027	16.961	0	0	0	0	0	0	0	0	0	0	0	0	0	0	0	0	0	0	0	0	0	0	0	0	0	0	0	2
1538	15.38	0	0	0	0	0	0	0	0	0	0	0	0	0	0	0	0	0	0	0	0	0	0	0	0	10.989	-10.989	19.033	0	0	0	1	0	0	17.883	2.027	16.961	0	0	0	0	0	0	0	0	0	0	0	0	0	-1	0	-2.0278	-17.891	16.968	0	0	0	0	0	0	0	0	0	2
1539	15.39	0	0	0	0	0	0	0	0	0	0	0	0	0	0	0	0	0	0	0	0	0	0	0	0	0	0	0	0	0	0	0	0	0	0	0	0	0	0	0	0	0	0	0	0	0	0	0	0	0	-1	0	-2.0278	-17.891	16.968	0	0	0	0	0	0	0	0	0	2
1540	15.4	0	0	0	0	0	0	0	0	0	0	0	0	0	0	0	0	0	0	0	0	0	0	0	0	0	0	0	0	0	0	0	0	0	0	0	0	0	0	0	0	0	0	0	0	0	0	0	0	0	0	0	0	0	0	0	0	0	0	0	0	0	0	0	2
1541	15.41	0	0	0	0	0	0	10.917	-10.917	18.908	0	0	0	0	0	0	0	0	0	0	0	0	0	0	0	0	0	0	0	0	0	1	0	0	17.883	2.027	16.961	0	0	0	0	0	0	0	0	0	0	0	0	0	-1	0	-2.0278	-17.891	16.968	0	0	0	0	0	0	0	0	0	0
1542	15.42	0	0	0	0	0	0	0	0	0	0	0	0	0	0	0	0	0	0	0	0	0	0	0	0	0	0	0	0	0	0	0	0	0	0	0	0	0	0	0	0	0	0	0	0	0	0	0	0	0	-1	0	-2.0278	-17.891	16.968	0	0	0	1	0	0	17.47	2.0148	16.554	2
1543	15.43	0	0	0	0	0	0	0	0	0	0	0	0	0	0	0	0	0	0	0	0	0	0	0	0	0	0	0	0	0	0	0	0	0	0	0	0	0	0	0	0	0	0	0	0	0	0	0	0	0	-1	0	-2.0278	-17.891	16.968	0	0	0	1	0	0	17.47	2.0148	16.554	2
1544	15.44	0	0	0	0	0	0	10.917	-10.917	18.908	0	0	0	0	0	0	0	0	0	0	0	0	0	0	0	10.989	-10.989	19.033	0	0	0	1	0	0	17.761	2.1499	16.789	0	0	0	0	0	0	0	0	0	0	0	0	0	-1	0	-2.0278	-17.891	16.968	0	0	0	1	0	0	17.471	2.0135	16.556	2
1545	15.45	0	0	0	0	0	0	0	0	0	0	0	0	0	0	0	0	0	0	0	0	0	0	0	0	0	0	0	0	0	0	0	-1	0	-2.0265	-17.879	16.957	0	0	0	0	0	0	0	0	0	0	0	0	0	-1	0	-2.0278	-17.891	16.968	0	0	0	0	0	0	0	0	0	2
1546	15.46	0	0	0	0	0	0	0	0	0	0	0	0	0	0	0	0	0	0	0	0	0	0	0	0	0	0	0	0	0	0	1	0	0	17.883	2.027	16.961	0	0	0	0	0	0	0	0	0	0	0	0	0	-1	0	-2.0278	-17.891	16.968	0	0	0	0	0	0	0	0	0	2
1547	15.47	0	0	0	0	0	0	0	0	0	0	0	0	0	0	0	0	0	0	0	0	0	0	0	0	0	0	0	0	0	0	0	0	0	0	0	0	0	0	0	0	0	0	0	0	0	0	0	0	0	0	0	0	0	0	0	0	0	0	0	0	0	0	0	2
1548	15.48	0	0	0	0	0	0	0	0	0	0	0	0	0	0	0	0	0	0	0	0	0	0	0	0	0	0	0	0	0	0	1	0	0	17.883	2.027	16.961	0	0	0	0	-1	0	-2.0279	-17.891	16.969	0	0	0	0	-1	0	-2.0278	-17.891	16.968	0	0	0	0	0	0	0	0	0	2
1549	15.49	0	0	0	0	0	0	0	0	0	0	0	0	0	0	0	0	0	0	0	0	0	0	0	0	0	0	0	0	0	0	0	0	0	0	0	0	0	0	0	0	0	0	0	0	0	0	0	0	0	-1	0	-2.0278	-17.891	16.968	0	0	0	0	0	0	0	0	0	2
1550	15.5	0	0	0	0	0	0	0	0	0	0	0	0	0	0	0	0	0	0	0	0	0	0	0	0	0	0	0	0	0	0	0	0	0	0	0	0	0	0	0	0	0	0	0	0	0	0	0	0	0	0	0	0	0	0	0	0	0	0	0	0	0	0	0	2
1551	15.51	0	0	0	0	0	0	0	0	0	0	0	0	0	-1	0	-2.0372	-17.821	16.895	0	0	0	0	0	0	0	0	0	0	0	0	0	0	0	0	0	0	0	0	0	0	0	0	0	0	0	0	0	0	0	-1	0	-2.0278	-17.891	16.968	0	0	0	0	0	0	0	0	0	2
1552	15.52	0	0	0	0	0	0	0	0	0	0	0	0	0	0	0	0	0	0	0	0	0	0	0	0	0	0	0	0	0	0	0	0	0	0	0	0	0	0	0	0	0	0	0	0	0	0	0	0	0	-1	0	-2.0278	-17.891	16.968	0	0	0	0	0	0	0	0	0	2
1553	15.53	0	0	0	0	0	0	0	0	0	0	0	0	0	0	0	0	0	0	0	0	0	0	0	0	0	0	0	0	0	0	0	0	0	0	0	0	0	0	0	0	0	0	10.996	-10.996	19.046	0	0	0	0	-1	0	-2.0278	-17.891	16.968	0	0	0	0	0	0	0	0	0	2
1554	15.54	0	0	0	0	0	0	0	0	0	0	0	0	0	0	0	0	0	0	0	0	0	0	0	0	0	0	0	0	0	0	1	0	0	17.883	2.027	16.961	0	0	0	0	0	0	0	0	0	0	0	0	0	-1	0	-2.0278	-17.891	16.968	0	0	0	1	0	0	17.47	2.0148	16.554	2
1555	15.55	0	0	0	0	0	0	0	0	0	0	0	0	0	0	0	0	0	0	0	0	0	0	0	0	0	0	0	0	0	0	0	0	0	0	0	0	0	0	0	0	0	0	0	0	0	0	0	0	0	-1	0	-2.0278	-17.891	16.968	0	0	0	0	0	0	0	0	0	2
1556	15.56	0	0	0	0	0	0	0	0	0	0	0	0	0	0	0	0	0	0	0	0	0	0	0	0	10.989	-10.989	19.033	0	0	0	0	0	0	0	0	0	0	0	0	0	0	0	0	0	0	0	0	0	0	-1	0	-2.0278	-17.891	16.968	0	0	0	1	0	0	17.47	2.0148	16.554	2
1557	15.57	0	0	0	0	-1	0	-2.0364	-17.814	16.888	0	0	0	0	0	0	0	0	0	0	0	0	0	0	0	0	0	0	0	0	0	1	0	0	17.883	2.027	16.961	0	0	0	0	0	0	0	0	0	0	0	0	0	-1	0	-2.0278	-17.891	16.968	0	0	0	1	0	0	17.47	2.0148	16.554	2
1558	15.58	0	0	0	0	0	0	0	0	0	0	0	0	0	0	0	0	0	0	0	0	0	0	0	0	0	0	0	0	0	0	1	0	0	17.883	2.027	16.961	0	0	0	0	0	0	10.996	-10.996	19.046	0	0	0	0	-1	0	-2.0278	-17.891	16.968	0	0	0	0	0	0	0	0	0	2
1559	15.59	0	0	0	0	0	0	0	0	0	0	0	0	0	0	0	0	0	0	0	0	0	0	0	0	0	0	0	0	0	0	1	0	0	17.883	2.027	16.961	0	0	0	0	0	0	0	0	0	0	0	0	0	-1	0	-2.0278	-17.891	16.968	0	0	0	1	0	0	17.47	2.0148	16.554	2
1560	15.6	0	0	0	0	0	0	0	0	0	0	0	0	0	0	0	0	0	0	0	0	0	0	0	0	0	0	0	0	0	0	0	0	0	0	0	0	0	0	0	0	0	0	0	0	0	0	0	0	0	-1	0	-2.0278	-17.891	16.968	0	0	0	0	0	0	0	0	0	2
1561	15.61	0	0	0	0	0	0	0	0	0	0	0	0	0	0	0	0	0	0	0	0	0	0	0	0	10.989	-10.989	19.033	0	0	0	1	0	0	17.883	2.027	16.961	0	0	0	0	0	0	0	0	0	0	0	0	0	-1	0	-2.0278	-17.891	16.968	0	0	0	1	0	0	17.47	2.0148	16.554	2
1562	15.62	0	0	0	0	0	0	0	0	0	0	0	0	0	0	0	0	0	0	0	0	0	0	0	0	0	0	0	0	0	0	1	0	0	17.883	2.027	16.961	0	0	0	0	0	0	0	0	0	0	0	0	0	0	0	0	0	0	0	0	0	0	0	0	0	0	0	2
1563	15.63	0	0	0	0	0	0	0	0	0	0	0	0	0	0	0	0	0	0	0	0	0	0	0	0	0	0	0	0	0	0	0	0	0	0	0	0	0	0	0	0	0	0	0	0	0	0	0	0	0	-1	0	-2.0278	-17.891	16.968	0	0	0	0	0	0	0	0	0	2
1564	15.64	0	0	0	0	0	0	0	0	0	0	0	0	0	0	0	0	0	0	0	0	0	0	0	0	0	0	0	0	0	0	0	0	0	0	0	0	0	0	0	0	0	0	0	0	0	0	0	0	0	0	0	0	0	0	0	0	0	0	0	0	0	0	0	2
1565	15.65	0	0	0	0	0	0	0	0	0	0	0	0	0	0	0	0	0	0	0	0	0	0	0	0	0	0	0	0	0	0	1	0	0	17.883	2.027	16.961	0	0	0	0	0	0	0	0	0	0	0	0	0	-1	0	-2.0278	-17.891	16.968	0	0	0	0	0	0	0	0	0	2
1566	15.66	0	0	0	0	0	0	0	0	0	0	0	0	0	0	0	0	0	0	0	0	0	0	0	0	0	0	0	0	0	0	0	0	0	10.991	-10.991	19.037	0	0	0	0	0	0	0	0	0	0	0	0	0	-1	0	-2.0278	-17.891	16.968	0	0	0	1	0	0	17.47	2.0148	16.554	2
1567	15.67	0	0	0	0	0	0	0	0	0	0	0	0	0	0	0	0	0	0	0	0	0	0	0	0	0	0	0	0	0	0	1	0	0	17.883	2.027	16.961	0	0	0	0	0	0	10.996	-10.996	19.046	0	0	0	0	0	0	0	0	0	0	0	0	1	0	0	17.47	2.0148	16.554	2
1568	15.68	0	0	0	0	0	0	0	0	0	0	0	0	0	0	0	0	0	0	0	0	0	0	0	0	0	0	0	0	0	0	0	0	0	0	0	0	0	0	0	0	0	0	0	0	0	0	0	0	0	0	0	0	0	0	0	0	0	0	0	0	0	0	0	2
1569	15.69	0	0	0	0	0	0	0	0	0	0	0	0	0	0	0	0	0	0	0	0	0	0	0	0	0	0	0	0	0	0	0	0	0	0	0	0	0	0	0	0	0	0	0	0	0	0	0	0	0	-1	0	-2.0278	-17.891	16.968	0	0	0	1	0	0	17.47	2.0148	16.554	0
1570	15.7	0	0	0	0	0	0	0	0	0	0	0	0	0	-1	0	-2.0372	-17.821	16.895	0	0	0	0	0	0	0	0	0	0	0	0	1	0	0	17.883	2.027	16.961	0	0	0	0	-1	0	-2.0279	-17.891	16.969	0	0	0	0	-1	0	-2.0278	-17.891	16.968	0	0	0	0	0	0	0	0	0	2
1571	15.71	0	0	0	0	0	0	0	0	0	0	0	0	0	0	0	0	0	0	0	0	0	0	0	0	0	0	0	0	0	0	1	-1	0	7.5496	-27.455	31.907	0	0	0	0	0	0	0	0	0	0	0	0	0	-1	0	-2.0278	-17.891	16.968	0	0	0	1	0	0	17.47	2.0148	16.554	2
1572	15.72	0	0	0	0	0	0	0	0	0	0	0	0	0	0	0	0	0	0	0	0	0	0	0	0	0	0	0	0	0	0	0	0	0	0	0	0	0	0	0	0	0	0	0	0	0	0	0	0	0	0	0	0	0	0	0	0	0	1	0	0	17.47	2.0148	16.554	2
1573	15.73	0	0	0	0	0	0	0	0	0	0	0	0	0	0	0	0	0	0	0	0	0	0	0	0	0	0	0	0	0	0	0	0	0	0	0	0	0	0	0	0	0	0	0	0	0	0	0	0	0	-1	0	-2.0278	-17.891	16.968	0	0	0	1	0	0	17.47	2.0148	16.554	2
1574	15.74	0	0	0	0	0	0	0	0	0	0	0	0	0	0	0	0	0	0	0	0	0	0	0	0	10.989	-10.989	19.033	0	0	0	1	0	0	17.883	2.027	16.961	0	0	0	0	0	0	0	0	0	0	0	0	0	-1	0	-2.0278	-17.891	16.968	0	0	0	1	0	0	17.47	2.0148	16.554	2
1575	15.75	0	0	0	0	0	0	0	0	0	0	0	0	0	0	0	0	0	0	0	0	0	0	0	0	0	0	0	0	0	0	1	0	0	17.883	2.027	16.961	0	0	0	0	0	0	0	0	0	0	0	0	0	0	0	0	0	0	0	0	0	0	0	0	0	0	0	2
1576	15.76	0	0	0	0	0	0	0	0	0	0	0	0	0	-1	0	-2.0372	-17.821	16.895	0	0	0	0	0	0	0	0	0	0	0	0	0	-1	0	-2.0265	-17.879	16.957	0	0	0	0	0	0	0	0	0	0	0	0	0	-1	0	-2.0278	-17.891	16.968	0	0	0	1	0	0	17.47	2.0148	16.554	2
1577	15.77	0	0	0	0	0	0	0	0	0	0	0	0	0	0	0	0	0	0	0	0	0	0	0	0	10.989	-10.989	19.033	0	0	0	1	0	0	17.883	2.027	16.961	0	0	0	0	0	0	0	0	0	0	0	0	0	-1	0	-2.0278	-17.891	16.968	0	0	0	0	0	0	0	0	0	2
1578	15.78	0	0	0	0	0	0	0	0	0	0	0	0	0	0	0	0	0	0	0	0	0	0	0	0	0	0	0	0	0	0	0	0	0	0	0	0	0	0	0	0	0	0	0	0	0	0	0	0	0	-1	0	-2.0278	-17.891	16.968	0	0	0	0	0	0	0	0	0	0
1579	15.79	0	0	0	0	0	0	0	0	0	0	0	0	0	0	0	0	0	0	0	0	0	0	0	0	10.989	-10.989	19.033	0	0	0	0	0	0	0	0	0	0	0	0	0	0	0	0	0	0	0	0	0	0	-1	0	-2.0278	-17.891	16.968	0	0	0	1	0	0	17.471	2.0135	16.556	2
1580	15.8	0	0	0	0	0	0	0	0	0	0	0	0	0	0	0	0	0	0	0	0	0	0	0	0	0	0	0	0	0	0	0	0	0	0	0	0	0	0	0	0	0	0	0	0	0	0	0	0	0	0	0	0	0	0	0	0	0	0	0	0	0	0	0	2
1581	15.81	0	0	0	0	0	0	0	0	0	0	0	0	0	0	0	0	0	0	0	0	0	0	0	0	0	0	0	0	0	0	0	0	0	0	0	0	0	0	0	0	0	0	0	0	0	0	0	0	0	-1	0	-2.0278	-17.891	16.968	0	0	0	0	0	0	0	0	0	2
1582	15.82	0	0	0	0	0	0	0	0	0	0	0	0	0	-1	0	-2.0372	-17.821	16.895	0	0	0	0	0	0	0	0	0	0	0	0	1	0	0	17.883	2.027	16.961	0	0	0	0	0	0	0	0	0	0	0	0	0	-1	0	-2.0278	-17.891	16.968	0	0	0	0	0	0	0	0	0	2
1583	15.83	0	0	0	0	0	0	0	0	0	0	0	0	0	0	0	0	0	0	0	0	0	0	0	0	0	0	0	0	0	0	0	0	0	0	0	0	0	0	0	0	0	0	0	0	0	0	0	0	0	-1	0	-2.0278	-17.891	16.968	0	0	0	0	0	0	0	0	0	2
1584	15.84	0	0	0	0	0	0	0	0	0	0	0	0	0	0	0	0	0	0	0	0	0	0	0	0	10.989	-10.989	19.033	0	0	0	1	0	0	17.883	2.027	16.961	0	0	0	0	0	0	0	0	0	0	0	0	0	-1	0	-2.0278	-17.891	16.968	0	0	0	1	0	0	17.47	2.0148	16.554	2
1585	15.85	0	0	0	0	0	0	0	0	0	0	0	0	0	0	0	0	0	0	0	0	0	0	0	0	0	0	0	0	0	0	1	0	0	17.761	2.1499	16.789	0	0	0	0	0	0	0	0	0	0	0	0	0	0	0	0	0	0	0	0	0	1	0	0	17.47	2.0148	16.554	2
1586	15.86	0	0	0	0	0	0	0	0	0	0	0	0	0	0	0	0	0	0	0	0	0	0	0	0	0	0	0	0	0	0	1	0	0	17.883	2.027	16.961	0	0	0	0	0	0	0	0	0	0	0	0	0	-1	0	-2.0278	-17.891	16.968	0	0	0	1	0	0	17.47	2.0148	16.554	2
1587	15.87	0	0	0	0	0	0	0	0	0	0	0	0	0	0	0	0	0	0	0	0	0	0	0	0	0	0	0	0	0	0	0	0	0	10.991	-10.991	19.037	0	0	0	0	0	0	0	0	0	0	0	0	0	-1	0	-2.0278	-17.891	16.968	0	0	0	1	0	0	17.47	2.0148	16.554	2
1588	15.88	0	0	0	0	0	0	0	0	0	0	0	0	0	0	0	0	0	0	0	0	0	0	0	0	0	0	0	0	0	0	0	0	0	0	0	0	0	0	0	0	0	0	0	0	0	0	0	0	0	-1	0	-2.0278	-17.891	16.968	0	0	0	0	0	0	0	0	0	2
1589	15.89	0	0	0	0	0	0	0	0	0	0	0	0	0	0	0	0	0	0	0	0	0	0	0	0	0	0	0	0	0	0	1	0	0	17.883	2.027	16.961	0	0	0	0	0	0	0	0	0	0	0	0	0	0	0	0	0	0	0	0	0	1	0	0	17.47	2.0148	16.554	2
1590	15.9	0	0	0	0	0	0	0	0	0	0	0	0	0	0	0	0	0	0	0	0	0	0	0	0	0	0	0	0	0	0	0	0	0	0	0	0	0	0	0	0	0	0	0	0	0	0	0	0	0	-1	0	-2.0278	-17.891	16.968	0	0	0	0	0	0	0	0	0	0
1591	15.91	0	0	0	0	0	0	0	0	0	0	0	0	0	0	0	0	0	0	0	0	0	0	0	0	0	0	0	0	0	0	0	-1	0	-2.0265	-17.879	16.957	0	0	0	0	0	0	0	0	0	0	0	0	0	-1	0	-2.0278	-17.891	16.968	0	0	0	1	0	0	17.47	2.0148	16.554	2
1592	15.92	0	0	0	0	0	0	0	0	0	0	0	0	0	0	0	0	0	0	0	0	0	0	0	0	0	0	0	0	0	0	1	0	0	17.761	2.1499	16.789	0	0	0	0	0	0	0	0	0	0	0	0	0	-1	0	-2.0278	-17.891	16.968	0	0	0	1	0	0	17.47	2.0148	16.554	2
1593	15.93	0	0	0	0	0	0	0	0	0	0	0	0	0	0	0	0	0	0	0	0	0	0	0	0	0	0	0	0	0	0	0	0	0	0	0	0	0	0	0	0	0	0	0	0	0	0	0	0	0	-1	0	-2.0278	-17.891	16.968	0	0	0	0	0	0	0	0	0	2
1594	15.94	0	0	0	0	0	0	0	0	0	0	0	0	0	0	0	0	0	0	0	0	0	0	0	0	0	0	0	0	0	0	0	0	0	0	0	0	0	0	0	0	0	0	0	0	0	0	0	0	0	-1	0	-2.0278	-17.891	16.968	0	0	0	1	0	0	17.47	2.0148	16.554	2
1595	15.95	0	0	0	0	0	0	0	0	0	0	0	0	0	0	0	0	0	0	0	0	0	0	0	0	0	0	0	0	0	0	0	0	0	0	0	0	0	0	0	0	-1	0	-2.0279	-17.891	16.969	0	0	0	0	-1	0	-2.0278	-17.891	16.968	0	0	0	0	0	0	0	0	0	2
1596	15.96	0	0	0	0	0	0	0	0	0	0	0	0	0	0	0	0	0	0	0	0	0	0	0	0	0	0	0	0	0	0	1	0	0	17.761	2.1499	16.789	0	0	0	0	0	0	10.996	-10.996	19.046	0	0	0	0	0	0	0	0	0	0	0	0	1	0	0	17.47	2.0148	16.554	2
1597	15.97	0	0	0	0	0	0	0	0	0	0	0	0	0	0	0	0	0	0	0	0	0	0	0	0	0	0	0	0	0	0	0	0	0	0	0	0	0	0	0	0	0	0	0	0	0	0	0	0	0	-1	0	-2.0278	-17.891	16.968	0	0	0	0	0	0	0	0	0	2
1598	15.98	0	0	0	0	0	0	0	0	0	0	0	0	0	0	0	0	0	0	0	0	0	0	0	0	10.989	-10.989	19.033	0	0	0	1	0	0	17.883	2.027	16.961	0	0	0	0	0	0	0	0	0	0	0	0	0	0	0	0	0	0	0	0	0	0	0	0	0	0	0	2
1599	15.99	0	0	0	0	0	0	0	0	0	0	0	0	0	0	0	0	0	0	0	0	0	0	0	0	0	0	0	0	0	0	0	0	0	10.991	-10.991	19.037	0	0	0	0	0	0	0	0	0	0	0	0	0	-1	0	-2.0278	-17.891	16.968	0	0	0	1	0	0	17.47	2.0148	16.554	2
1600	16	0	0	0	0	0	0	0	0	0	0	0	0	0	0	0	0	0	0	0	0	0	0	0	0	0	0	0	0	0	0	0	-1	0	-2.0265	-17.879	16.957	0	0	0	0	0	0	0	0	0	0	0	0	0	-1	0	-2.0278	-17.891	16.968	0	0	0	1	0	0	17.47	2.0148	16.554	0
1601	16.01	0	0	0	0	0	0	0	0	0	0	0	0	0	0	0	0	0	0	0	0	0	0	0	0	0	0	0	0	0	0	0	0	0	10.991	-10.991	19.037	0	0	0	0	0	0	0	0	0	0	0	0	0	0	0	0	0	0	0	0	0	1	0	0	17.47	2.0148	16.554	2
1602	16.02	0	0	0	0	0	0	0	0	0	0	0	0	0	0	0	0	0	0	0	0	0	0	0	0	0	0	0	0	0	0	0	0	0	10.991	-10.991	19.037	0	0	0	0	0	0	10.996	-10.996	19.046	0	0	0	0	-1	0	-2.0278	-17.891	16.968	0	0	0	1	0	0	17.47	2.0148	16.554	2
1603	16.03	0	0	0	0	0	0	0	0	0	0	0	0	0	0	0	0	0	0	0	0	0	0	0	0	0	0	0	0	0	0	1	0	0	17.883	2.027	16.961	0	0	0	0	0	0	0	0	0	0	0	0	0	-1	0	-2.0278	-17.891	16.968	0	0	0	0	0	0	0	0	0	2
1604	16.04	0	0	0	0	0	0	0	0	0	0	0	0	0	0	0	0	0	0	0	0	0	0	0	0	0	0	0	0	0	0	0	0	0	0	0	0	0	0	0	0	0	0	0	0	0	0	0	0	0	-1	0	-2.0278	-17.891	16.968	0	0	0	1	0	0	17.47	2.0148	16.554	2
1605	16.05	0	0	0	0	0	0	0	0	0	0	0	0	0	0	0	0	0	0	0	0	0	0	0	0	0	0	0	0	0	0	1	0	0	17.883	2.027	16.961	0	0	0	0	0	0	0	0	0	0	0	0	0	-1	0	-2.0278	-17.891	16.968	0	0	0	1	0	0	17.47	2.0148	16.554	2
1606	16.06	0	0	0	0	0	0	0	0	0	0	0	0	0	0	0	0	0	0	0	0	0	0	0	0	10.989	-10.989	19.033	0	0	0	1	0	0	17.883	2.027	16.961	0	0	0	0	0	0	0	0	0	0	0	0	0	-1	0	-2.0278	-17.891	16.968	0	0	0	0	0	0	0	0	0	2
1607	16.07	0	0	0	0	0	0	0	0	0	0	0	0	0	0	0	0	0	0	0	0	0	0	0	0	0	0	0	0	0	0	0	0	0	10.991	-10.991	19.037	0	0	0	0	0	0	0	0	0	0	0	0	0	-1	0	-2.0278	-17.891	16.968	0	0	0	1	0	0	17.47	2.0148	16.554	2
1608	16.08	0	0	0	0	0	0	0	0	0	0	0	0	0	0	0	0	0	0	0	0	0	0	0	0	0	0	0	0	0	0	0	0	0	0	0	0	0	0	0	0	0	0	10.996	-10.996	19.046	0	0	0	0	-1	0	-2.0278	-17.891	16.968	0	0	0	0	0	0	0	0	0	2
1609	16.09	0	0	0	0	0	0	10.917	-10.917	18.908	0	0	0	0	0	0	0	0	0	0	0	0	0	0	0	0	0	0	0	0	0	1	0	0	17.761	2.1499	16.789	0	0	0	0	0	0	0	0	0	0	0	0	0	-1	0	-2.0278	-17.891	16.968	0	0	0	0	0	0	0	0	0	2
1610	16.1	0	0	0	0	0	0	0	0	0	0	0	0	0	0	0	0	0	0	0	0	0	0	0	0	0	0	0	0	0	0	0	0	0	0	0	0	0	0	0	0	0	0	0	0	0	0	0	0	0	-1	0	-2.0278	-17.891	16.968	0	0	0	1	0	0	17.47	2.0148	16.554	2
1611	16.11	0	0	0	0	0	0	0	0	0	0	0	0	0	0	0	0	0	0	0	0	0	0	0	0	0	0	0	0	0	0	1	0	0	17.883	2.027	16.961	0	0	0	0	0	0	0	0	0	0	0	0	0	-1	0	-2.0278	-17.891	16.968	0	0	0	1	0	0	17.47	2.0148	16.554	0
1612	16.12	0	0	0	0	0	0	0	0	0	0	0	0	0	0	0	0	0	0	0	0	0	0	0	0	0	0	0	0	0	0	0	0	0	10.991	-10.991	19.037	0	0	0	0	0	0	0	0	0	0	0	0	0	-1	0	-2.0278	-17.891	16.968	0	0	0	1	0	0	17.47	2.0148	16.554	2
1613	16.13	0	0	0	0	0	0	0	0	0	0	0	0	0	0	0	0	0	0	0	0	0	0	0	0	0	0	0	0	0	0	0	0	0	0	0	0	0	0	0	0	0	0	0	0	0	0	0	0	0	-1	0	-2.0278	-17.891	16.968	0	0	0	1	0	0	17.47	2.0148	16.554	2
1614	16.14	0	0	0	0	0	0	0	0	0	0	0	0	0	0	0	0	0	0	0	0	0	0	0	0	0	0	0	0	0	0	0	0	0	0	0	0	0	0	0	0	0	0	0	0	0	0	0	0	0	-1	0	-2.0278	-17.891	16.968	0	0	0	1	0	0	17.47	2.0148	16.554	2
1615	16.15	0	0	0	0	0	0	0	0	0	0	0	0	0	0	0	0	0	0	0	0	0	0	0	0	0	0	0	0	0	0	0	0	0	0	0	0	0	0	0	0	0	0	0	0	0	0	0	0	0	-1	0	-2.0278	-17.891	16.968	0	0	0	1	0	0	17.47	2.0148	16.554	2
1616	16.16	0	0	0	0	0	0	10.917	-10.917	18.908	0	0	0	0	0	0	0	0	0	0	0	0	0	0	0	0	0	0	0	0	0	1	0	0	17.883	2.027	16.961	0	0	0	0	0	0	0	0	0	0	0	0	0	-1	0	-2.0278	-17.891	16.968	0	0	0	1	0	0	17.47	2.0148	16.554	2
1617	16.17	0	0	0	0	0	0	0	0	0	0	0	0	0	0	0	0	0	0	0	0	0	0	0	0	0	0	0	0	0	0	1	0	0	17.883	2.027	16.961	0	0	0	0	0	0	10.996	-10.996	19.046	0	0	0	0	-1	0	-2.0278	-17.891	16.968	0	0	0	1	0	0	17.47	2.0148	16.554	2
1618	16.18	0	0	0	0	0	0	0	0	0	0	0	0	0	0	0	0	0	0	0	0	0	0	0	0	0	0	0	0	0	0	0	0	0	0	0	0	0	0	0	0	0	0	0	0	0	0	0	0	0	-1	0	-2.0278	-17.891	16.968	0	0	0	0	0	0	0	0	0	2
1619	16.19	0	0	0	0	0	0	0	0	0	0	0	0	0	0	0	0	0	0	0	0	0	0	0	0	0	0	0	0	0	0	0	-1	0	-2.0265	-17.879	16.957	0	0	0	0	0	0	0	0	0	0	0	0	0	0	0	0	0	0	0	0	0	1	0	0	17.47	2.0148	16.554	2
1620	16.2	0	0	0	0	0	0	0	0	0	0	0	0	0	0	0	0	0	0	0	0	0	0	0	0	0	0	0	0	0	0	0	0	0	0	0	0	0	0	0	0	-1	0	-2.0279	-17.891	16.969	0	0	0	0	-1	0	-2.0278	-17.891	16.968	0	0	0	0	0	0	0	0	0	2
1621	16.21	0	0	0	0	0	0	0	0	0	0	0	0	0	0	0	0	0	0	0	0	0	0	0	0	0	0	0	0	0	0	0	-1	0	-2.0265	-17.879	16.957	0	0	0	0	0	0	0	0	0	0	0	0	0	-1	0	-2.0278	-17.891	16.968	0	0	0	0	0	0	0	0	0	2
1622	16.22	0	0	0	0	0	0	0	0	0	0	0	0	0	0	0	0	0	0	0	0	0	0	0	0	0	0	0	0	0	0	0	0	0	0	0	0	0	0	0	0	0	0	10.996	-10.996	19.046	0	0	0	0	-1	0	-2.0278	-17.891	16.968	0	0	0	1	0	0	17.47	2.0148	16.554	2
1623	16.23	0	0	0	0	0	0	0	0	0	0	0	0	0	0	0	0	0	0	0	0	0	0	0	0	0	0	0	0	0	0	0	0	0	0	0	0	0	0	0	0	0	0	0	0	0	0	0	0	0	-1	0	-2.0278	-17.891	16.968	0	0	0	0	0	0	0	0	0	2
1624	16.24	0	0	0	0	0	0	0	0	0	0	0	0	0	0	0	0	0	0	0	0	0	0	0	0	10.989	-10.989	19.033	0	0	0	1	0	0	17.883	2.027	16.961	0	0	0	0	0	0	0	0	0	0	0	0	0	-1	0	-2.0278	-17.891	16.968	0	0	0	1	0	0	17.47	2.0148	16.554	0
1625	16.25	0	0	0	0	0	0	0	0	0	0	0	0	0	0	0	0	0	0	0	0	0	0	0	0	0	0	0	0	0	0	0	0	0	0	0	0	0	0	0	0	-1	0	-2.0279	-17.891	16.969	0	0	0	0	-1	0	-2.0278	-17.891	16.968	0	0	0	0	0	0	0	0	0	2
1626	16.26	0	0	0	0	0	0	0	0	0	0	0	0	0	0	0	0	0	0	0	0	0	0	0	0	0	0	0	0	0	0	1	0	0	17.883	2.027	16.961	0	0	0	0	0	0	0	0	0	0	0	0	0	-1	0	-2.0278	-17.891	16.968	0	0	0	0	0	0	0	0	0	2
1627	16.27	0	0	0	0	0	0	0	0	0	0	0	0	0	0	0	0	0	0	0	0	0	0	0	0	0	0	0	0	0	0	0	0	0	0	0	0	0	0	0	0	0	0	0	0	0	0	0	0	0	-1	0	-2.0278	-17.891	16.968	0	0	0	0	0	0	0	0	0	2
1628	16.28	0	0	0	0	0	0	0	0	0	0	0	0	0	0	0	0	0	0	0	0	0	0	0	0	0	0	0	0	0	0	0	0	0	0	0	0	0	0	0	0	0	0	10.996	-10.996	19.046	0	0	0	0	-1	0	-2.0278	-17.891	16.968	0	0	0	0	0	0	0	0	0	2
1629	16.29	0	0	0	0	0	0	0	0	0	0	0	0	0	0	0	0	0	0	0	0	0	0	0	0	0	0	0	0	0	0	1	0	0	17.883	2.027	16.961	0	0	0	0	0	0	0	0	0	0	0	0	0	-1	0	-2.0278	-17.891	16.968	0	0	0	1	0	0	17.47	2.0148	16.554	2
1630	16.3	0	0	0	0	0	0	0	0	0	0	0	0	0	0	0	0	0	0	0	0	0	0	0	0	0	0	0	0	0	0	1	0	0	17.761	2.1499	16.789	0	0	0	0	0	0	0	0	0	0	0	0	0	-1	0	-2.0278	-17.891	16.968	0	0	0	0	0	0	0	0	0	2
1631	16.31	0	0	0	0	0	0	0	0	0	0	0	0	0	0	0	0	0	0	0	0	0	0	0	0	0	0	0	0	0	0	0	0	0	0	0	0	0	0	0	0	0	0	0	0	0	0	0	0	0	-1	0	-2.0278	-17.891	16.968	0	0	0	1	0	0	17.47	2.0148	16.554	2
1632	16.32	0	0	0	0	0	0	0	0	0	0	0	0	0	0	0	0	0	0	0	0	0	0	0	0	0	0	0	0	0	0	0	0	0	10.991	-10.991	19.037	0	0	0	0	-1	0	-2.0279	-17.891	16.969	0	0	0	0	-1	0	-2.0278	-17.891	16.968	0	0	0	1	0	0	17.47	2.0148	16.554	2
1633	16.33	0	0	0	0	0	0	0	0	0	0	0	0	0	0	0	0	0	0	0	0	0	0	0	0	0	0	0	0	0	0	0	-1	0	-2.0265	-17.879	16.957	0	0	0	0	0	0	0	0	0	0	0	0	0	-1	0	-2.0278	-17.891	16.968	0	0	0	0	0	0	0	0	0	0
1634	16.34	0	0	0	0	0	0	0	0	0	0	0	0	0	0	0	0	0	0	0	0	0	0	0	0	10.989	-10.989	19.033	0	0	0	1	0	0	17.883	2.027	16.961	0	0	0	0	0	0	0	0	0	0	0	0	0	-1	0	-2.0278	-17.891	16.968	0	0	0	1	0	0	30.423	8.5595	27.174	2
1635	16.35	0	0	0	0	0	0	0	0	0	0	0	0	0	0	0	0	0	0	0	0	0	0	-1	0	-2.0266	-17.88	16.957	0	0	0	0	0	0	0	0	0	0	0	0	0	-1	0	-2.1508	-17.769	16.797	0	0	0	0	-1	0	-2.0278	-17.891	16.968	0	0	0	0	0	0	0	0	0	2
1636	16.36	0	0	0	0	0	0	0	0	0	0	0	0	0	0	0	0	0	0	0	0	0	0	0	0	0	0	0	0	0	0	0	0	0	11.258	-11.253	19.496	0	0	0	0	0	0	0	0	0	0	0	0	0	-1	0	-2.0278	-17.891	16.968	0	0	0	1	0	0	17.47	2.0148	16.554	0
1637	16.37	0	0	0	0	0	0	0	0	0	0	0	0	0	0	0	0	0	0	0	0	0	0	0	0	0	0	0	0	0	0	1	0	0	17.883	2.027	16.961	0	0	0	0	0	0	0	0	0	0	0	0	0	-1	0	-2.0278	-17.891	16.968	0	0	0	0	0	0	0	0	0	2
1638	16.38	0	0	0	0	0	0	0	0	0	0	0	0	0	0	0	0	0	0	0	0	0	0	0	0	0	0	0	0	0	0	0	0	0	0	0	0	0	0	0	0	0	0	0	0	0	0	0	0	0	-1	0	-2.0278	-17.891	16.968	0	0	0	1	0	0	17.47	2.0148	16.554	0
1639	16.39	0	0	0	0	0	0	0	0	0	0	0	0	0	0	0	0	0	0	0	0	0	0	0	0	0	0	0	0	0	0	1	0	0	17.883	2.027	16.961	0	0	0	0	-1	0	-2.0279	-17.891	16.969	0	0	0	0	-1	0	-2.0278	-17.891	16.968	0	0	0	1	0	0	17.47	2.0148	16.554	2
1640	16.4	0	0	0	0	0	0	0	0	0	0	0	0	0	0	0	0	0	0	0	0	0	0	0	0	0	0	0	0	0	0	1	-1	0	7.5496	-27.455	31.907	0	0	0	0	-1	0	-2.0279	-17.891	16.969	0	0	0	0	-1	0	-2.0278	-17.891	16.968	0	0	0	0	0	0	0	0	0	2
1641	16.41	0	0	0	0	0	0	0	0	0	0	0	0	0	0	0	0	0	0	0	0	0	0	0	0	0	0	0	0	0	0	1	0	0	17.883	2.027	16.961	0	0	0	0	0	0	0	0	0	0	0	0	0	-1	0	-2.0278	-17.891	16.968	0	0	0	1	0	0	17.47	2.0148	16.554	2
1642	16.42	0	0	0	0	0	0	0	0	0	0	0	0	0	0	0	0	0	0	0	0	0	0	0	0	0	0	0	0	0	0	0	0	0	0	0	0	0	0	0	0	0	0	10.996	-10.996	19.046	0	0	0	0	-1	0	-2.0278	-17.891	16.968	0	0	0	1	0	0	17.47	2.0148	16.554	2
1643	16.43	0	0	0	0	0	0	0	0	0	0	0	0	0	0	0	0	0	0	0	0	0	0	0	0	0	0	0	0	0	0	0	0	0	0	0	0	0	0	0	0	0	0	0	0	0	0	0	0	0	-1	0	-2.0278	-17.891	16.968	0	0	0	1	0	0	17.47	2.0148	16.554	0
1644	16.44	0	0	0	0	0	0	0	0	0	0	0	0	0	0	0	0	0	0	0	0	0	0	0	0	0	0	0	0	0	0	0	0	0	0	0	0	0	0	0	0	0	0	0	0	0	0	0	0	0	-1	0	-2.0278	-17.891	16.968	0	0	0	1	0	0	17.47	2.0148	16.554	2
1645	16.45	0	0	0	0	0	0	0	0	0	0	0	0	0	-1	0	-2.0372	-17.821	16.895	0	0	0	0	0	0	0	0	0	0	0	0	1	0	0	17.761	2.1499	16.789	0	0	0	0	-1	0	-2.0279	-17.891	16.969	0	0	0	0	-1	0	-2.0278	-17.891	16.968	0	0	0	0	0	0	0	0	0	0
1646	16.46	0	0	0	0	0	0	0	0	0	0	0	0	0	0	0	0	0	0	0	0	0	0	0	0	0	0	0	0	0	0	0	0	0	0	0	0	0	0	0	0	0	0	0	0	0	0	0	0	0	-1	0	-2.0278	-17.891	16.968	0	0	0	1	0	0	17.47	2.0148	16.554	0
1647	16.47	0	0	0	0	0	0	0	0	0	0	0	0	0	0	0	0	0	0	0	0	0	0	0	0	0	0	0	0	0	0	0	0	0	0	0	0	0	0	0	0	0	0	0	0	0	0	0	0	0	-1	0	-2.0278	-17.891	16.968	0	0	0	0	0	0	0	0	0	2
1648	16.48	0	0	0	0	0	0	0	0	0	0	0	0	0	0	0	0	0	0	0	0	0	0	0	0	0	0	0	0	0	0	0	0	0	0	0	0	0	0	0	0	-1	0	-2.1508	-17.769	16.797	0	0	0	0	0	0	0	0	0	0	0	0	0	0	0	0	0	0	2
1649	16.49	0	0	0	0	0	0	0	0	0	0	0	0	0	0	0	0	0	0	0	0	0	0	0	0	0	0	0	0	0	0	1	0	0	17.883	2.027	16.961	0	0	0	0	0	0	0	0	0	0	0	0	0	-1	0	-2.0278	-17.891	16.968	0	0	0	1	0	0	17.47	2.0148	16.554	2
1650	16.5	0	0	0	0	0	0	0	0	0	0	0	0	0	0	0	0	0	0	0	0	0	0	0	0	0	0	0	0	0	0	0	-1	0	-2.0265	-17.879	16.957	0	0	0	0	-1	0	-2.0279	-17.891	16.969	0	0	0	0	-1	0	-2.0278	-17.891	16.968	0	0	0	0	0	0	0	0	0	0
1651	16.51	0	0	0	0	0	0	0	0	0	0	0	0	0	0	0	0	0	0	0	0	0	0	0	0	0	0	0	0	0	0	0	0	0	10.991	-10.991	19.037	0	0	0	0	-1	0	-2.0279	-17.891	16.969	0	0	0	0	0	0	0	0	0	0	0	0	0	0	0	0	0	0	2
1652	16.52	0	0	0	0	0	0	0	0	0	0	0	0	0	0	0	0	0	0	0	0	0	0	0	0	0	0	0	0	0	0	0	0	0	0	0	0	0	0	0	0	0	0	0	0	0	0	0	0	0	-1	0	-2.0278	-17.891	16.968	0	0	0	1	0	0	17.47	2.0148	16.554	2
1653	16.53	0	0	0	0	0	0	0	0	0	0	0	0	0	0	0	0	0	0	0	0	0	0	0	0	0	0	0	0	0	0	0	-1	0	-2.0265	-17.879	16.957	0	0	0	0	0	0	0	0	0	0	0	0	0	-1	0	-2.0278	-17.891	16.968	0	0	0	0	0	0	0	0	0	2
1654	16.54	0	0	0	0	0	0	0	0	0	0	0	0	0	0	0	0	0	0	0	0	0	0	0	0	0	0	0	0	0	0	1	0	0	17.883	2.027	16.961	0	0	0	0	0	0	0	0	0	0	0	0	0	0	0	0	0	0	0	0	0	1	0	0	17.47	2.0148	16.554	0
1655	16.55	0	0	0	0	0	0	0	0	0	0	0	0	0	-1	0	-2.0372	-17.821	16.895	0	0	0	0	0	0	0	0	0	0	0	0	0	0	0	0	0	0	0	0	0	0	0	0	0	0	0	0	0	0	0	-1	0	-2.0278	-17.891	16.968	0	0	0	0	0	0	0	0	0	2
1656	16.56	0	0	0	0	0	0	0	0	0	0	0	0	0	0	0	0	0	0	0	0	0	0	0	0	0	0	0	0	0	0	0	0	0	10.991	-10.991	19.037	0	0	0	0	0	0	0	0	0	0	0	0	0	-1	0	-2.0278	-17.891	16.968	0	0	0	1	0	0	17.47	2.0148	16.554	0
1657	16.57	0	0	0	0	0	0	0	0	0	0	0	0	0	-1	0	-2.0372	-17.821	16.895	0	0	0	0	0	0	0	0	0	0	0	0	1	0	0	17.761	2.1499	16.789	0	0	0	0	0	0	0	0	0	0	0	0	0	-1	0	-2.0278	-17.891	16.968	0	0	0	1	0	0	17.47	2.0148	16.554	0
1658	16.58	0	0	0	0	0	0	0	0	0	0	0	0	0	0	0	0	0	0	0	0	0	0	0	0	0	0	0	0	0	0	0	0	0	0	0	0	0	0	0	0	0	0	10.996	-10.996	19.046	0	0	0	0	-1	0	-2.0278	-17.891	16.968	0	0	0	0	0	0	0	0	0	2
1659	16.59	0	0	0	0	0	0	0	0	0	0	0	0	0	0	0	0	0	0	0	0	0	0	0	0	0	0	0	0	0	0	1	0	0	17.883	2.027	16.961	0	0	0	0	0	0	0	0	0	0	0	0	0	-1	0	-2.0278	-17.891	16.968	0	0	0	1	0	0	17.47	2.0148	16.554	2
1660	16.6	0	0	0	0	0	0	0	0	0	0	0	0	0	0	0	0	0	0	0	0	0	0	0	0	0	0	0	0	0	0	0	0	0	0	0	0	0	0	0	0	0	0	0	0	0	0	0	0	0	-1	0	-2.0278	-17.891	16.968	0	0	0	0	0	0	0	0	0	2
1661	16.61	0	0	0	0	0	0	0	0	0	0	0	0	0	0	0	0	0	0	0	0	0	0	0	0	0	0	0	0	0	0	1	0	0	17.883	2.027	16.961	0	0	0	0	-1	0	-2.0279	-17.891	16.969	0	0	0	0	0	0	0	0	0	0	0	0	0	0	0	0	0	0	2
1662	16.62	0	0	0	0	0	0	0	0	0	0	0	0	0	0	0	0	0	0	0	0	0	0	0	0	0	0	0	0	0	0	0	0	0	0	0	0	0	0	0	0	-1	0	-2.0279	-17.891	16.969	0	0	0	0	-1	0	-2.0278	-17.891	16.968	0	0	0	1	0	0	17.47	2.0148	16.554	2
1663	16.63	0	0	0	0	0	0	0	0	0	0	0	0	0	0	0	0	0	0	0	0	0	0	0	0	0	0	0	0	0	0	0	-1	0	-2.0265	-17.879	16.957	0	0	0	0	0	0	10.996	-10.996	19.046	0	0	0	0	-1	0	-2.0278	-17.891	16.968	0	0	0	0	0	0	0	0	0	2
1664	16.64	0	0	0	0	0	0	0	0	0	0	0	0	0	-1	0	-2.0372	-17.821	16.895	0	0	0	0	0	0	0	0	0	0	0	0	1	0	0	17.883	2.027	16.961	0	0	0	0	0	0	0	0	0	0	0	0	0	-1	0	-2.0278	-17.891	16.968	0	0	0	1	0	0	17.47	2.0148	16.554	2
1665	16.65	0	0	0	0	0	0	0	0	0	0	0	0	0	0	0	0	0	0	0	0	0	0	0	0	0	0	0	0	0	0	0	0	0	0	0	0	0	0	0	0	0	0	0	0	0	0	0	0	0	-1	0	-2.0278	-17.891	16.968	0	0	0	0	0	0	0	0	0	2
1666	16.66	0	0	0	0	0	0	0	0	0	0	0	0	0	0	0	0	0	0	0	0	0	0	0	0	0	0	0	0	0	0	0	-1	0	-2.0265	-17.879	16.957	0	0	0	0	0	0	0	0	0	0	0	0	0	-1	0	-2.0278	-17.891	16.968	0	0	0	1	0	0	17.47	2.0148	16.554	2
1667	16.67	0	0	0	0	0	0	0	0	0	0	0	0	0	0	0	0	0	0	0	0	0	0	0	0	0	0	0	0	0	0	1	0	0	17.883	2.027	16.961	0	0	0	0	0	0	0	0	0	0	0	0	0	-1	0	-2.0278	-17.891	16.968	0	0	0	0	0	0	0	0	0	2
1668	16.68	0	0	0	0	0	0	0	0	0	0	0	0	0	-1	0	-2.0366	-17.816	16.89	0	0	0	0	0	0	0	0	0	0	0	0	0	0	0	0	0	0	0	0	0	0	0	0	0	0	0	0	0	0	0	-1	0	-2.0278	-17.891	16.968	0	0	0	0	0	0	0	0	0	0
1669	16.69	0	0	0	0	0	0	0	0	0	0	0	0	0	0	0	0	0	0	0	0	0	0	0	0	0	0	0	0	0	0	0	0	0	0	0	0	0	0	0	0	0	0	0	0	0	0	0	0	0	-1	0	-2.0278	-17.891	16.968	0	0	0	0	0	0	0	0	0	2
1670	16.7	0	0	0	0	0	0	0	0	0	0	0	0	0	0	0	0	0	0	0	0	0	0	0	0	0	0	0	0	0	0	0	0	0	0	0	0	0	0	0	0	0	0	10.996	-10.996	19.046	0	0	0	0	-1	0	-2.0278	-17.891	16.968	0	0	0	0	0	0	0	0	0	2
1671	16.71	0	0	0	0	0	0	0	0	0	0	0	0	0	0	0	0	0	0	0	0	0	0	0	0	10.989	-10.989	19.033	0	0	0	0	0	0	0	0	0	0	0	0	0	0	0	0	0	0	0	0	0	0	-1	0	-2.0278	-17.891	16.968	0	0	0	1	0	0	17.47	2.0148	16.554	2
1672	16.72	0	0	0	0	0	0	0	0	0	0	0	0	0	0	0	0	0	0	0	0	0	0	0	0	0	0	0	0	0	0	0	0	0	0	0	0	0	0	0	0	0	0	0	0	0	0	0	0	0	0	0	0	0	0	0	0	0	1	0	0	17.47	2.0148	16.554	2
1673	16.73	0	0	0	0	0	0	0	0	0	0	0	0	0	0	0	0	0	0	0	0	0	0	0	0	0	0	0	0	0	0	1	0	0	17.883	2.027	16.961	0	0	0	0	-1	0	-2.0279	-17.891	16.969	0	0	0	0	-1	0	-2.0278	-17.891	16.968	0	0	0	0	0	0	0	0	0	2
1674	16.74	0	0	0	0	0	0	0	0	0	0	0	0	0	0	0	0	0	0	0	0	0	0	0	0	0	0	0	0	0	0	1	0	0	17.883	2.027	16.961	0	0	0	0	0	0	0	0	0	0	0	0	0	-1	0	-2.0278	-17.891	16.968	0	0	0	1	0	0	17.47	2.0148	16.554	2
1675	16.75	0	0	0	0	0	0	0	0	0	0	0	0	0	0	0	0	0	0	0	0	0	0	0	0	0	0	0	0	0	0	0	0	0	0	0	0	0	0	0	0	0	0	10.996	-10.996	19.046	0	0	0	0	-1	0	-2.0278	-17.891	16.968	0	0	0	0	0	0	0	0	0	2
1676	16.76	0	0	0	0	0	0	0	0	0	0	0	0	0	0	0	0	0	0	0	0	0	0	0	0	0	0	0	0	0	0	1	0	0	17.761	2.1499	16.789	0	0	0	0	0	0	0	0	0	0	0	0	0	-1	0	-2.0278	-17.891	16.968	0	0	0	1	0	0	17.47	2.0148	16.554	2
1677	16.77	0	0	0	0	0	0	0	0	0	0	0	0	0	0	0	0	0	0	0	0	0	0	0	0	0	0	0	0	0	0	0	0	0	0	0	0	0	0	0	0	0	0	0	0	0	0	0	0	0	-1	0	-2.0278	-17.891	16.968	0	0	0	0	0	0	0	0	0	2
1678	16.78	0	0	0	0	0	0	0	0	0	0	0	0	0	0	0	0	0	0	0	0	0	0	0	0	0	0	0	0	0	0	0	0	0	0	0	0	0	0	0	0	0	0	0	0	0	0	0	0	0	-1	0	-2.0278	-17.891	16.968	0	0	0	1	0	0	17.47	2.0148	16.554	2
1679	16.79	0	0	0	0	0	0	0	0	0	0	0	0	0	0	0	0	0	0	0	0	0	0	0	0	0	0	0	0	0	0	1	0	0	17.883	2.027	16.961	0	0	0	0	0	0	0	0	0	0	0	0	0	-1	0	-2.0278	-17.891	16.968	0	0	0	1	0	0	17.47	2.0148	16.554	2
1680	16.8	0	0	0	0	0	0	0	0	0	0	0	0	0	0	0	0	0	0	0	0	0	0	0	0	0	0	0	0	0	0	0	0	0	0	0	0	0	0	0	0	-1	0	-2.0279	-17.891	16.969	0	0	0	0	-1	0	-2.0278	-17.891	16.968	0	0	0	0	0	0	0	0	0	2
1681	16.81	0	0	0	0	0	0	0	0	0	0	0	0	0	0	0	0	0	0	0	0	0	0	0	0	0	0	0	0	0	0	1	0	0	17.883	2.027	16.961	0	0	0	0	0	0	0	0	0	0	0	0	0	-1	0	-2.0278	-17.891	16.968	0	0	0	1	0	0	17.47	2.0148	16.554	0
1682	16.82	0	0	0	0	0	0	0	0	0	0	0	0	0	0	0	0	0	0	0	0	0	0	0	0	0	0	0	0	0	0	1	0	0	17.883	2.027	16.961	0	0	0	0	0	0	0	0	0	0	0	0	0	-1	0	-2.0278	-17.891	16.968	0	0	0	0	0	0	0	0	0	2
1683	16.83	0	0	0	0	0	0	0	0	0	0	0	0	0	0	0	0	0	0	0	0	0	0	0	0	0	0	0	0	0	0	0	0	0	0	0	0	0	0	0	0	-1	0	-2.0279	-17.891	16.969	0	0	0	0	-1	0	-2.0278	-17.891	16.968	0	0	0	1	0	0	17.471	2.0135	16.556	2
1684	16.84	0	0	0	0	0	0	0	0	0	0	0	0	0	0	0	0	0	0	0	0	0	0	0	0	0	0	0	0	0	0	1	0	0	17.883	2.027	16.961	0	0	0	0	0	0	0	0	0	0	0	0	0	0	0	0	0	0	0	0	0	0	0	0	0	0	0	0
1685	16.85	0	0	0	0	0	0	0	0	0	0	0	0	0	0	0	0	0	0	0	0	0	0	0	0	0	0	0	0	0	0	0	0	0	0	0	0	0	0	0	0	0	0	0	0	0	0	0	0	0	-1	0	-2.0278	-17.891	16.968	0	0	0	0	0	0	0	0	0	2
1686	16.86	0	0	0	0	0	0	0	0	0	0	0	0	0	-1	0	-2.0372	-17.821	16.895	0	0	0	0	0	0	0	0	0	0	0	0	1	0	0	17.883	2.027	16.961	0	0	0	0	0	0	0	0	0	0	0	0	0	0	0	0	0	0	0	0	0	0	0	0	0	0	0	2
1687	16.87	0	0	0	0	0	0	0	0	0	0	0	0	0	0	0	0	0	0	0	0	0	0	0	0	0	0	0	0	0	0	1	0	0	17.883	2.027	16.961	0	0	0	0	0	0	0	0	0	0	0	0	0	-1	0	-2.0278	-17.891	16.968	0	0	0	1	0	0	17.47	2.0148	16.554	2
1688	16.88	0	0	0	0	0	0	0	0	0	0	0	0	0	0	0	0	0	0	0	0	0	0	0	0	0	0	0	0	0	0	0	0	0	0	0	0	0	0	0	0	0	0	0	0	0	0	0	0	0	-1	0	-2.0278	-17.891	16.968	0	0	0	0	0	0	0	0	0	2
1689	16.89	0	0	0	0	0	0	0	0	0	0	0	0	0	0	0	0	0	0	0	0	0	0	0	0	0	0	0	0	0	0	1	0	0	17.883	2.027	16.961	0	0	0	0	0	0	0	0	0	0	0	0	0	-1	0	-2.0278	-17.891	16.968	0	0	0	0	0	0	0	0	0	0
1690	16.9	0	0	0	0	0	0	0	0	0	0	0	0	0	0	0	0	0	0	0	0	0	0	0	0	0	0	0	0	0	0	0	0	0	0	0	0	0	0	0	0	-1	0	-2.1508	-17.769	16.797	0	0	0	0	-1	0	-2.0278	-17.891	16.968	0	0	0	0	0	0	0	0	0	2
1691	16.91	0	0	0	0	0	0	0	0	0	0	0	0	0	-1	0	-2.0372	-17.821	16.895	0	0	0	0	0	0	0	0	0	0	0	0	1	0	0	17.883	2.027	16.961	0	0	0	0	0	0	0	0	0	0	0	0	0	0	0	0	0	0	0	0	0	0	0	0	0	0	0	0
1692	16.92	0	0	0	0	0	0	0	0	0	0	0	0	0	0	0	0	0	0	0	0	0	0	0	0	0	0	0	0	0	0	0	0	0	0	0	0	0	0	0	0	0	0	0	0	0	0	0	0	1	-1	0	7.5503	-27.469	31.921	0	0	0	1	0	0	17.47	2.0148	16.554	2
1693	16.93	0	0	0	0	0	0	0	0	0	0	0	0	0	0	0	0	0	0	0	0	0	0	0	0	0	0	0	0	0	0	1	0	0	17.761	2.1499	16.789	0	0	0	0	0	0	0	0	0	0	0	0	0	0	0	0	0	0	0	0	0	1	0	0	17.47	2.0148	16.554	2
1694	16.94	0	0	0	0	0	0	0	0	0	0	0	0	0	0	0	0	0	0	0	0	0	0	0	0	0	0	0	0	0	0	1	0	0	17.883	2.027	16.961	0	0	0	0	0	0	0	0	0	0	0	0	0	0	0	0	0	0	0	0	0	1	0	0	17.47	2.0148	16.554	2
1695	16.95	0	0	0	0	0	0	0	0	0	0	0	0	0	-1	0	-2.0372	-17.821	16.895	0	0	0	0	0	0	0	0	0	0	0	0	0	0	0	0	0	0	0	0	0	0	0	0	0	0	0	0	0	0	0	0	0	0	0	0	0	0	0	0	0	0	0	0	0	2
1696	16.96	0	0	0	0	0	0	0	0	0	0	0	0	0	0	0	0	0	0	0	0	0	0	0	0	0	0	0	0	0	0	1	0	0	17.883	2.027	16.961	0	0	0	0	0	0	0	0	0	0	0	0	0	-1	0	-2.0278	-17.891	16.968	0	0	0	1	0	0	17.47	2.0148	16.554	2
1697	16.97	0	0	0	0	0	0	0	0	0	0	0	0	0	0	0	0	0	0	0	0	0	0	0	0	0	0	0	0	0	0	0	0	0	0	0	0	0	0	0	0	0	0	0	0	0	0	0	0	0	0	0	0	0	0	0	0	0	1	0	0	17.47	2.0148	16.554	2
1698	16.98	0	0	0	0	0	0	0	0	0	0	0	0	0	0	0	0	0	0	0	0	0	0	0	0	0	0	0	0	0	0	1	0	0	17.883	2.027	16.961	0	0	0	0	0	0	0	0	0	0	0	0	0	-1	0	-2.0278	-17.891	16.968	0	0	0	1	0	0	17.47	2.0148	16.554	2
1699	16.99	0	0	0	0	0	0	0	0	0	0	0	0	0	0	0	0	0	0	0	0	0	0	0	0	0	0	0	0	0	0	0	0	0	0	0	0	0	0	0	0	0	0	0	0	0	0	0	0	0	-1	0	-2.0278	-17.891	16.968	0	0	0	1	0	0	17.47	2.0148	16.554	2
1700	17	0	0	0	0	0	0	0	0	0	0	0	0	0	0	0	0	0	0	0	0	0	0	0	0	0	0	0	0	0	0	0	0	0	0	0	0	0	0	0	0	0	0	0	0	0	0	0	0	0	-1	0	-2.0278	-17.891	16.968	0	0	0	0	0	0	0	0	0	2
1701	17.01	0	0	0	0	0	0	0	0	0	0	0	0	0	0	0	0	0	0	0	0	0	0	0	0	0	0	0	0	0	0	0	0	0	0	0	0	0	0	0	0	0	0	0	0	0	0	0	0	0	-1	0	-2.0278	-17.891	16.968	0	0	0	1	0	0	17.47	2.0148	16.554	2
1702	17.02	0	0	0	0	0	0	0	0	0	0	0	0	0	0	0	0	0	0	0	0	0	0	0	0	0	0	0	0	0	0	0	0	0	0	0	0	0	0	0	0	0	0	0	0	0	0	0	0	0	-1	0	-2.0278	-17.891	16.968	0	0	0	0	0	0	0	0	0	2
1703	17.03	0	0	0	0	0	0	0	0	0	0	0	0	0	0	0	0	0	0	0	0	0	0	0	0	0	0	0	0	0	0	0	0	0	0	0	0	0	0	0	0	0	0	0	0	0	0	0	0	0	-1	0	-2.0278	-17.891	16.968	0	0	0	0	0	0	0	0	0	2
1704	17.04	0	0	0	0	0	0	0	0	0	0	0	0	0	0	0	0	0	0	0	0	0	0	0	0	10.989	-10.989	19.033	0	0	0	1	0	0	17.883	2.027	16.961	0	0	0	0	0	0	0	0	0	0	0	0	0	-1	0	-2.0278	-17.891	16.968	0	0	0	1	0	0	17.47	2.0148	16.554	2
1705	17.05	0	0	0	0	0	0	0	0	0	0	0	0	0	0	0	0	0	0	0	0	0	0	0	0	0	0	0	0	0	0	1	0	0	17.883	2.027	16.961	0	0	0	0	0	0	0	0	0	0	0	0	0	-1	0	-2.0278	-17.891	16.968	0	0	0	1	0	0	17.47	2.0148	16.554	2
1706	17.06	0	0	0	0	0	0	0	0	0	0	0	0	0	0	0	0	0	0	0	0	0	0	0	0	0	0	0	0	0	0	1	0	0	17.883	2.027	16.961	0	0	0	0	0	0	0	0	0	0	0	0	0	-1	0	-2.0278	-17.891	16.968	0	0	0	0	0	0	0	0	0	2
1707	17.07	0	0	0	0	0	0	0	0	0	0	0	0	0	0	0	0	0	0	0	0	0	0	0	0	0	0	0	0	0	0	0	0	0	0	0	0	0	0	0	0	-1	0	-2.0279	-17.891	16.969	0	0	0	0	0	0	0	0	0	0	0	0	0	0	0	0	0	0	2
1708	17.08	0	0	0	0	0	0	0	0	0	0	0	0	0	0	0	0	0	0	0	0	0	0	0	0	0	0	0	0	0	0	1	0	0	17.883	2.027	16.961	0	0	0	0	0	0	0	0	0	0	0	0	0	-1	0	-2.0278	-17.891	16.968	0	0	0	0	0	0	0	0	0	2
1709	17.09	0	0	0	0	0	0	0	0	0	0	0	0	0	0	0	0	0	0	0	0	0	0	0	0	0	0	0	0	0	0	0	0	0	0	0	0	0	0	0	0	0	0	0	0	0	0	0	0	0	-1	0	-2.0278	-17.891	16.968	0	0	0	0	0	0	0	0	0	2
1710	17.1	0	0	0	0	0	0	0	0	0	0	0	0	0	0	0	0	0	0	0	0	0	0	0	0	0	0	0	0	0	0	0	0	0	10.991	-10.991	19.037	0	0	0	0	0	0	0	0	0	0	0	0	0	-1	0	-2.0278	-17.891	16.968	0	0	0	0	0	0	0	0	0	2
1711	17.11	0	0	0	0	0	0	0	0	0	0	0	0	0	0	0	0	0	0	0	0	0	0	0	0	0	0	0	0	0	0	1	0	0	17.883	2.027	16.961	0	0	0	0	-1	0	-2.0279	-17.891	16.969	0	0	0	0	0	0	0	0	0	0	0	0	0	0	0	0	0	0	2
1712	17.12	0	0	0	0	0	0	0	0	0	0	0	0	0	0	0	0	0	0	0	0	0	0	0	0	0	0	0	0	0	0	0	0	0	0	0	0	0	0	0	0	0	0	0	0	0	0	0	0	0	-1	0	-2.0278	-17.891	16.968	0	0	0	0	0	0	0	0	0	2
1713	17.13	0	0	0	0	0	0	0	0	0	0	0	0	0	0	0	0	0	0	0	0	0	0	0	0	0	0	0	0	0	0	0	0	0	0	0	0	0	0	0	0	0	0	0	0	0	0	0	0	0	-1	0	-2.0278	-17.891	16.968	0	0	0	0	0	0	0	0	0	2
1714	17.14	0	0	0	0	0	0	0	0	0	0	0	0	0	0	0	0	0	0	0	0	0	0	0	0	0	0	0	0	0	0	0	0	0	0	0	0	0	0	0	0	0	0	0	0	0	0	0	0	0	0	0	0	0	0	0	0	0	0	0	0	0	0	0	2
1715	17.15	0	0	0	0	0	0	0	0	0	0	0	0	0	-1	0	-2.0372	-17.821	16.895	0	0	0	0	0	0	0	0	0	0	0	0	0	0	0	0	0	0	0	0	0	0	-1	0	-2.0279	-17.891	16.969	0	0	0	0	-1	0	-2.0278	-17.891	16.968	0	0	0	1	0	0	17.47	2.0148	16.554	2
1716	17.16	0	0	0	0	0	0	0	0	0	0	0	0	0	0	0	0	0	0	0	0	0	0	0	0	0	0	0	0	0	0	1	0	0	17.883	2.027	16.961	0	0	0	0	0	0	0	0	0	0	0	0	0	-1	0	-2.0278	-17.891	16.968	0	0	0	1	0	0	17.47	2.0148	16.554	2
1717	17.17	0	0	0	0	0	0	0	0	0	0	0	0	0	0	0	0	0	0	0	0	0	0	0	0	0	0	0	0	0	0	0	0	0	0	0	0	0	0	0	0	0	0	0	0	0	0	0	0	0	-1	0	-2.0278	-17.891	16.968	0	0	0	1	0	0	17.47	2.0148	16.554	2
1718	17.18	0	0	0	0	0	0	0	0	0	0	0	0	0	0	0	0	0	0	0	0	0	0	0	0	0	0	0	0	0	0	1	0	0	17.883	2.027	16.961	0	0	0	0	-1	0	-2.0279	-17.891	16.969	0	0	0	0	-1	0	-2.0278	-17.891	16.968	0	0	0	1	0	0	17.47	2.0148	16.554	2
1719	17.19	0	0	0	0	0	0	0	0	0	0	0	0	0	0	0	0	0	0	0	0	0	0	0	0	0	0	0	0	0	0	1	0	0	17.883	2.027	16.961	0	0	0	0	0	0	0	0	0	0	0	0	0	0	0	0	0	0	0	0	0	1	0	0	17.47	2.0148	16.554	2
1720	17.2	0	0	0	0	0	0	0	0	0	0	0	0	0	0	0	0	0	0	0	0	0	0	0	0	0	0	0	0	0	0	0	0	0	0	0	0	0	0	0	0	-1	0	-2.0279	-17.891	16.969	0	0	0	0	-1	0	-2.0278	-17.891	16.968	0	0	0	0	0	0	0	0	0	2
1721	17.21	0	0	0	0	0	0	0	0	0	0	0	0	0	0	0	0	0	0	0	0	0	0	0	0	0	0	0	0	0	0	1	0	0	17.883	2.027	16.961	0	0	0	0	0	0	0	0	0	0	0	0	0	-1	0	-2.0278	-17.891	16.968	0	0	0	1	0	0	17.47	2.0148	16.554	2
1722	17.22	0	0	0	0	0	0	0	0	0	0	0	0	0	0	0	0	0	0	0	0	0	0	0	0	0	0	0	0	0	0	0	0	0	0	0	0	0	0	0	0	0	0	0	0	0	0	0	0	0	-1	0	-2.0278	-17.891	16.968	0	0	0	1	0	0	17.47	2.0148	16.554	2
1723	17.23	0	0	0	0	0	0	0	0	0	0	0	0	0	0	0	0	0	0	0	0	0	0	0	0	0	0	0	0	0	0	1	0	0	17.883	2.027	16.961	0	0	0	0	-1	0	-2.0279	-17.891	16.969	0	0	0	0	-1	0	-2.0278	-17.891	16.968	0	0	0	0	0	0	0	0	0	0
1724	17.24	0	0	0	0	0	0	0	0	0	0	0	0	0	0	0	0	0	0	0	0	0	0	0	0	0	0	0	0	0	0	1	0	0	17.761	2.1499	16.789	0	0	0	0	0	0	0	0	0	0	0	0	0	-1	0	-2.0278	-17.891	16.968	0	0	0	1	0	0	17.47	2.0148	16.554	2
1725	17.25	0	0	0	0	0	0	0	0	0	0	0	0	0	0	0	0	0	0	0	0	0	0	0	0	0	0	0	0	0	0	1	0	0	17.883	2.027	16.961	0	0	0	0	0	0	10.996	-10.996	19.046	0	0	0	0	0	0	0	0	0	0	0	0	0	0	0	0	0	0	2
1726	17.26	0	0	0	0	0	0	0	0	0	0	0	0	0	0	0	0	0	0	0	0	0	0	0	0	0	0	0	0	0	0	0	0	0	0	0	0	0	0	0	0	0	0	0	0	0	0	0	0	0	-1	0	-2.0278	-17.891	16.968	0	0	0	1	0	0	17.47	2.0148	16.554	2
1727	17.27	0	0	0	0	0	0	0	0	0	0	0	0	0	0	0	0	0	0	0	0	0	0	0	0	0	0	0	0	0	0	1	0	0	17.883	2.027	16.961	0	0	0	0	0	0	0	0	0	0	0	0	0	-1	0	-2.0278	-17.891	16.968	0	0	0	0	0	0	0	0	0	2
1728	17.28	0	0	0	0	0	0	0	0	0	0	0	0	0	-1	0	-2.0372	-17.821	16.895	0	0	0	0	0	0	0	0	0	0	0	0	0	0	0	0	0	0	0	0	0	0	0	0	0	0	0	0	0	0	0	-1	0	-2.0278	-17.891	16.968	0	0	0	0	0	0	0	0	0	2
1729	17.29	0	0	0	0	0	0	0	0	0	0	0	0	0	0	0	0	0	0	0	0	0	0	0	0	0	0	0	0	0	0	1	0	0	17.761	2.1499	16.789	0	0	0	0	0	0	0	0	0	0	0	0	0	-1	0	-2.0278	-17.891	16.968	0	0	0	1	0	0	17.47	2.0148	16.554	2
1730	17.3	0	0	0	0	0	0	0	0	0	0	0	0	0	0	0	0	0	0	0	0	0	0	0	0	0	0	0	0	0	0	0	0	0	0	0	0	0	0	0	0	-1	0	-2.0279	-17.891	16.969	0	0	0	0	-1	0	-2.0278	-17.891	16.968	0	0	0	0	0	0	0	0	0	2
1731	17.31	0	0	0	0	0	0	0	0	0	0	0	0	0	0	0	0	0	0	0	0	0	0	0	0	0	0	0	0	0	0	0	0	0	0	0	0	0	0	0	0	0	0	0	0	0	0	0	0	0	-1	0	-2.0278	-17.891	16.968	0	0	0	0	0	0	0	0	0	0
1732	17.32	0	0	0	0	0	0	0	0	0	0	0	0	0	0	0	0	0	0	0	0	0	0	0	0	0	0	0	0	0	0	1	0	0	17.883	2.027	16.961	0	0	0	0	0	0	0	0	0	0	0	0	0	-1	0	-2.0278	-17.891	16.968	0	0	0	1	0	0	17.47	2.0148	16.554	2
1733	17.33	0	0	0	0	0	0	0	0	0	0	0	0	0	0	0	0	0	0	0	0	0	0	0	0	0	0	0	0	0	0	1	0	0	17.883	2.027	16.961	0	0	0	0	-1	0	-2.0279	-17.891	16.969	0	0	0	0	-1	0	-2.0278	-17.891	16.968	0	0	0	0	0	0	0	0	0	2
1734	17.34	0	0	0	0	0	0	0	0	0	0	0	0	0	0	0	0	0	0	0	0	0	0	0	0	10.989	-10.989	19.033	0	0	0	0	0	0	10.991	-10.991	19.037	0	0	0	0	0	0	0	0	0	0	0	0	0	-1	0	-2.0278	-17.891	16.968	0	0	0	1	0	0	17.47	2.0148	16.554	0
1735	17.35	0	0	0	0	0	0	0	0	0	0	0	0	0	0	0	0	0	0	0	0	0	0	0	0	0	0	0	0	0	0	1	0	0	17.883	2.027	16.961	0	0	0	0	0	0	0	0	0	0	0	0	0	-1	0	-2.0278	-17.891	16.968	0	0	0	0	0	0	0	0	0	2
1736	17.36	0	0	0	0	0	0	0	0	0	0	0	0	0	0	0	0	0	0	0	0	0	0	0	0	0	0	0	0	0	0	0	0	0	10.991	-10.991	19.037	0	0	0	0	0	0	0	0	0	0	0	0	0	-1	0	-2.0278	-17.891	16.968	0	0	0	1	0	0	17.47	2.0148	16.554	2
1737	17.37	0	0	0	0	0	0	0	0	0	0	0	0	0	0	0	0	0	0	0	0	0	0	0	0	0	0	0	0	0	0	0	0	0	0	0	0	0	0	0	0	-1	0	-2.1508	-17.769	16.797	0	0	0	0	-1	0	-2.0278	-17.891	16.968	0	0	0	0	0	0	0	0	0	2
1738	17.38	0	0	0	0	0	0	0	0	0	0	0	0	0	0	0	0	0	0	0	0	0	0	0	0	0	0	0	0	0	0	0	0	0	0	0	0	0	0	0	0	0	0	0	0	0	0	0	0	0	-1	0	-2.0278	-17.891	16.968	0	0	0	0	0	0	0	0	0	2
1739	17.39	0	0	0	0	0	0	0	0	0	0	0	0	0	0	0	0	0	0	0	0	0	0	0	0	0	0	0	0	0	0	1	0	0	17.883	2.027	16.961	0	0	0	0	0	0	0	0	0	0	0	0	0	-1	0	-2.0278	-17.891	16.968	0	0	0	1	0	0	17.47	2.0148	16.554	2
1740	17.4	0	0	0	0	0	0	0	0	0	0	0	0	0	0	0	0	0	0	0	0	0	0	0	0	0	0	0	0	0	0	0	0	0	0	0	0	0	0	0	0	-1	0	-2.0279	-17.891	16.969	0	0	0	0	-1	0	-2.0278	-17.891	16.968	0	0	0	0	0	0	0	0	0	0
1741	17.41	0	0	0	0	0	0	0	0	0	0	0	0	0	0	0	0	0	0	0	0	0	0	0	0	0	0	0	0	0	0	1	0	0	17.761	2.1499	16.789	0	0	0	0	0	0	0	0	0	0	0	0	0	-1	0	-2.0278	-17.891	16.968	0	0	0	1	0	0	17.47	2.0148	16.554	0
1742	17.42	0	0	0	0	0	0	0	0	0	0	0	0	0	0	0	0	0	0	0	0	0	0	0	0	0	0	0	0	0	0	0	0	0	0	0	0	0	0	0	0	-1	0	-2.0279	-17.891	16.969	0	0	0	0	-1	0	-2.0278	-17.891	16.968	0	0	0	0	0	0	0	0	0	2
1743	17.43	0	0	0	0	0	0	0	0	0	0	0	0	0	0	0	0	0	0	0	0	0	0	0	0	0	0	0	0	0	0	1	0	0	17.883	2.027	16.961	0	0	0	0	0	0	10.996	-10.996	19.046	0	0	0	0	-1	0	-2.0278	-17.891	16.968	0	0	0	1	0	0	17.47	2.0148	16.554	0
1744	17.44	0	0	0	0	0	0	0	0	0	0	0	0	0	0	0	0	0	0	0	0	0	0	0	0	0	0	0	0	0	0	1	0	0	17.883	2.027	16.961	0	0	0	0	0	0	0	0	0	0	0	0	0	-1	0	-2.0278	-17.891	16.968	0	0	0	0	0	0	10.93	-10.93	18.931	2
1745	17.45	0	0	0	0	0	0	0	0	0	0	0	0	0	0	0	0	0	0	0	0	0	0	0	0	0	0	0	0	0	0	0	0	0	0	0	0	0	0	0	0	-1	0	-2.0279	-17.891	16.969	0	0	0	0	-1	0	-2.0278	-17.891	16.968	0	0	0	0	0	0	0	0	0	0
1746	17.46	0	0	0	0	0	0	0	0	0	0	0	0	0	0	0	0	0	0	0	0	0	0	0	0	0	0	0	0	0	0	0	0	0	10.991	-10.991	19.037	0	0	0	0	0	0	0	0	0	0	0	0	0	-1	0	-2.0278	-17.891	16.968	0	0	0	1	0	0	17.47	2.0148	16.554	2
1747	17.47	0	0	0	0	0	0	0	0	0	0	0	0	0	0	0	0	0	0	0	0	0	0	0	0	0	0	0	0	0	0	0	0	0	0	0	0	0	0	0	0	-1	0	-2.0279	-17.891	16.969	0	0	0	0	0	0	0	0	0	0	0	0	0	0	0	10.93	-10.93	18.931	2
1748	17.48	0	0	0	0	0	0	0	0	0	0	0	0	0	0	0	0	0	0	0	0	0	0	0	0	0	0	0	0	0	0	0	0	0	0	0	0	0	0	0	0	0	0	0	0	0	0	0	0	0	-1	0	-2.0278	-17.891	16.968	0	0	0	0	0	0	0	0	0	0
1749	17.49	0	0	0	0	0	0	0	0	0	0	0	0	0	0	0	0	0	0	0	0	0	0	0	0	0	0	0	0	0	0	1	0	0	17.883	2.027	16.961	0	0	0	0	0	0	0	0	0	0	0	0	0	-1	0	-2.0278	-17.891	16.968	0	0	0	1	0	0	17.47	2.0148	16.554	2
1750	17.5	0	0	0	0	0	0	0	0	0	0	0	0	0	0	0	0	0	0	0	0	0	0	0	0	0	0	0	0	0	0	0	0	0	0	0	0	0	0	0	0	-1	0	-2.1508	-17.769	16.797	0	0	0	0	-1	0	-2.0278	-17.891	16.968	0	0	0	0	0	0	0	0	0	2
1751	17.51	0	0	0	0	0	0	0	0	0	0	0	0	0	0	0	0	0	0	0	0	0	0	0	0	0	0	0	0	0	0	0	0	0	0	0	0	0	0	0	0	-1	0	-2.0279	-17.891	16.969	0	0	0	0	-1	0	-2.0278	-17.891	16.968	0	0	0	0	0	0	0	0	0	2
1752	17.52	0	0	0	0	0	0	0	0	0	0	0	0	0	0	0	0	0	0	0	0	0	0	0	0	0	0	0	0	0	0	0	0	0	0	0	0	0	0	0	0	0	0	0	0	0	0	0	0	0	-1	0	-2.0278	-17.891	16.968	0	0	0	0	0	0	0	0	0	2
1753	17.53	0	0	0	0	0	0	0	0	0	0	0	0	0	0	0	0	0	0	0	0	0	0	0	0	0	0	0	0	0	0	0	0	0	0	0	0	0	0	0	0	0	0	0	0	0	0	0	0	0	-1	0	-2.0278	-17.891	16.968	0	0	0	0	0	0	0	0	0	0
1754	17.54	0	0	0	0	0	0	0	0	0	0	0	0	0	0	0	0	0	0	0	0	0	0	0	0	0	0	0	0	0	0	1	0	0	17.883	2.027	16.961	0	0	0	0	0	0	0	0	0	0	0	0	0	-1	0	-2.0278	-17.891	16.968	0	0	0	1	0	0	17.47	2.0148	16.554	2
1755	17.55	0	0	0	0	0	0	0	0	0	0	0	0	0	0	0	0	0	0	0	0	0	0	0	0	0	0	0	0	0	0	1	0	0	17.883	2.027	16.961	0	0	0	0	0	0	0	0	0	0	0	0	0	0	0	0	0	0	0	0	0	1	0	0	17.47	2.0148	16.554	2
1756	17.56	0	0	0	0	0	0	0	0	0	0	0	0	0	0	0	0	0	0	0	0	0	0	0	0	0	0	0	0	0	0	0	0	0	0	0	0	0	0	0	0	0	0	0	0	0	0	0	0	0	-1	0	-2.0278	-17.891	16.968	0	0	0	1	0	0	17.47	2.0148	16.554	0
1757	17.57	0	0	0	0	0	0	0	0	0	0	0	0	0	0	0	0	0	0	0	0	0	0	0	0	0	0	0	0	0	0	0	0	0	0	0	0	0	0	0	0	0	0	0	0	0	0	0	0	0	-1	0	-2.0278	-17.891	16.968	0	0	0	0	0	0	0	0	0	2
1758	17.58	0	0	0	0	0	0	0	0	0	0	0	0	0	0	0	0	0	0	0	0	0	0	0	0	0	0	0	0	0	0	0	-1	0	-2.0265	-17.879	16.957	0	0	0	0	0	0	0	0	0	0	0	0	0	0	0	0	0	0	0	0	0	0	0	0	0	0	0	2
1759	17.59	0	0	0	0	0	0	10.917	-10.917	18.908	0	0	0	0	0	0	0	0	0	0	0	0	0	0	0	0	0	0	0	0	0	1	0	0	17.883	2.027	16.961	0	0	0	0	0	0	0	0	0	0	0	0	0	-1	0	-2.0278	-17.891	16.968	0	0	0	1	0	0	17.47	2.0148	16.554	2
1760	17.6	0	0	0	0	0	0	0	0	0	0	0	0	0	0	0	0	0	0	0	0	0	0	0	0	0	0	0	0	0	0	0	0	0	0	0	0	0	0	0	0	-1	0	-2.0279	-17.891	16.969	0	0	0	0	-1	0	-2.0278	-17.891	16.968	0	0	0	0	0	0	0	0	0	2
1761	17.61	0	0	0	0	0	0	0	0	0	0	0	0	0	0	0	0	0	0	0	0	0	0	0	0	0	0	0	0	0	0	0	0	0	0	0	0	0	0	0	0	0	0	0	0	0	0	0	0	0	0	0	0	0	0	0	0	0	1	0	0	17.47	2.0148	16.554	2
1762	17.62	0	0	0	0	0	0	0	0	0	0	0	0	0	0	0	0	0	0	0	0	0	0	0	0	0	0	0	0	0	0	0	0	0	0	0	0	0	0	0	0	-1	0	-2.0279	-17.891	16.969	0	0	0	0	0	0	0	0	0	0	0	0	0	0	0	0	0	0	2
1763	17.63	0	0	0	0	0	0	0	0	0	0	0	0	0	0	0	0	0	0	0	0	0	0	0	0	0	0	0	0	0	0	0	0	0	0	0	0	0	0	0	0	0	0	0	0	0	0	0	0	0	-1	0	-2.0278	-17.891	16.968	0	0	0	1	0	0	17.47	2.0148	16.554	0
1764	17.64	0	0	0	0	0	0	0	0	0	0	0	0	0	0	0	0	0	0	0	0	0	0	0	0	0	0	0	0	0	0	1	0	0	17.883	2.027	16.961	0	0	0	0	0	0	0	0	0	0	0	0	0	-1	0	-2.0278	-17.891	16.968	0	0	0	1	0	0	17.471	2.0135	16.556	0
1765	17.65	0	0	0	0	0	0	0	0	0	0	0	0	0	0	0	0	0	0	0	0	0	0	0	0	0	0	0	0	0	0	0	0	0	0	0	0	0	0	0	0	0	0	0	0	0	0	0	0	0	-1	0	-2.0278	-17.891	16.968	0	0	0	0	0	0	0	0	0	2
1766	17.66	0	0	0	0	0	0	0	0	0	0	0	0	0	0	0	0	0	0	0	0	0	0	0	0	0	0	0	0	0	0	0	0	0	0	0	0	0	0	0	0	0	0	0	0	0	0	0	0	0	-1	0	-2.0278	-17.891	16.968	0	0	0	0	0	0	10.93	-10.93	18.931	0
1767	17.67	0	0	0	0	0	0	0	0	0	0	0	0	0	0	0	0	0	0	0	0	0	0	0	0	0	0	0	0	0	0	1	0	0	17.883	2.027	16.961	0	0	0	0	0	0	0	0	0	0	0	0	0	-1	0	-2.0278	-17.891	16.968	0	0	0	0	0	0	0	0	0	2
1768	17.68	0	0	0	0	0	0	0	0	0	0	0	0	0	-1	0	-2.0372	-17.821	16.895	0	0	0	0	0	0	0	0	0	0	0	0	0	0	0	0	0	0	0	0	0	0	-1	0	-2.0279	-17.891	16.969	0	0	0	0	-1	0	-2.0278	-17.891	16.968	0	0	0	0	0	0	0	0	0	0
1769	17.69	0	0	0	0	0	0	0	0	0	0	0	0	0	0	0	0	0	0	0	0	0	0	0	0	0	0	0	0	0	0	1	0	0	17.761	2.1499	16.789	0	0	0	0	0	0	0	0	0	0	0	0	0	-1	0	-2.0278	-17.891	16.968	0	0	0	0	0	0	0	0	0	2
1770	17.7	0	0	0	0	0	0	0	0	0	0	0	0	0	0	0	0	0	0	0	0	0	0	0	0	0	0	0	0	0	0	0	0	0	0	0	0	0	0	0	0	0	0	0	0	0	0	0	0	0	-1	0	-2.0278	-17.891	16.968	0	0	0	0	0	0	0	0	0	2
1771	17.71	0	0	0	0	0	0	0	0	0	0	0	0	0	0	0	0	0	0	0	0	0	0	0	0	0	0	0	0	0	0	1	0	0	17.883	2.027	16.961	0	0	0	0	0	0	0	0	0	0	0	0	0	-1	0	-2.0278	-17.891	16.968	0	0	0	0	0	0	10.93	-10.93	18.931	0
1772	17.72	0	0	0	0	0	0	0	0	0	0	0	0	0	0	0	0	0	0	0	0	0	0	0	0	0	0	0	0	0	0	0	0	0	0	0	0	0	0	0	0	0	0	0	0	0	0	0	0	0	-1	0	-2.0278	-17.891	16.968	0	0	0	1	0	0	17.47	2.0148	16.554	2
1773	17.73	0	0	0	0	0	0	0	0	0	0	0	0	0	0	0	0	0	0	0	0	0	0	0	0	0	0	0	0	0	0	1	-1	0	7.5496	-27.455	31.907	0	0	0	0	0	0	0	0	0	0	0	0	0	0	0	0	0	0	0	0	0	0	0	0	10.93	-10.93	18.931	0
1774	17.74	0	0	0	0	0	0	0	0	0	0	0	0	0	0	0	0	0	0	0	0	0	0	0	0	0	0	0	0	0	0	1	0	0	17.883	2.027	16.961	0	0	0	0	0	0	0	0	0	0	0	0	0	-1	0	-2.0278	-17.891	16.968	0	0	0	1	0	0	17.47	2.0148	16.554	2
1775	17.75	0	0	0	0	0	0	0	0	0	0	0	0	0	0	0	0	0	0	0	0	0	0	0	0	0	0	0	0	0	0	0	0	0	0	0	0	0	0	0	0	-1	0	-2.0279	-17.891	16.969	0	0	0	0	-1	0	-2.0278	-17.891	16.968	0	0	0	0	0	0	0	0	0	2
1776	17.76	0	0	0	0	0	0	0	0	0	0	0	0	0	0	0	0	0	0	0	0	0	0	0	0	0	0	0	0	0	0	1	0	0	17.883	2.027	16.961	0	0	0	0	0	0	0	0	0	0	0	0	0	-1	0	-2.0278	-17.891	16.968	0	0	0	0	0	0	0	0	0	2
1777	17.77	0	0	0	0	0	0	0	0	0	0	0	0	0	0	0	0	0	0	0	0	0	0	0	0	0	0	0	0	0	0	0	0	0	0	0	0	0	0	0	0	0	0	0	0	0	0	0	0	0	-1	0	-2.0278	-17.891	16.968	0	0	0	1	0	0	17.47	2.0148	16.554	2
1778	17.78	0	0	0	0	0	0	0	0	0	0	0	0	0	0	0	0	0	0	0	0	0	0	0	0	0	0	0	0	0	0	1	0	0	17.883	2.027	16.961	0	0	0	0	0	0	0	0	0	0	0	0	0	-1	0	-2.0278	-17.891	16.968	0	0	0	0	0	0	0	0	0	2
1779	17.79	0	0	0	0	0	0	0	0	0	0	0	0	0	0	0	0	0	0	0	0	0	0	0	0	0	0	0	0	0	0	0	0	0	11.258	-11.253	19.496	0	0	0	0	0	0	0	0	0	0	0	0	0	-1	0	-2.0278	-17.891	16.968	0	0	0	0	0	0	10.93	-10.93	18.931	2
1780	17.8	0	0	0	0	0	0	0	0	0	0	0	0	0	-1	0	-2.0372	-17.821	16.895	0	0	0	0	0	0	0	0	0	0	0	0	0	0	0	0	0	0	0	0	0	0	0	0	0	0	0	0	0	0	0	-1	0	-2.0278	-17.891	16.968	0	0	0	0	0	0	0	0	0	2
1781	17.81	0	0	0	0	0	0	0	0	0	0	0	0	0	0	0	0	0	0	0	0	0	0	0	0	0	0	0	0	0	0	1	0	0	17.883	2.027	16.961	0	0	0	0	0	0	0	0	0	0	0	0	0	-1	0	-2.0278	-17.891	16.968	0	0	0	0	0	0	0	0	0	2
1782	17.82	0	0	0	0	0	0	0	0	0	0	0	0	0	0	0	0	0	0	0	0	0	0	0	0	0	0	0	0	0	0	0	0	0	0	0	0	0	0	0	0	0	0	0	0	0	0	0	0	0	-1	0	-2.0278	-17.891	16.968	0	0	0	1	0	0	17.471	2.0135	16.556	2
1783	17.83	0	0	0	0	0	0	0	0	0	0	0	0	0	0	0	0	0	0	0	0	0	0	0	0	0	0	0	0	0	0	0	0	0	0	0	0	0	0	0	0	0	0	0	0	0	0	0	0	0	-1	0	-2.0278	-17.891	16.968	0	0	0	0	0	0	10.93	-10.93	18.931	2
1784	17.84	0	0	0	0	0	0	0	0	0	0	0	0	0	0	0	0	0	0	0	0	0	0	0	0	0	0	0	0	0	0	0	0	0	0	0	0	0	0	0	0	0	0	0	0	0	0	0	0	0	-1	0	-2.0278	-17.891	16.968	0	0	0	1	0	0	17.47	2.0148	16.554	2
1785	17.85	0	0	0	0	0	0	0	0	0	0	0	0	0	0	0	0	0	0	0	0	0	0	0	0	0	0	0	0	0	0	1	0	0	17.883	2.027	16.961	0	0	0	0	-1	0	-2.1508	-17.769	16.797	0	0	0	0	-1	0	-2.0278	-17.891	16.968	0	0	0	0	0	0	0	0	0	2
1786	17.86	0	0	0	0	0	0	0	0	0	0	0	0	0	0	0	0	0	0	0	0	0	0	0	0	0	0	0	0	0	0	1	0	0	17.761	2.1499	16.789	0	0	0	0	0	0	0	0	0	0	0	0	0	-1	0	-2.0278	-17.891	16.968	0	0	0	0	0	0	0	0	0	2
1787	17.87	0	0	0	0	0	0	0	0	0	0	0	0	0	0	0	0	0	0	0	0	0	0	0	0	0	0	0	0	0	0	1	0	0	17.883	2.027	16.961	0	0	0	0	0	0	0	0	0	0	0	0	0	0	0	0	0	0	0	0	0	1	0	0	17.47	2.0148	16.554	2
1788	17.88	0	0	0	0	0	0	0	0	0	0	0	0	0	0	0	0	0	0	0	0	0	0	0	0	0	0	0	0	0	0	0	0	0	0	0	0	0	0	0	0	0	0	0	0	0	0	0	0	0	-1	0	-2.0278	-17.891	16.968	0	0	0	0	0	0	0	0	0	2
1789	17.89	0	0	0	0	0	0	0	0	0	0	0	0	0	0	0	0	0	0	0	0	0	0	0	0	0	0	0	0	0	0	1	0	0	17.761	2.1499	16.789	0	0	0	0	0	0	0	0	0	0	0	0	0	-1	0	-2.0278	-17.891	16.968	0	0	0	0	0	0	0	0	0	2
1790	17.9	0	0	0	0	0	0	0	0	0	0	0	0	0	0	0	0	0	0	0	0	0	0	0	0	0	0	0	0	0	0	0	0	0	0	0	0	0	0	0	0	-1	0	-2.0279	-17.891	16.969	0	0	0	0	-1	0	-2.0278	-17.891	16.968	0	0	0	1	0	0	17.47	2.0148	16.554	2
1791	17.91	0	0	0	0	0	0	0	0	0	0	0	0	0	0	0	0	0	0	0	0	0	0	0	0	0	0	0	0	0	0	0	0	0	11.258	-11.253	19.496	0	0	0	0	0	0	0	0	0	0	0	0	0	-1	0	-2.0278	-17.891	16.968	0	0	0	1	0	0	17.47	2.0148	16.554	2
1792	17.92	0	0	0	0	0	0	0	0	0	0	0	0	0	0	0	0	0	0	0	0	0	0	0	0	0	0	0	0	0	0	0	0	0	0	0	0	0	0	0	0	0	0	0	0	0	0	0	0	0	-1	0	-2.0278	-17.891	16.968	0	0	0	1	0	0	17.47	2.0148	16.554	2
1793	17.93	0	0	0	0	0	0	0	0	0	0	0	0	0	-1	0	-2.0372	-17.821	16.895	0	0	0	0	0	0	0	0	0	0	0	0	1	0	0	17.883	2.027	16.961	0	0	0	0	-1	0	-2.0279	-17.891	16.969	0	0	0	0	-1	0	-2.0278	-17.891	16.968	0	0	0	0	0	0	0	0	0	2
1794	17.94	0	0	0	0	0	0	0	0	0	0	0	0	0	0	0	0	0	0	0	0	0	0	0	0	0	0	0	0	0	0	1	0	0	17.883	2.027	16.961	0	0	0	0	0	0	0	0	0	0	0	0	0	-1	0	-2.0278	-17.891	16.968	0	0	0	0	0	0	10.93	-10.93	18.931	2
1795	17.95	0	0	0	0	0	0	0	0	0	0	0	0	0	0	0	0	0	0	0	0	0	0	0	0	0	0	0	0	0	0	0	0	0	0	0	0	0	0	0	0	-1	0	-2.0279	-17.891	16.969	0	0	0	0	-1	0	-2.0278	-17.891	16.968	0	0	0	0	0	0	0	0	0	2
1796	17.96	0	0	0	0	0	0	0	0	0	0	0	0	0	0	0	0	0	0	0	0	0	0	0	0	0	0	0	0	0	0	0	0	0	0	0	0	0	0	0	0	0	0	0	0	0	0	0	0	0	-1	0	-2.0278	-17.891	16.968	0	0	0	0	0	0	0	0	0	2
1797	17.97	0	0	0	0	0	0	0	0	0	0	0	0	0	0	0	0	0	0	0	0	0	0	0	0	0	0	0	0	0	0	1	0	0	17.883	2.027	16.961	0	0	0	0	0	0	0	0	0	0	0	0	0	-1	0	-2.0278	-17.891	16.968	0	0	0	1	0	0	17.47	2.0148	16.554	2
1798	17.98	0	0	0	0	0	0	0	0	0	0	0	0	0	0	0	0	0	0	0	0	0	0	0	0	0	0	0	0	0	0	0	0	0	0	0	0	0	0	0	0	0	0	0	0	0	0	0	0	0	0	0	0	0	0	0	0	0	0	0	0	0	0	0	2
1799	17.99	0	0	0	0	0	0	0	0	0	0	0	0	0	0	0	0	0	0	0	0	0	0	0	0	0	0	0	0	0	0	1	0	0	17.883	2.027	16.961	0	0	0	0	0	0	0	0	0	0	0	0	0	-1	0	-2.0278	-17.891	16.968	0	0	0	1	0	0	17.471	2.0135	16.556	0
1800	18	0	0	0	0	0	0	0	0	0	0	0	0	0	0	0	0	0	0	0	0	0	0	0	0	0	0	0	0	0	0	1	0	0	17.883	2.027	16.961	0	0	0	0	-1	0	-2.0279	-17.891	16.969	0	0	0	0	0	0	0	0	0	0	0	0	0	0	0	0	0	0	2
1801	18.01	0	0	0	0	0	0	0	0	0	0	0	0	0	0	0	0	0	0	0	0	0	0	0	0	0	0	0	0	0	0	0	0	0	0	0	0	0	0	0	0	0	0	0	0	0	0	0	0	0	0	0	0	0	0	0	0	0	1	0	0	17.47	2.0148	16.554	2
1802	18.02	0	0	0	0	0	0	0	0	0	0	0	0	0	0	0	0	0	0	0	0	0	0	0	0	0	0	0	0	0	0	0	0	0	0	0	0	0	0	0	0	0	0	0	0	0	0	0	0	0	-1	0	-2.0278	-17.891	16.968	0	0	0	0	0	0	0	0	0	2
1803	18.03	0	0	0	0	0	0	0	0	0	0	0	0	0	0	0	0	0	0	0	0	0	0	0	0	0	0	0	0	0	0	0	0	0	0	0	0	0	0	0	0	0	0	0	0	0	0	0	0	0	0	0	0	0	0	0	0	0	0	0	0	0	0	0	2
1804	18.04	0	0	0	0	0	0	0	0	0	0	0	0	0	0	0	0	0	0	0	0	0	0	0	0	10.989	-10.989	19.033	0	0	0	0	0	0	11.258	-11.253	19.496	0	0	0	0	0	0	0	0	0	0	0	0	0	-1	0	-2.0278	-17.891	16.968	0	0	0	1	0	0	17.47	2.0148	16.554	2
1805	18.05	0	0	0	0	0	0	0	0	0	0	0	0	0	0	0	0	0	0	0	0	0	0	0	0	0	0	0	0	0	0	1	0	0	17.883	2.027	16.961	0	0	0	0	0	0	0	0	0	0	0	0	0	-1	0	-2.0278	-17.891	16.968	0	0	0	0	0	0	0	0	0	2
1806	18.06	0	0	0	0	0	0	0	0	0	0	0	0	0	-1	0	-2.0372	-17.821	16.895	0	0	0	0	0	0	0	0	0	0	0	0	0	0	0	0	0	0	0	0	0	0	0	0	0	0	0	0	0	0	0	-1	0	-2.0278	-17.891	16.968	0	0	0	1	0	0	17.47	2.0148	16.554	2
1807	18.07	0	0	0	0	0	0	0	0	0	0	0	0	0	0	0	0	0	0	0	0	0	0	0	0	0	0	0	0	0	0	0	0	0	0	0	0	0	0	0	0	0	0	0	0	0	0	0	0	0	-1	0	-2.0278	-17.891	16.968	0	0	0	1	0	0	17.47	2.0148	16.554	2
1808	18.08	0	0	0	0	0	0	0	0	0	0	0	0	0	0	0	0	0	0	0	0	0	0	0	0	0	0	0	0	0	0	0	0	0	0	0	0	0	0	0	0	0	0	0	0	0	0	0	0	0	-1	0	-2.0278	-17.891	16.968	0	0	0	0	0	0	0	0	0	2
1809	18.09	0	0	0	0	0	0	0	0	0	0	0	0	0	0	0	0	0	0	0	0	0	0	0	0	0	0	0	0	0	0	1	0	0	17.883	2.027	16.961	0	0	0	0	0	0	0	0	0	0	0	0	0	-1	0	-2.0278	-17.891	16.968	0	0	0	1	0	0	17.47	2.0148	16.554	2
1810	18.1	0	0	0	0	0	0	0	0	0	0	0	0	0	0	0	0	0	0	0	0	0	0	0	0	0	0	0	0	0	0	0	0	0	0	0	0	0	0	0	0	0	0	0	0	0	0	0	0	0	-1	0	-2.0278	-17.891	16.968	0	0	0	1	0	0	17.47	2.0148	16.554	2
1811	18.11	0	0	0	0	0	0	0	0	0	0	0	0	0	0	0	0	0	0	0	0	0	0	0	0	0	0	0	0	0	0	1	0	0	17.883	2.027	16.961	0	0	0	0	0	0	0	0	0	0	0	0	0	-1	0	-2.0278	-17.891	16.968	0	0	0	1	0	0	17.47	2.0148	16.554	2
1812	18.12	0	0	0	0	0	0	0	0	0	0	0	0	0	0	0	0	0	0	0	0	0	0	0	0	0	0	0	0	0	0	1	0	0	17.761	2.1499	16.789	0	0	0	0	0	0	10.996	-10.996	19.046	0	0	0	0	-1	0	-2.0278	-17.891	16.968	0	0	0	1	0	0	17.47	2.0148	16.554	2
1813	18.13	0	0	0	0	0	0	0	0	0	0	0	0	0	-1	0	-2.0372	-17.821	16.895	0	0	0	0	0	0	0	0	0	0	0	0	0	0	0	0	0	0	0	0	0	0	0	0	0	0	0	0	0	0	0	-1	0	-2.0278	-17.891	16.968	0	0	0	1	0	0	17.47	2.0148	16.554	2
1814	18.14	0	0	0	0	0	0	0	0	0	0	0	0	0	0	0	0	0	0	0	0	0	0	0	0	0	0	0	0	0	0	0	0	0	0	0	0	0	0	0	0	0	0	0	0	0	0	0	0	0	-1	0	-2.0278	-17.891	16.968	0	0	0	1	0	0	17.471	2.0135	16.556	2
1815	18.15	0	0	0	0	0	0	0	0	0	0	0	0	0	0	0	0	0	0	0	0	0	0	0	0	0	0	0	0	0	0	1	0	0	17.761	2.1499	16.789	0	0	0	0	0	0	0	0	0	0	0	0	0	-1	0	-2.0278	-17.891	16.968	0	0	0	0	0	0	0	0	0	2
1816	18.16	0	0	0	0	0	0	0	0	0	0	0	0	0	0	0	0	0	0	0	0	0	0	0	0	0	0	0	0	0	0	0	0	0	0	0	0	0	0	0	0	0	0	0	0	0	0	0	0	0	-1	0	-2.0278	-17.891	16.968	0	0	0	1	0	0	17.47	2.0148	16.554	2
1817	18.17	0	0	0	0	0	0	0	0	0	0	0	0	0	0	0	0	0	0	0	0	0	0	0	0	0	0	0	0	0	0	0	0	0	0	0	0	0	0	0	0	0	0	0	0	0	0	0	0	0	-1	0	-2.0278	-17.891	16.968	0	0	0	1	0	0	17.47	2.0148	16.554	2
1818	18.18	0	0	0	0	0	0	0	0	0	0	0	0	0	0	0	0	0	0	0	0	0	0	0	0	0	0	0	0	0	0	0	0	0	10.991	-10.991	19.037	0	0	0	0	0	0	0	0	0	0	0	0	0	-1	0	-2.0278	-17.891	16.968	0	0	0	0	0	0	0	0	0	2
1819	18.19	0	0	0	0	0	0	0	0	0	0	0	0	0	0	0	0	0	0	0	0	0	0	0	0	0	0	0	0	0	0	0	0	0	0	0	0	0	0	0	0	0	0	0	0	0	0	0	0	0	-1	0	-2.0278	-17.891	16.968	0	0	0	0	0	0	10.93	-10.93	18.931	2
1820	18.2	0	0	0	0	0	0	0	0	0	0	0	0	0	0	0	0	0	0	0	0	0	0	0	0	0	0	0	0	0	0	1	0	0	17.883	2.027	16.961	0	0	0	0	0	0	10.996	-10.996	19.046	0	0	0	0	-1	0	-2.0278	-17.891	16.968	0	0	0	0	0	0	0	0	0	2
1821	18.21	0	0	0	0	0	0	0	0	0	0	0	0	0	0	0	0	0	0	0	0	0	0	0	0	0	0	0	0	0	0	0	0	0	0	0	0	0	0	0	0	0	0	0	0	0	0	0	0	0	-1	0	-2.0278	-17.891	16.968	0	0	0	1	0	0	17.47	2.0148	16.554	2
1822	18.22	0	0	0	0	0	0	0	0	0	0	0	0	0	0	0	0	0	0	0	0	0	0	0	0	0	0	0	0	0	0	1	0	0	17.883	2.027	16.961	0	0	0	0	0	0	0	0	0	0	0	0	0	-1	0	-2.0278	-17.891	16.968	0	0	0	1	0	0	17.47	2.0148	16.554	2
1823	18.23	0	0	0	0	0	0	0	0	0	0	0	0	0	-1	0	-2.0372	-17.821	16.895	0	0	0	0	0	0	0	0	0	0	0	0	1	0	0	17.883	2.027	16.961	0	0	0	0	0	0	0	0	0	0	0	0	0	-1	0	-2.0278	-17.891	16.968	0	0	0	1	0	0	17.47	2.0148	16.554	2
1824	18.24	0	0	0	0	0	0	0	0	0	0	0	0	0	0	0	0	0	0	0	0	0	0	0	0	0	0	0	0	0	0	0	0	0	0	0	0	0	0	0	0	0	0	0	0	0	0	0	0	0	-1	0	-2.0278	-17.891	16.968	0	0	0	1	0	0	17.471	2.0135	16.556	2
1825	18.25	0	0	0	0	0	0	0	0	0	0	0	0	0	0	0	0	0	0	0	0	0	0	0	0	0	0	0	0	0	0	0	0	0	0	0	0	0	0	0	0	0	0	0	0	0	0	0	0	0	-1	0	-2.0278	-17.891	16.968	0	0	0	1	0	0	17.47	2.0148	16.554	0
1826	18.26	0	0	0	0	0	0	0	0	0	0	0	0	0	0	0	0	0	0	0	0	0	0	0	0	0	0	0	0	0	0	1	0	0	17.883	2.027	16.961	0	0	0	0	0	0	0	0	0	0	0	0	0	-1	0	-2.0278	-17.891	16.968	0	0	0	0	0	0	10.93	-10.93	18.931	2
1827	18.27	0	0	0	0	0	0	0	0	0	0	0	0	0	0	0	0	0	0	0	0	0	0	0	0	0	0	0	0	0	0	0	0	0	0	0	0	0	0	0	0	0	0	0	0	0	0	0	0	0	-1	0	-2.0278	-17.891	16.968	0	0	0	1	0	0	17.47	2.0148	16.554	2
1828	18.28	0	0	0	0	0	0	0	0	0	0	0	0	0	0	0	0	0	0	0	0	0	0	0	0	0	0	0	0	0	0	1	0	0	17.883	2.027	16.961	0	0	0	0	0	0	0	0	0	0	0	0	0	-1	0	-2.0278	-17.891	16.968	0	0	0	0	0	0	0	0	0	2
1829	18.29	0	0	0	0	0	0	0	0	0	0	0	0	0	0	0	0	0	0	0	0	0	0	0	0	0	0	0	0	0	0	1	0	0	17.883	2.027	16.961	0	0	0	0	0	0	0	0	0	0	0	0	0	-1	0	-2.0278	-17.891	16.968	0	0	0	1	0	0	17.47	2.0148	16.554	2
1830	18.3	0	0	0	0	0	0	0	0	0	0	0	0	0	0	0	0	0	0	0	0	0	0	0	0	0	0	0	0	0	0	0	0	0	0	0	0	0	0	0	0	-1	0	-2.0279	-17.891	16.969	0	0	0	0	-1	0	-2.0278	-17.891	16.968	0	0	0	0	0	0	0	0	0	2
1831	18.31	0	0	0	0	0	0	0	0	0	0	0	0	0	0	0	0	0	0	0	0	0	0	0	0	0	0	0	0	0	0	1	0	0	17.883	2.027	16.961	0	0	0	0	0	0	0	0	0	0	0	0	0	-1	0	-2.0278	-17.891	16.968	0	0	0	1	0	0	17.47	2.0148	16.554	0
1832	18.32	0	0	0	0	0	0	0	0	0	0	0	0	0	0	0	0	0	0	0	0	0	0	0	0	0	0	0	0	0	0	1	0	0	17.883	2.027	16.961	0	0	0	0	0	0	0	0	0	0	0	0	0	0	0	0	0	0	0	0	0	1	0	0	17.471	2.0135	16.556	2
1833	18.33	0	0	0	0	0	0	0	0	0	0	0	0	0	0	0	0	0	0	0	0	0	0	0	0	0	0	0	0	0	0	0	0	0	0	0	0	0	0	0	0	0	0	0	0	0	0	0	0	0	-1	0	-2.0278	-17.891	16.968	0	0	0	1	0	0	17.47	2.0148	16.554	2
1834	18.34	0	0	0	0	0	0	0	0	0	0	0	0	0	0	0	0	0	0	0	0	0	0	0	0	0	0	0	0	0	0	1	0	0	17.883	2.027	16.961	0	0	0	0	0	0	0	0	0	0	0	0	0	-1	0	-2.0278	-17.891	16.968	0	0	0	0	0	0	0	0	0	2
1835	18.35	0	0	0	0	0	0	0	0	0	0	0	0	0	0	0	0	0	0	0	0	0	0	0	0	0	0	0	0	0	0	0	0	0	0	0	0	0	0	0	0	0	0	0	0	0	0	0	0	0	-1	0	-2.0278	-17.891	16.968	0	0	0	0	0	0	10.93	-10.93	18.931	2
1836	18.36	0	0	0	0	0	0	0	0	0	0	0	0	0	0	0	0	0	0	0	0	0	0	0	0	0	0	0	0	0	0	1	0	0	17.883	2.027	16.961	0	0	0	0	0	0	0	0	0	0	0	0	0	-1	0	-2.0278	-17.891	16.968	0	0	0	1	0	0	17.47	2.0148	16.554	2
1837	18.37	0	0	0	0	0	0	0	0	0	0	0	0	0	0	0	0	0	0	0	0	0	0	0	0	0	0	0	0	0	0	1	0	0	17.883	2.027	16.961	0	0	0	0	0	0	0	0	0	0	0	0	0	0	0	0	0	0	0	0	0	0	0	0	0	0	0	2
1838	18.38	0	0	0	0	0	0	0	0	0	0	0	0	0	0	0	0	0	0	0	0	0	0	0	0	0	0	0	0	0	0	0	0	0	0	0	0	0	0	0	0	0	0	0	0	0	0	0	0	0	-1	0	-2.0278	-17.891	16.968	0	0	0	1	0	0	17.47	2.0148	16.554	2
1839	18.39	0	0	0	0	0	0	0	0	0	0	0	0	0	0	0	0	0	0	0	0	0	0	0	0	0	0	0	0	0	0	0	0	0	0	0	0	0	0	0	0	0	0	0	0	0	0	0	0	0	-1	0	-2.0278	-17.891	16.968	0	0	0	1	0	0	17.47	2.0148	16.554	0
1840	18.4	0	0	0	0	0	0	0	0	0	0	0	0	0	0	0	0	0	0	0	0	0	0	0	0	0	0	0	0	0	0	1	0	0	17.883	2.027	16.961	0	0	0	0	0	0	10.996	-10.996	19.046	0	0	0	0	-1	0	-2.0278	-17.891	16.968	0	0	0	0	0	0	0	0	0	2
1841	18.41	0	0	0	0	0	0	0	0	0	0	0	0	0	0	0	0	0	0	0	0	0	0	0	0	0	0	0	0	0	0	0	0	0	0	0	0	0	0	0	0	0	0	0	0	0	0	0	0	0	-1	0	-2.0278	-17.891	16.968	0	0	0	0	0	0	0	0	0	2
1842	18.42	0	0	0	0	0	0	0	0	0	0	0	0	0	0	0	0	0	0	0	0	0	0	0	0	0	0	0	0	0	0	1	0	0	17.883	2.027	16.961	0	0	0	0	0	0	0	0	0	0	0	0	0	-1	0	-2.0278	-17.891	16.968	0	0	0	0	0	0	0	0	0	2
1843	18.43	0	0	0	0	0	0	0	0	0	0	0	0	0	0	0	0	0	0	0	0	0	0	0	0	0	0	0	0	0	0	0	0	0	0	0	0	0	0	0	0	0	0	0	0	0	0	0	0	0	-1	0	-2.0278	-17.891	16.968	0	0	0	0	0	0	0	0	0	2
1844	18.44	0	0	0	0	0	0	0	0	0	0	0	0	0	0	0	0	0	0	0	0	0	0	0	0	0	0	0	0	0	0	0	0	0	0	0	0	0	0	0	0	0	0	0	0	0	0	0	0	0	-1	0	-2.0278	-17.891	16.968	0	0	0	1	0	0	17.471	2.0135	16.556	2
1845	18.45	0	0	0	0	0	0	0	0	0	0	0	0	0	0	0	0	0	0	0	0	0	0	0	0	10.989	-10.989	19.033	0	0	0	1	0	0	17.883	2.027	16.961	0	0	0	0	0	0	10.996	-10.996	19.046	0	0	0	0	-1	0	-2.0278	-17.891	16.968	0	0	0	0	0	0	0	0	0	2
1846	18.46	0	0	0	0	0	0	0	0	0	0	0	0	0	0	0	0	0	0	0	0	0	0	0	0	0	0	0	0	0	0	0	0	0	0	0	0	0	0	0	0	0	0	0	0	0	0	0	0	0	-1	0	-2.0278	-17.891	16.968	0	0	0	0	0	0	10.93	-10.93	18.931	2
1847	18.47	0	0	0	0	0	0	0	0	0	0	0	0	0	0	0	0	0	0	0	0	0	0	0	0	0	0	0	0	0	0	1	0	0	17.883	2.027	16.961	0	0	0	0	0	0	0	0	0	0	0	0	0	-1	0	-2.0278	-17.891	16.968	0	0	0	0	0	0	0	0	0	2
1848	18.48	0	0	0	0	0	0	0	0	0	0	0	0	0	0	0	0	0	0	0	0	0	0	0	0	0	0	0	0	0	0	0	0	0	0	0	0	0	0	0	0	0	0	0	0	0	0	0	0	0	-1	0	-2.0278	-17.891	16.968	0	0	0	0	0	0	0	0	0	2
1849	18.49	0	0	0	0	0	0	0	0	0	0	0	0	0	0	0	0	0	0	0	0	0	0	0	0	0	0	0	0	0	0	0	0	0	0	0	0	0	0	0	0	0	0	0	0	0	0	0	0	0	-1	0	-2.0278	-17.891	16.968	0	0	0	0	0	0	0	0	0	2
1850	18.5	0	0	0	0	0	0	0	0	0	0	0	0	0	-1	0	-2.0372	-17.821	16.895	0	0	0	0	0	0	0	0	0	0	0	0	1	0	0	17.883	2.027	16.961	0	0	0	0	-1	0	-2.0279	-17.891	16.969	0	0	0	0	0	0	0	0	0	0	0	0	0	0	0	0	0	0	2
1851	18.51	0	0	0	0	0	0	0	0	0	0	0	0	0	0	0	0	0	0	0	0	0	0	0	0	0	0	0	0	0	0	1	0	0	17.883	2.027	16.961	0	0	0	0	0	0	0	0	0	0	0	0	0	-1	0	-2.0278	-17.891	16.968	0	0	0	0	0	0	0	0	0	2
1852	18.52	0	0	0	0	0	0	0	0	0	0	0	0	0	0	0	0	0	0	0	0	0	0	0	0	0	0	0	0	0	0	1	0	0	17.761	2.1499	16.789	0	0	0	0	0	0	0	0	0	0	0	0	0	-1	0	-2.0278	-17.891	16.968	0	0	0	1	0	0	17.47	2.0148	16.554	2
1853	18.53	0	0	0	0	0	0	0	0	0	0	0	0	0	0	0	0	0	0	0	0	0	0	0	0	0	0	0	0	0	0	0	0	0	0	0	0	0	0	0	0	0	0	0	0	0	0	0	0	0	0	0	0	0	0	0	0	0	0	0	0	0	0	0	2
1854	18.54	0	0	0	0	0	0	0	0	0	0	0	0	0	0	0	0	0	0	0	0	0	0	0	0	0	0	0	0	0	0	1	0	0	17.883	2.027	16.961	0	0	0	0	0	0	0	0	0	0	0	0	0	-1	0	-2.0278	-17.891	16.968	0	0	0	1	0	0	17.47	2.0148	16.554	2
1855	18.55	0	0	0	0	0	0	0	0	0	0	0	0	0	0	0	0	0	0	0	0	0	0	0	0	0	0	0	0	0	0	1	0	0	17.883	2.027	16.961	0	0	0	0	0	0	0	0	0	0	0	0	0	-1	0	-2.0278	-17.891	16.968	0	0	0	0	0	0	0	0	0	2
1856	18.56	0	0	0	0	0	0	0	0	0	0	0	0	0	0	0	0	0	0	0	0	0	0	0	0	0	0	0	0	0	0	1	0	0	17.883	2.027	16.961	0	0	0	0	0	0	0	0	0	0	0	0	0	-1	0	-2.0278	-17.891	16.968	0	0	0	0	0	0	0	0	0	2
1857	18.57	0	0	0	0	0	0	0	0	0	0	0	0	0	0	0	0	0	0	0	0	0	0	0	0	0	0	0	0	0	0	0	0	0	0	0	0	0	0	0	0	0	0	0	0	0	0	0	0	0	-1	0	-2.0278	-17.891	16.968	0	0	0	0	0	0	0	0	0	2
1858	18.58	0	0	0	0	0	0	0	0	0	0	0	0	0	0	0	0	0	0	0	0	0	0	0	0	0	0	0	0	0	0	0	0	0	0	0	0	0	0	0	0	0	0	0	0	0	0	0	0	0	-1	0	-2.0278	-17.891	16.968	0	0	0	0	0	0	0	0	0	2
1859	18.59	0	0	0	0	0	0	0	0	0	0	0	0	0	0	0	0	0	0	0	0	0	0	0	0	0	0	0	0	0	0	1	0	0	17.883	2.027	16.961	0	0	0	0	0	0	0	0	0	0	0	0	0	-1	0	-2.0278	-17.891	16.968	0	0	0	0	0	0	10.93	-10.93	18.931	2
1860	18.6	0	0	0	0	0	0	0	0	0	0	0	0	0	0	0	0	0	0	0	0	0	0	0	0	0	0	0	0	0	0	0	0	0	0	0	0	0	0	0	0	-1	0	-2.0279	-17.891	16.969	0	0	0	0	-1	0	-2.0278	-17.891	16.968	0	0	0	0	0	0	0	0	0	2
1861	18.61	0	0	0	0	0	0	0	0	0	0	0	0	0	0	0	0	0	0	0	0	0	0	0	0	0	0	0	0	0	0	1	0	0	17.883	2.027	16.961	0	0	0	0	0	0	0	0	0	0	0	0	0	-1	0	-2.0278	-17.891	16.968	0	0	0	1	0	0	17.47	2.0148	16.554	2
1862	18.62	0	0	0	0	0	0	0	0	0	0	0	0	0	0	0	0	0	0	0	0	0	0	0	0	0	0	0	0	0	0	0	0	0	0	0	0	0	0	0	0	-1	0	-2.1508	-17.769	16.797	0	0	0	0	-1	0	-2.0278	-17.891	16.968	0	0	0	1	0	0	17.47	2.0148	16.554	2
1863	18.63	0	0	0	0	0	0	0	0	0	0	0	0	0	0	0	0	0	0	0	0	0	0	0	0	0	0	0	0	0	0	1	0	0	17.883	2.027	16.961	0	0	0	0	0	0	0	0	0	0	0	0	0	-1	0	-2.0278	-17.891	16.968	0	0	0	0	0	0	0	0	0	2
1864	18.64	0	0	0	0	0	0	0	0	0	0	0	0	0	0	0	0	0	0	0	0	0	0	0	0	0	0	0	0	0	0	0	0	0	0	0	0	0	0	0	0	0	0	0	0	0	0	0	0	0	-1	0	-2.0278	-17.891	16.968	0	0	0	1	0	0	17.47	2.0148	16.554	2
1865	18.65	0	0	0	0	0	0	0	0	0	0	0	0	0	0	0	0	0	0	0	0	0	0	0	0	0	0	0	0	0	0	0	0	0	0	0	0	0	0	0	0	-1	0	-2.0279	-17.891	16.969	0	0	0	0	-1	0	-2.0278	-17.891	16.968	0	0	0	1	0	0	17.47	2.0148	16.554	2
1866	18.66	0	0	0	0	0	0	0	0	0	0	0	0	0	0	0	0	0	0	0	0	0	0	0	0	0	0	0	0	0	0	1	0	0	17.883	2.027	16.961	0	0	0	0	-1	0	-2.1508	-17.769	16.797	0	0	0	0	-1	0	-2.0278	-17.891	16.968	0	0	0	1	0	0	17.47	2.0148	16.554	2
1867	18.67	0	0	0	0	0	0	0	0	0	0	0	0	0	0	0	0	0	0	0	0	0	0	0	0	0	0	0	0	0	0	1	0	0	17.883	2.027	16.961	0	0	0	0	0	0	10.996	-10.996	19.046	0	0	0	0	-1	0	-2.0278	-17.891	16.968	0	0	0	0	0	0	0	0	0	2
1868	18.68	0	0	0	0	0	0	0	0	0	0	0	0	0	0	0	0	0	0	0	0	0	0	0	0	0	0	0	0	0	0	0	0	0	0	0	0	0	0	0	0	0	0	10.996	-10.996	19.046	0	0	0	0	-1	0	-2.0278	-17.891	16.968	0	0	0	0	0	0	0	0	0	2
1869	18.69	0	0	0	0	0	0	0	0	0	0	0	0	0	0	0	0	0	0	0	0	0	0	0	0	0	0	0	0	0	0	1	0	0	17.883	2.027	16.961	0	0	0	0	0	0	0	0	0	0	0	0	0	0	0	0	0	0	0	0	0	1	0	0	17.47	2.0148	16.554	2
1870	18.7	0	0	0	0	0	0	0	0	0	0	0	0	0	0	0	0	0	0	0	0	0	0	0	0	0	0	0	0	0	0	0	0	0	0	0	0	0	0	0	0	0	0	10.996	-10.996	19.046	0	0	0	0	-1	0	-2.0278	-17.891	16.968	0	0	0	0	0	0	0	0	0	2
1871	18.71	0	0	0	0	0	0	0	0	0	0	0	0	0	0	0	0	0	0	0	0	0	0	0	0	0	0	0	0	0	0	0	0	0	0	0	0	0	0	0	0	0	0	0	0	0	0	0	0	0	0	0	0	0	0	0	0	0	1	0	0	17.47	2.0148	16.554	2
1872	18.72	0	0	0	0	0	0	0	0	0	0	0	0	0	0	0	0	0	0	0	0	0	0	0	0	0	0	0	0	0	0	1	0	0	17.883	2.027	16.961	0	0	0	0	0	0	10.996	-10.996	19.046	0	0	0	0	-1	0	-2.0278	-17.891	16.968	0	0	0	0	0	0	0	0	0	2
1873	18.73	0	0	0	0	0	0	0	0	0	0	0	0	0	0	0	0	0	0	0	0	0	0	0	0	0	0	0	0	0	0	0	0	0	0	0	0	0	0	0	0	0	0	0	0	0	0	0	0	1	-1	0	7.5503	-27.469	31.921	0	0	0	1	0	0	17.47	2.0148	16.554	2
1874	18.74	0	0	0	0	0	0	0	0	0	0	0	0	0	0	0	0	0	0	0	0	0	0	0	0	0	0	0	0	0	0	1	0	0	17.883	2.027	16.961	0	0	0	0	0	0	0	0	0	0	0	0	0	-1	0	-2.0278	-17.891	16.968	0	0	0	0	0	0	0	0	0	0
1875	18.75	0	0	0	0	0	0	0	0	0	0	0	0	0	0	0	0	0	0	0	0	0	0	0	0	0	0	0	0	0	0	0	0	0	0	0	0	0	0	0	0	-1	0	-2.1508	-17.769	16.797	0	0	0	0	-1	0	-2.0278	-17.891	16.968	0	0	0	0	0	0	0	0	0	2
1876	18.76	0	0	0	0	0	0	0	0	0	0	0	0	0	0	0	0	0	0	0	0	0	0	0	0	0	0	0	0	0	0	1	0	0	17.761	2.1499	16.789	0	0	0	0	0	0	10.996	-10.996	19.046	0	0	0	0	-1	0	-2.0278	-17.891	16.968	0	0	0	1	0	0	17.47	2.0148	16.554	2
1877	18.77	0	0	0	0	0	0	0	0	0	0	0	0	0	0	0	0	0	0	0	0	0	0	0	0	0	0	0	0	0	0	1	0	0	17.883	2.027	16.961	0	0	0	0	0	0	0	0	0	0	0	0	0	0	0	0	0	0	0	0	0	1	0	0	17.47	2.0148	16.554	2
1878	18.78	0	0	0	0	0	0	0	0	0	0	0	0	0	0	0	0	0	0	0	0	0	0	0	0	0	0	0	0	0	0	1	0	0	17.883	2.027	16.961	0	0	0	0	0	0	0	0	0	0	0	0	0	-1	0	-2.0278	-17.891	16.968	0	0	0	0	0	0	0	0	0	2
1879	18.79	0	0	0	0	0	0	0	0	0	0	0	0	0	0	0	0	0	0	0	0	0	0	0	0	0	0	0	0	0	0	1	0	0	17.883	2.027	16.961	0	0	0	0	0	0	0	0	0	0	0	0	0	-1	0	-2.0278	-17.891	16.968	0	0	0	1	0	0	17.47	2.0148	16.554	2
1880	18.8	0	0	0	0	0	0	0	0	0	0	0	0	0	0	0	0	0	0	0	0	0	0	0	0	0	0	0	0	0	0	0	0	0	0	0	0	0	0	0	0	0	0	10.996	-10.996	19.046	0	0	0	0	-1	0	-2.0278	-17.891	16.968	0	0	0	0	0	0	0	0	0	2
1881	18.81	0	0	0	0	0	0	0	0	0	0	0	0	0	0	0	0	0	0	0	0	0	0	0	0	0	0	0	0	0	0	1	0	0	17.883	2.027	16.961	0	0	0	0	0	0	0	0	0	0	0	0	0	-1	0	-2.0278	-17.891	16.968	0	0	0	1	0	0	17.47	2.0148	16.554	2
1882	18.82	0	0	0	0	0	0	0	0	0	0	0	0	0	0	0	0	0	0	0	0	0	0	0	0	0	0	0	0	0	0	1	0	0	17.883	2.027	16.961	0	0	0	0	0	0	0	0	0	0	0	0	0	-1	0	-2.0278	-17.891	16.968	0	0	0	0	0	0	0	0	0	2
1883	18.83	0	0	0	0	0	0	0	0	0	0	0	0	0	-1	0	-2.0372	-17.821	16.895	0	0	0	0	0	0	0	0	0	0	0	0	0	0	0	0	0	0	0	0	0	0	-1	0	-2.0279	-17.891	16.969	0	0	0	0	-1	0	-2.0278	-17.891	16.968	0	0	0	0	0	0	0	0	0	2
1884	18.84	0	0	0	0	0	0	0	0	0	0	0	0	0	0	0	0	0	0	0	0	0	0	0	0	0	0	0	0	0	0	1	0	0	17.883	2.027	16.961	0	0	0	0	0	0	10.996	-10.996	19.046	0	0	0	0	-1	0	-2.0278	-17.891	16.968	0	0	0	1	0	0	17.47	2.0148	16.554	2
1885	18.85	0	0	0	0	0	0	0	0	0	0	0	0	0	0	0	0	0	0	0	0	0	0	0	0	0	0	0	0	0	0	1	0	0	17.883	2.027	16.961	0	0	0	0	0	0	0	0	0	0	0	0	0	-1	0	-2.0278	-17.891	16.968	0	0	0	0	0	0	0	0	0	2
1886	18.86	0	0	0	0	0	0	0	0	0	0	0	0	0	0	0	0	0	0	0	0	0	0	0	0	0	0	0	0	0	0	1	0	0	17.883	2.027	16.961	0	0	0	0	0	0	0	0	0	0	0	0	0	-1	0	-2.0278	-17.891	16.968	0	0	0	1	0	0	17.47	2.0148	16.554	2
1887	18.87	0	0	0	0	0	0	0	0	0	0	0	0	0	0	0	0	0	0	0	0	0	0	0	0	0	0	0	0	0	0	1	0	0	17.883	2.027	16.961	0	0	0	0	-1	0	-2.0279	-17.891	16.969	0	0	0	0	0	0	0	0	0	0	0	0	1	0	0	17.47	2.0148	16.554	2
1888	18.88	0	0	0	0	0	0	0	0	0	0	0	0	0	0	0	0	0	0	0	0	0	0	0	0	0	0	0	0	0	0	1	0	0	17.883	2.027	16.961	0	0	0	0	-1	0	-2.1508	-17.769	16.797	0	0	0	0	-1	0	-2.0278	-17.891	16.968	0	0	0	1	0	0	17.47	2.0148	16.554	2
1889	18.89	0	0	0	0	0	0	0	0	0	0	0	0	0	0	0	0	0	0	0	0	0	0	0	0	0	0	0	0	0	0	0	0	0	0	0	0	0	0	0	0	0	0	0	0	0	0	0	0	0	-1	0	-2.0278	-17.891	16.968	0	0	0	1	0	0	17.47	2.0148	16.554	0
1890	18.9	0	0	0	0	0	0	0	0	0	0	0	0	0	0	0	0	0	0	0	0	0	0	0	0	10.989	-10.989	19.033	0	0	0	1	0	0	17.883	2.027	16.961	0	0	0	0	0	0	0	0	0	0	0	0	0	-1	0	-2.0278	-17.891	16.968	0	0	0	0	0	0	0	0	0	2
1891	18.91	0	0	0	0	0	0	0	0	0	0	0	0	0	0	0	0	0	0	0	0	0	0	0	0	0	0	0	0	0	0	1	0	0	17.883	2.027	16.961	0	0	0	0	0	0	0	0	0	0	0	0	0	-1	0	-2.0278	-17.891	16.968	0	0	0	1	0	0	17.47	2.0148	16.554	2
1892	18.92	0	0	0	0	0	0	0	0	0	0	0	0	0	0	0	0	0	0	0	0	0	0	0	0	0	0	0	0	0	0	1	0	0	17.883	2.027	16.961	0	0	0	0	0	0	0	0	0	0	0	0	0	-1	0	-2.0278	-17.891	16.968	0	0	0	0	0	0	0	0	0	2
1893	18.93	0	0	0	0	0	0	0	0	0	0	0	0	0	0	0	0	0	0	0	0	0	0	0	0	0	0	0	0	0	0	1	0	0	17.761	2.1499	16.789	0	0	0	0	0	0	0	0	0	0	0	0	0	-1	0	-2.0278	-17.891	16.968	0	0	0	0	0	0	0	0	0	2
1894	18.94	0	0	0	0	0	0	0	0	0	0	0	0	0	0	0	0	0	0	0	0	0	0	0	0	0	0	0	0	0	0	1	0	0	17.883	2.027	16.961	0	0	0	0	0	0	0	0	0	0	0	0	0	-1	0	-2.0278	-17.891	16.968	0	0	0	1	0	0	17.47	2.0148	16.554	2
1895	18.95	0	0	0	0	0	0	0	0	0	0	0	0	0	0	0	0	0	0	0	0	0	0	0	0	0	0	0	0	0	0	0	0	0	0	0	0	0	0	0	0	-1	0	-2.0279	-17.891	16.969	0	0	0	0	-1	0	-2.0278	-17.891	16.968	0	0	0	0	0	0	0	0	0	2
1896	18.96	0	0	0	0	0	0	0	0	0	0	0	0	0	0	0	0	0	0	0	0	0	0	0	0	0	0	0	0	0	0	1	0	0	17.761	2.1499	16.789	0	0	0	0	0	0	0	0	0	0	0	0	0	0	0	0	0	0	0	0	0	0	0	0	0	0	0	2
1897	18.97	0	0	0	0	0	0	0	0	0	0	0	0	0	0	0	0	0	0	0	0	0	0	0	0	0	0	0	0	0	0	1	0	0	17.883	2.027	16.961	0	0	0	0	0	0	0	0	0	0	0	0	0	-1	0	-2.0278	-17.891	16.968	0	0	0	0	0	0	0	0	0	2
1898	18.98	0	0	0	0	0	0	0	0	0	0	0	0	0	0	0	0	0	0	0	0	0	0	0	0	0	0	0	0	0	0	0	0	0	10.991	-10.991	19.037	0	0	0	0	0	0	0	0	0	0	0	0	0	-1	0	-2.0278	-17.891	16.968	0	0	0	1	0	0	17.47	2.0148	16.554	2
1899	18.99	0	0	0	0	0	0	0	0	0	0	0	0	0	0	0	0	0	0	0	0	0	0	0	0	0	0	0	0	0	0	1	0	0	17.883	2.027	16.961	0	0	0	0	0	0	0	0	0	0	0	0	0	-1	0	-2.0278	-17.891	16.968	0	0	0	1	0	0	17.47	2.0148	16.554	2
1900	19	0	0	0	0	0	0	0	0	0	0	0	0	0	0	0	0	0	0	0	0	0	0	0	0	10.989	-10.989	19.033	0	0	0	1	0	0	17.883	2.027	16.961	0	0	0	0	0	0	0	0	0	0	0	0	0	-1	0	-2.0278	-17.891	16.968	0	0	0	0	0	0	10.93	-10.93	18.931	2
1901	19.01	0	0	0	0	0	0	0	0	0	0	0	0	0	0	0	0	0	0	0	0	0	0	0	0	0	0	0	0	0	0	1	0	0	17.761	2.1499	16.789	0	0	0	0	0	0	0	0	0	0	0	0	0	-1	0	-2.0278	-17.891	16.968	0	0	0	1	0	0	17.47	2.0148	16.554	2
1902	19.02	0	0	0	0	0	0	0	0	0	0	0	0	0	0	0	0	0	0	0	0	0	0	0	0	0	0	0	0	0	0	1	0	0	17.883	2.027	16.961	0	0	0	0	0	0	0	0	0	0	0	0	0	-1	0	-2.0278	-17.891	16.968	0	0	0	0	0	0	0	0	0	2
1903	19.03	0	0	0	0	0	0	0	0	0	0	0	0	0	0	0	0	0	0	0	0	0	0	0	0	0	0	0	0	0	0	1	0	0	17.883	2.027	16.961	0	0	0	0	0	0	10.996	-10.996	19.046	0	0	0	0	-1	0	-2.0278	-17.891	16.968	0	0	0	1	0	0	17.47	2.0148	16.554	2
1904	19.04	0	0	0	0	0	0	0	0	0	0	0	0	0	0	0	0	0	0	0	0	0	0	0	0	0	0	0	0	0	0	1	0	0	17.883	2.027	16.961	0	0	0	0	-1	0	-2.0279	-17.891	16.969	0	0	0	0	-1	0	-2.0278	-17.891	16.968	0	0	0	1	0	0	17.47	2.0148	16.554	2
1905	19.05	0	0	0	0	0	0	0	0	0	0	0	0	0	0	0	0	0	0	0	0	0	0	0	0	0	0	0	0	0	0	0	0	0	0	0	0	0	0	0	0	0	0	0	0	0	0	0	0	0	-1	0	-2.0278	-17.891	16.968	0	0	0	0	0	0	0	0	0	2
1906	19.06	0	0	0	0	0	0	0	0	0	0	0	0	0	0	0	0	0	0	0	0	0	0	0	0	0	0	0	0	0	0	1	0	0	17.883	2.027	16.961	0	0	0	0	0	0	0	0	0	0	0	0	0	-1	0	-2.0278	-17.891	16.968	0	0	0	1	0	0	17.471	2.0135	16.556	2
1907	19.07	0	0	0	0	0	0	0	0	0	0	0	0	0	0	0	0	0	0	0	0	0	0	0	0	0	0	0	0	0	0	1	0	0	17.883	2.027	16.961	0	0	0	0	0	0	0	0	0	0	0	0	0	-1	0	-2.0278	-17.891	16.968	0	0	0	0	0	0	0	0	0	2
1908	19.08	0	0	0	0	0	0	0	0	0	0	0	0	0	0	0	0	0	0	0	0	0	0	0	0	10.989	-10.989	19.033	0	0	0	0	-1	0	-2.0265	-17.879	16.957	0	0	0	0	0	0	0	0	0	0	0	0	0	-1	0	-2.0278	-17.891	16.968	0	0	0	1	0	0	17.47	2.0148	16.554	2
1909	19.09	0	0	0	0	0	0	0	0	0	0	0	0	0	0	0	0	0	0	0	0	0	0	0	0	0	0	0	0	0	0	0	0	0	0	0	0	0	0	0	0	0	0	0	0	0	0	0	0	0	-1	0	-2.0278	-17.891	16.968	0	0	0	0	0	0	10.93	-10.93	18.931	2
1910	19.1	0	0	0	0	0	0	0	0	0	0	0	0	0	0	0	0	0	0	0	0	0	0	0	0	0	0	0	0	0	0	0	0	0	0	0	0	0	0	0	0	0	0	10.996	-10.996	19.046	0	0	0	0	-1	0	-2.0278	-17.891	16.968	0	0	0	1	0	0	17.47	2.0148	16.554	2
1911	19.11	0	0	0	0	0	0	0	0	0	0	0	0	0	0	0	0	0	0	0	0	0	0	0	0	0	0	0	0	0	0	1	0	0	17.883	2.027	16.961	0	0	0	0	0	0	0	0	0	0	0	0	0	-1	0	-2.0278	-17.891	16.968	0	0	0	1	0	0	17.47	2.0148	16.554	2
1912	19.12	0	0	0	0	0	0	0	0	0	0	0	0	0	0	0	0	0	0	0	0	0	0	0	0	0	0	0	0	0	0	0	0	0	0	0	0	0	0	0	0	0	0	0	0	0	0	0	0	0	-1	0	-2.0278	-17.891	16.968	0	0	0	0	0	0	0	0	0	2
1913	19.13	0	0	0	0	0	0	0	0	0	0	0	0	0	0	0	0	0	0	0	0	0	0	0	0	0	0	0	0	0	0	0	0	0	11.258	-11.253	19.496	0	0	0	0	-1	0	-2.0279	-17.891	16.969	0	0	0	0	0	0	0	0	0	0	0	0	0	0	0	0	0	0	2
1914	19.14	0	0	0	0	0	0	0	0	0	0	0	0	0	0	0	0	0	0	0	0	0	0	0	0	0	0	0	0	0	0	1	0	0	17.761	2.1499	16.789	0	0	0	0	0	0	0	0	0	0	0	0	0	-1	0	-2.0278	-17.891	16.968	0	0	0	0	0	0	0	0	0	2
1915	19.15	0	0	0	0	0	0	0	0	0	0	0	0	0	0	0	0	0	0	0	0	0	0	0	0	0	0	0	0	0	0	0	0	0	0	0	0	0	0	0	0	0	0	0	0	0	0	0	0	0	-1	0	-2.0278	-17.891	16.968	0	0	0	0	0	0	0	0	0	2
1916	19.16	0	0	0	0	0	0	0	0	0	0	0	0	0	0	0	0	0	0	0	0	0	0	0	0	10.989	-10.989	19.033	0	0	0	1	0	0	17.883	2.027	16.961	0	0	0	0	0	0	0	0	0	0	0	0	0	-1	0	-2.0278	-17.891	16.968	0	0	0	1	0	0	17.47	2.0148	16.554	2
1917	19.17	0	0	0	0	0	0	0	0	0	0	0	0	0	0	0	0	0	0	0	0	0	0	0	0	0	0	0	0	0	0	1	0	0	17.883	2.027	16.961	0	0	0	0	0	0	0	0	0	0	0	0	0	-1	0	-2.0278	-17.891	16.968	0	0	0	0	0	0	0	0	0	2
1918	19.18	0	0	0	0	0	0	0	0	0	0	0	0	0	0	0	0	0	0	0	0	0	0	0	0	0	0	0	0	0	0	1	0	0	17.883	2.027	16.961	0	0	0	0	0	0	0	0	0	0	0	0	0	0	0	0	0	0	0	0	0	0	0	0	0	0	0	2
1919	19.19	0	0	0	0	0	0	0	0	0	0	0	0	0	0	0	0	0	0	0	0	0	0	0	0	0	0	0	0	0	0	1	-1	0	7.5496	-27.455	31.907	0	0	0	0	0	0	0	0	0	0	0	0	0	-1	0	-2.0278	-17.891	16.968	0	0	0	1	0	0	17.47	2.0148	16.554	2
1920	19.2	0	0	0	0	0	0	0	0	0	0	0	0	0	0	0	0	0	0	0	0	0	0	0	0	0	0	0	0	0	0	0	0	0	0	0	0	0	0	0	0	0	0	10.996	-10.996	19.046	0	0	0	0	-1	0	-2.0278	-17.891	16.968	0	0	0	0	0	0	0	0	0	2
1921	19.21	0	0	0	0	0	0	0	0	0	0	0	0	0	0	0	0	0	0	0	0	0	0	0	0	0	0	0	0	0	0	1	0	0	17.883	2.027	16.961	0	0	0	0	0	0	10.996	-10.996	19.046	0	0	0	0	-1	0	-2.0278	-17.891	16.968	0	0	0	1	0	0	17.47	2.0148	16.554	2
1922	19.22	0	0	0	0	0	0	0	0	0	0	0	0	0	0	0	0	0	0	0	0	0	0	0	0	0	0	0	0	0	0	1	0	0	17.883	2.027	16.961	0	0	0	0	0	0	0	0	0	0	0	0	0	-1	0	-2.0278	-17.891	16.968	0	0	0	0	0	0	0	0	0	2
1923	19.23	0	0	0	0	0	0	0	0	0	0	0	0	0	0	0	0	0	0	0	0	0	0	0	0	0	0	0	0	0	0	1	0	0	17.883	2.027	16.961	0	0	0	0	0	0	0	0	0	0	0	0	0	-1	0	-2.0278	-17.891	16.968	0	0	0	0	0	0	0	0	0	2
1924	19.24	0	0	0	0	0	0	0	0	0	0	0	0	0	0	0	0	0	0	0	0	0	0	0	0	0	0	0	0	0	0	0	0	0	10.991	-10.991	19.037	0	0	0	0	0	0	0	0	0	0	0	0	0	-1	0	-2.0278	-17.891	16.968	0	0	0	1	0	0	17.47	2.0148	16.554	2
1925	19.25	0	0	0	0	0	0	0	0	0	0	0	0	0	0	0	0	0	0	0	0	0	0	0	0	0	0	0	0	0	0	0	0	0	0	0	0	0	0	0	0	-1	0	-2.1508	-17.769	16.797	0	0	0	0	-1	0	-2.0278	-17.891	16.968	0	0	0	0	0	0	0	0	0	2
1926	19.26	0	0	0	0	0	0	0	0	0	0	0	0	0	0	0	0	0	0	0	0	0	0	0	0	0	0	0	0	0	0	1	0	0	17.883	2.027	16.961	0	0	0	0	0	0	0	0	0	0	0	0	0	-1	0	-2.0278	-17.891	16.968	0	0	0	0	0	0	10.93	-10.93	18.931	2
1927	19.27	0	0	0	0	0	0	0	0	0	0	0	0	0	0	0	0	0	0	0	0	0	0	0	0	0	0	0	0	0	0	1	0	0	17.883	2.027	16.961	0	0	0	0	0	0	0	0	0	0	0	0	0	0	0	0	0	0	0	0	0	1	0	0	17.47	2.0148	16.554	2
1928	19.28	0	0	0	0	0	0	0	0	0	0	0	0	0	0	0	0	0	0	0	0	0	0	0	0	0	0	0	0	0	0	1	0	0	17.883	2.027	16.961	0	0	0	0	0	0	0	0	0	0	0	0	0	0	0	0	0	0	0	0	0	0	0	0	0	0	0	2
1929	19.29	0	0	0	0	0	0	0	0	0	0	0	0	0	0	0	0	0	0	0	0	0	0	0	0	10.989	-10.989	19.033	0	0	0	1	0	0	17.883	2.027	16.961	0	0	0	0	0	0	0	0	0	0	0	0	0	-1	0	-2.0278	-17.891	16.968	0	0	0	1	0	0	17.471	2.0135	16.556	2
1930	19.3	0	0	0	0	0	0	0	0	0	0	0	0	0	0	0	0	0	0	0	0	0	0	0	0	0	0	0	0	0	0	1	0	0	17.883	2.027	16.961	0	0	0	0	-1	0	-2.0279	-17.891	16.969	0	0	0	0	-1	0	-2.0278	-17.891	16.968	0	0	0	0	0	0	0	0	0	2
1931	19.31	0	0	0	0	0	0	0	0	0	0	0	0	0	0	0	0	0	0	0	0	0	0	0	0	0	0	0	0	0	0	1	0	0	17.883	2.027	16.961	0	0	0	0	0	0	0	0	0	0	0	0	0	0	0	10.994	-10.994	19.042	0	0	0	1	0	0	17.47	2.0148	16.554	2
1932	19.32	0	0	0	0	0	0	0	0	0	0	0	0	0	0	0	0	0	0	0	0	0	0	0	0	0	0	0	0	0	0	0	0	0	0	0	0	0	0	0	0	0	0	0	0	0	0	0	0	0	-1	0	-2.0278	-17.891	16.968	0	0	0	1	0	0	17.47	2.0148	16.554	2
1933	19.33	0	0	0	0	0	0	0	0	0	0	0	0	0	0	0	0	0	0	0	0	0	0	0	0	0	0	0	0	0	0	1	0	0	17.883	2.027	16.961	0	0	0	0	0	0	0	0	0	0	0	0	0	-1	0	-2.0278	-17.891	16.968	0	0	0	1	0	0	17.47	2.0148	16.554	0
1934	19.34	0	0	0	0	0	0	0	0	0	0	0	0	0	0	0	0	0	0	0	0	0	0	0	0	0	0	0	0	0	0	0	0	0	0	0	0	0	0	0	0	0	0	0	0	0	0	0	0	0	-1	0	-2.0278	-17.891	16.968	0	0	0	1	0	0	17.47	2.0148	16.554	2
1935	19.35	0	0	0	0	0	0	0	0	0	0	0	0	0	0	0	0	0	0	0	0	0	0	0	0	10.989	-10.989	19.033	0	0	0	0	0	0	0	0	0	0	0	0	0	-1	0	-2.0279	-17.891	16.969	0	0	0	0	-1	0	-2.0278	-17.891	16.968	0	0	0	0	0	0	0	0	0	2
1936	19.36	0	0	0	0	0	0	0	0	0	0	0	0	0	0	0	0	0	0	0	0	0	0	0	0	0	0	0	0	0	0	1	0	0	17.883	2.027	16.961	0	0	0	0	0	0	0	0	0	0	0	0	0	0	0	0	0	0	0	0	0	0	0	0	0	0	0	2
1937	19.37	0	0	0	0	0	0	0	0	0	0	0	0	0	0	0	0	0	0	0	0	0	0	0	0	0	0	0	0	0	0	0	0	0	0	0	0	0	0	0	0	0	0	0	0	0	0	0	0	0	0	0	0	0	0	0	0	0	0	0	0	0	0	0	2
1938	19.38	0	0	0	0	0	0	0	0	0	0	0	0	0	0	0	0	0	0	0	0	0	0	0	0	0	0	0	0	0	0	0	0	0	0	0	0	0	0	0	0	0	0	0	0	0	0	0	0	0	-1	0	-2.0278	-17.891	16.968	0	0	0	1	0	0	17.47	2.0148	16.554	2
1939	19.39	0	0	0	0	0	0	0	0	0	0	0	0	0	0	0	0	0	0	0	0	0	0	0	0	0	0	0	0	0	0	1	0	0	17.883	2.027	16.961	0	0	0	0	0	0	0	0	0	0	0	0	0	-1	0	-2.0278	-17.891	16.968	0	0	0	0	0	0	0	0	0	2
1940	19.4	0	0	0	0	0	0	0	0	0	0	0	0	0	0	0	0	0	0	0	0	0	0	0	0	0	0	0	0	0	0	0	-1	0	-2.0265	-17.879	16.957	0	0	0	0	0	0	0	0	0	0	0	0	0	-1	0	-2.0278	-17.891	16.968	0	0	0	1	0	0	17.47	2.0148	16.554	2
1941	19.41	0	0	0	0	0	0	0	0	0	0	0	0	0	0	0	0	0	0	0	0	0	0	0	0	0	0	0	0	0	0	1	0	0	17.883	2.027	16.961	0	0	0	0	0	0	0	0	0	0	0	0	0	-1	0	-2.0278	-17.891	16.968	0	0	0	0	0	0	0	0	0	2
1942	19.42	0	0	0	0	-1	0	-2.0364	-17.814	16.888	0	0	0	0	0	0	0	0	0	0	0	0	0	0	0	10.989	-10.989	19.033	0	0	0	0	0	0	0	0	0	0	0	0	0	0	0	10.996	-10.996	19.046	0	0	0	0	-1	0	-2.0278	-17.891	16.968	0	0	0	1	0	0	17.471	2.0135	16.556	2
1943	19.43	0	0	0	0	0	0	0	0	0	0	0	0	0	0	0	0	0	0	0	0	0	0	0	0	0	0	0	0	0	0	0	0	0	0	0	0	0	0	0	0	-1	0	-2.1508	-17.769	16.797	0	0	0	0	-1	0	-2.0278	-17.891	16.968	0	0	0	1	0	0	17.47	2.0148	16.554	2
1944	19.44	0	0	0	0	0	0	0	0	0	0	0	0	0	0	0	0	0	0	0	0	0	0	0	0	0	0	0	0	0	0	1	0	0	17.883	2.027	16.961	0	0	0	0	0	0	0	0	0	0	0	0	0	0	0	0	0	0	0	0	0	1	0	0	17.47	2.0148	16.554	2
1945	19.45	0	0	0	0	0	0	0	0	0	0	0	0	0	0	0	0	0	0	0	0	0	0	0	0	0	0	0	0	0	0	0	0	0	0	0	0	0	0	0	0	0	0	10.996	-10.996	19.046	0	0	0	0	-1	0	-2.0278	-17.891	16.968	0	0	0	1	0	0	17.47	2.0148	16.554	2
1946	19.46	0	0	0	0	0	0	0	0	0	0	0	0	0	0	0	0	0	0	0	0	0	0	0	0	0	0	0	0	0	0	1	0	0	17.883	2.027	16.961	0	0	0	0	0	0	0	0	0	0	0	0	0	-1	0	-2.0278	-17.891	16.968	0	0	0	1	0	0	17.47	2.0148	16.554	2
1947	19.47	0	0	0	0	0	0	0	0	0	0	0	0	0	0	0	0	0	0	0	0	0	0	0	0	10.989	-10.989	19.033	0	0	0	1	0	0	17.761	2.1499	16.789	0	0	0	0	0	0	0	0	0	0	0	0	0	-1	0	-2.0278	-17.891	16.968	0	0	0	1	0	0	17.47	2.0148	16.554	2
1948	19.48	0	0	0	0	0	0	0	0	0	0	0	0	0	0	0	0	0	0	0	0	0	0	0	0	0	0	0	0	0	0	0	0	0	0	0	0	0	0	0	0	0	0	0	0	0	0	0	0	0	-1	0	-2.0278	-17.891	16.968	0	0	0	0	0	0	0	0	0	2
1949	19.49	0	0	0	0	0	0	0	0	0	0	0	0	0	0	0	0	0	0	0	0	0	0	0	0	0	0	0	0	0	0	1	0	0	17.883	2.027	16.961	0	0	0	0	0	0	0	0	0	0	0	0	0	0	0	0	0	0	0	0	0	1	0	0	17.47	2.0148	16.554	2
1950	19.5	0	0	0	0	0	0	0	0	0	0	0	0	0	0	0	0	0	0	0	0	0	0	0	0	0	0	0	0	0	0	1	0	0	17.883	2.027	16.961	0	0	0	0	-1	0	-2.1508	-17.769	16.797	0	0	0	0	-1	0	-2.0278	-17.891	16.968	0	0	0	0	0	0	0	0	0	2
1951	19.51	0	0	0	0	0	0	0	0	0	0	0	0	0	0	0	0	0	0	0	0	0	0	0	0	0	0	0	0	0	0	0	0	0	10.991	-10.991	19.037	0	0	0	0	0	0	0	0	0	0	0	0	0	0	0	0	0	0	0	0	0	0	0	0	10.93	-10.93	18.931	2
1952	19.52	0	0	0	0	0	0	0	0	0	0	0	0	0	0	0	0	0	0	0	0	0	0	0	0	0	0	0	0	0	0	1	0	0	17.883	2.027	16.961	0	0	0	0	0	0	0	0	0	0	0	0	0	-1	0	-2.0278	-17.891	16.968	0	0	0	0	0	0	0	0	0	2
1953	19.53	0	0	0	0	0	0	0	0	0	0	0	0	0	0	0	0	0	0	0	0	0	0	0	0	0	0	0	0	0	0	0	0	0	0	0	0	0	0	0	0	-1	0	-2.0279	-17.891	16.969	0	0	0	0	-1	0	-2.0278	-17.891	16.968	0	0	0	1	0	0	17.47	2.0148	16.554	0
1954	19.54	0	0	0	0	0	0	0	0	0	0	0	0	0	0	0	0	0	0	0	0	0	0	0	0	0	0	0	0	0	0	1	0	0	17.761	2.1499	16.789	0	0	0	0	0	0	0	0	0	0	0	0	0	0	0	0	0	0	0	0	0	1	0	0	17.47	2.0148	16.554	2
1955	19.55	0	0	0	0	0	0	0	0	0	0	0	0	0	0	0	0	0	0	0	0	0	0	0	0	0	0	0	0	0	0	1	0	0	17.883	2.027	16.961	0	0	0	0	-1	0	-2.1508	-17.769	16.797	0	0	0	0	-1	0	-2.0278	-17.891	16.968	0	0	0	0	0	0	0	0	0	2
1956	19.56	0	0	0	0	0	0	0	0	0	0	0	0	0	0	0	0	0	0	0	0	0	0	0	0	0	0	0	0	0	0	0	0	0	0	0	0	0	0	0	0	0	0	0	0	0	0	0	0	0	0	0	0	0	0	0	0	0	0	0	0	0	0	0	2
1957	19.57	0	0	0	0	0	0	0	0	0	0	0	0	0	0	0	0	0	0	0	0	0	0	0	0	10.989	-10.989	19.033	0	0	0	0	0	0	0	0	0	0	0	0	0	0	0	0	0	0	0	0	0	0	-1	0	-2.0278	-17.891	16.968	0	0	0	0	0	0	0	0	0	2
1958	19.58	0	0	0	0	0	0	0	0	0	0	0	0	0	-1	0	-2.0372	-17.821	16.895	0	0	0	0	0	0	0	0	0	0	0	0	0	0	0	0	0	0	0	0	0	0	-1	0	-2.0279	-17.891	16.969	0	0	0	0	-1	0	-2.0278	-17.891	16.968	0	0	0	1	0	0	17.47	2.0148	16.554	2
1959	19.59	0	0	0	0	0	0	0	0	0	0	0	0	0	0	0	0	0	0	0	0	0	0	0	0	0	0	0	0	0	0	0	0	0	0	0	0	0	0	0	0	0	0	0	0	0	0	0	0	0	-1	0	-2.0278	-17.891	16.968	0	0	0	0	0	0	0	0	0	2
1960	19.6	0	0	0	0	0	0	0	0	0	0	0	0	0	0	0	0	0	0	0	0	0	0	0	0	0	0	0	0	0	0	0	0	0	0	0	0	0	0	0	0	0	0	10.996	-10.996	19.046	0	0	0	0	-1	0	-2.0278	-17.891	16.968	0	0	0	0	0	0	0	0	0	2
1961	19.61	0	0	0	0	0	0	0	0	0	0	0	0	0	0	0	0	0	0	0	0	0	0	0	0	0	0	0	0	0	0	1	0	0	17.761	2.1499	16.789	0	0	0	0	0	0	0	0	0	0	0	0	0	-1	0	-2.0278	-17.891	16.968	0	0	0	1	0	0	17.47	2.0148	16.554	2
1962	19.62	0	0	0	0	0	0	0	0	0	0	0	0	0	0	0	0	0	0	0	0	0	0	0	0	0	0	0	0	0	0	1	0	0	17.883	2.027	16.961	0	0	0	0	0	0	10.996	-10.996	19.046	0	0	0	0	-1	0	-2.0278	-17.891	16.968	0	0	0	0	0	0	0	0	0	2
1963	19.63	0	0	0	0	0	0	0	0	0	0	0	0	0	0	0	0	0	0	0	0	0	0	0	0	10.989	-10.989	19.033	0	0	0	0	0	0	0	0	0	0	0	0	0	0	0	0	0	0	0	0	0	0	-1	0	-2.0278	-17.891	16.968	0	0	0	0	0	0	0	0	0	2
1964	19.64	0	0	0	0	0	0	0	0	0	0	0	0	0	0	0	0	0	0	0	0	0	0	0	0	0	0	0	0	0	0	0	0	0	0	0	0	0	0	0	0	0	0	0	0	0	0	0	0	0	-1	0	-2.0278	-17.891	16.968	0	0	0	0	0	0	0	0	0	2
1965	19.65	0	0	0	0	0	0	0	0	0	0	0	0	0	0	0	0	0	0	0	0	0	0	0	0	0	0	0	0	0	0	0	0	0	0	0	0	0	0	0	0	0	0	0	0	0	0	0	0	0	-1	0	-2.0278	-17.891	16.968	0	0	0	0	0	0	0	0	0	2
1966	19.66	0	0	0	0	0	0	0	0	0	0	0	0	0	0	0	0	0	0	0	0	0	0	0	0	0	0	0	0	0	0	1	0	0	17.883	2.027	16.961	0	0	0	0	0	0	10.996	-10.996	19.046	0	0	0	0	0	0	0	0	0	0	0	0	1	0	0	17.47	2.0148	16.554	2
1967	19.67	0	0	0	0	0	0	0	0	0	0	0	0	0	0	0	0	0	0	0	0	0	0	0	0	10.989	-10.989	19.033	0	0	0	1	0	0	17.883	2.027	16.961	0	0	0	0	0	0	0	0	0	0	0	0	0	-1	0	-2.0278	-17.891	16.968	0	0	0	0	0	0	0	0	0	2
1968	19.68	0	0	0	0	0	0	0	0	0	0	0	0	0	0	0	0	0	0	0	0	0	0	0	0	0	0	0	0	0	0	0	0	0	0	0	0	0	0	0	0	0	0	0	0	0	0	0	0	0	-1	0	-2.0278	-17.891	16.968	0	0	0	0	0	0	0	0	0	2
1969	19.69	0	0	0	0	0	0	0	0	0	0	0	0	0	0	0	0	0	0	0	0	0	0	0	0	0	0	0	0	0	0	0	0	0	10.991	-10.991	19.037	0	0	0	0	0	0	0	0	0	0	0	0	0	-1	0	-2.0278	-17.891	16.968	0	0	0	1	0	0	17.471	2.0135	16.556	2
1970	19.7	0	0	0	0	0	0	0	0	0	0	0	0	0	0	0	0	0	0	0	0	0	0	0	0	0	0	0	0	0	0	0	0	0	0	0	0	0	0	0	0	0	0	10.996	-10.996	19.046	0	0	0	0	-1	0	-2.0278	-17.891	16.968	0	0	0	0	0	0	0	0	0	2
1971	19.71	0	0	0	0	0	0	0	0	0	0	0	0	0	0	0	0	0	0	0	0	0	0	0	0	0	0	0	0	0	0	1	0	0	17.883	2.027	16.961	0	0	0	0	0	0	0	0	0	0	0	0	0	-1	0	-2.0278	-17.891	16.968	0	0	0	1	0	0	17.47	2.0148	16.554	2
1972	19.72	0	0	0	0	0	0	0	0	0	0	0	0	0	0	0	0	0	0	0	0	0	0	0	0	0	0	0	0	0	0	0	0	0	0	0	0	0	0	0	0	0	0	0	0	0	0	0	0	0	-1	0	-2.0278	-17.891	16.968	0	0	0	0	0	0	10.93	-10.93	18.931	2
1973	19.73	0	0	0	0	0	0	0	0	0	0	0	0	0	0	0	0	0	0	0	0	0	0	0	0	0	0	0	0	0	0	0	0	0	0	0	0	0	0	0	0	0	0	0	0	0	0	0	0	0	-1	0	-2.0278	-17.891	16.968	0	0	0	0	0	0	0	0	0	2
1974	19.74	0	0	0	0	0	0	0	0	0	0	0	0	0	0	0	0	0	0	0	0	0	0	0	0	0	0	0	0	0	0	0	0	0	0	0	0	0	0	0	0	0	0	0	0	0	0	0	0	0	-1	0	-2.0278	-17.891	16.968	0	0	0	0	0	0	0	0	0	2
1975	19.75	0	0	0	0	0	0	0	0	0	0	0	0	0	0	0	0	0	0	0	0	0	0	0	0	0	0	0	0	0	0	0	0	0	10.991	-10.991	19.037	0	0	0	0	0	0	0	0	0	0	0	0	0	-1	0	-2.0278	-17.891	16.968	0	0	0	0	0	0	0	0	0	2
1976	19.76	0	0	0	0	0	0	0	0	0	0	0	0	0	0	0	0	0	0	0	0	0	0	0	0	0	0	0	0	0	0	1	0	0	17.761	2.1499	16.789	0	0	0	0	-1	0	-2.0279	-17.891	16.969	0	0	0	0	0	0	0	0	0	0	0	0	0	0	0	0	0	0	2
1977	19.77	0	0	0	0	0	0	0	0	0	0	0	0	0	0	0	0	0	0	0	0	0	0	0	0	0	0	0	0	0	0	1	0	0	17.761	2.1499	16.789	0	0	0	0	0	0	0	0	0	0	0	0	0	-1	0	-2.0278	-17.891	16.968	0	0	0	1	0	0	17.47	2.0148	16.554	2
1978	19.78	0	0	0	0	0	0	0	0	0	0	0	0	0	0	0	0	0	0	0	0	0	0	0	0	0	0	0	0	0	0	0	0	0	0	0	0	0	0	0	0	-1	0	-2.0279	-17.891	16.969	0	0	0	0	0	0	0	0	0	0	0	0	0	0	0	0	0	0	2
1979	19.79	0	0	0	0	0	0	0	0	0	0	0	0	0	0	0	0	0	0	0	0	0	0	0	0	0	0	0	0	0	0	1	0	0	17.883	2.027	16.961	0	0	0	0	0	0	0	0	0	0	0	0	0	-1	0	-2.0278	-17.891	16.968	0	0	0	1	0	0	17.47	2.0148	16.554	2
1980	19.8	0	0	0	0	0	0	0	0	0	0	0	0	0	0	0	0	0	0	0	0	0	0	0	0	0	0	0	0	0	0	1	0	0	17.883	2.027	16.961	0	0	0	0	0	0	0	0	0	0	0	0	0	0	0	0	0	0	0	0	0	0	0	0	0	0	0	2
1981	19.81	0	0	0	0	0	0	0	0	0	0	0	0	0	0	0	0	0	0	0	0	0	0	0	0	0	0	0	0	0	0	0	0	0	0	0	0	0	0	0	0	0	0	0	0	0	0	0	0	0	0	0	0	0	0	0	0	0	1	0	0	17.47	2.0148	16.554	2
1982	19.82	0	0	0	0	0	0	0	0	0	0	0	0	0	0	0	0	0	0	0	0	0	0	0	0	0	0	0	0	0	0	0	0	0	0	0	0	0	0	0	0	0	0	0	0	0	0	0	0	0	0	0	0	0	0	0	0	0	0	0	0	0	0	0	2
1983	19.83	0	0	0	0	0	0	0	0	0	0	0	0	0	0	0	0	0	0	0	0	0	0	0	0	0	0	0	0	0	0	1	0	0	17.883	2.027	16.961	0	0	0	0	0	0	0	0	0	0	0	0	0	-1	0	-2.0278	-17.891	16.968	0	0	0	0	0	0	0	0	0	2
1984	19.84	0	0	0	0	0	0	0	0	0	0	0	0	0	0	0	0	0	0	0	0	0	0	0	0	0	0	0	0	0	0	0	0	0	0	0	0	0	0	0	0	0	0	0	0	0	0	0	0	0	-1	0	-2.0278	-17.891	16.968	0	0	0	1	0	0	17.47	2.0148	16.554	2
1985	19.85	0	0	0	0	0	0	0	0	0	0	0	0	0	0	0	0	0	0	0	0	0	0	0	0	0	0	0	0	0	0	0	0	0	0	0	0	0	0	0	0	0	0	0	0	0	0	0	0	0	-1	0	-2.0278	-17.891	16.968	0	0	0	0	0	0	0	0	0	2
1986	19.86	0	0	0	0	0	0	0	0	0	0	0	0	0	0	0	0	0	0	0	0	0	0	0	0	0	0	0	0	0	0	1	0	0	17.883	2.027	16.961	0	0	0	0	0	0	0	0	0	0	0	0	0	-1	0	-2.0278	-17.891	16.968	0	0	0	1	0	0	17.47	2.0148	16.554	2
1987	19.87	0	0	0	0	0	0	0	0	0	0	0	0	0	0	0	0	0	0	0	0	0	0	0	0	0	0	0	0	0	0	0	0	0	0	0	0	0	0	0	0	-1	0	-2.0279	-17.891	16.969	0	0	0	0	-1	0	-2.0278	-17.891	16.968	0	0	0	0	0	0	0	0	0	2
1988	19.88	0	0	0	0	0	0	0	0	0	0	0	0	0	0	0	0	0	0	0	0	0	0	0	0	0	0	0	0	0	0	0	0	0	0	0	0	0	0	0	0	0	0	0	0	0	0	0	0	0	-1	0	-2.0278	-17.891	16.968	0	0	0	0	0	0	0	0	0	2
1989	19.89	0	0	0	0	0	0	0	0	0	0	0	0	0	0	0	0	0	0	0	0	0	0	0	0	0	0	0	0	0	0	0	0	0	0	0	0	0	0	0	1	0	0	17.883	2.027	16.961	0	0	0	0	0	0	0	0	0	0	0	0	0	0	0	10.93	-10.93	18.931	2
1990	19.9	0	0	0	0	0	0	0	0	0	0	0	0	0	0	0	0	0	0	0	0	0	0	0	0	0	0	0	0	0	0	0	0	0	10.991	-10.991	19.037	0	0	0	0	0	0	0	0	0	0	0	0	0	-1	0	-2.0278	-17.891	16.968	0	0	0	0	0	0	0	0	0	2
1991	19.91	0	0	0	0	0	0	0	0	0	0	0	0	0	0	0	0	0	0	0	0	0	0	0	0	0	0	0	0	0	0	0	0	0	0	0	0	0	0	0	0	0	0	0	0	0	0	0	0	0	-1	0	-2.0278	-17.891	16.968	0	0	0	1	0	0	17.471	2.0135	16.556	2
1992	19.92	0	0	0	0	0	0	0	0	0	0	0	0	0	0	0	0	0	0	0	0	0	0	0	0	0	0	0	0	0	0	1	0	0	17.883	2.027	16.961	0	0	0	0	0	0	0	0	0	0	0	0	0	-1	0	-2.0278	-17.891	16.968	0	0	0	0	0	0	0	0	0	2
1993	19.93	0	0	0	0	0	0	0	0	0	0	0	0	0	0	0	0	0	0	0	0	0	0	0	0	0	0	0	0	0	0	0	0	0	0	0	0	0	0	0	0	0	0	0	0	0	0	0	0	0	-1	0	-2.0278	-17.891	16.968	0	0	0	0	0	0	0	0	0	2
1994	19.94	0	0	0	0	0	0	0	0	0	0	0	0	0	0	0	0	0	0	0	0	0	0	0	0	0	0	0	0	0	0	1	0	0	17.761	2.1499	16.789	0	0	0	0	0	0	0	0	0	0	0	0	0	-1	0	-2.0278	-17.891	16.968	0	0	0	1	0	0	17.47	2.0148	16.554	2
1995	19.95	0	0	0	0	0	0	0	0	0	0	0	0	0	0	0	0	0	0	0	0	0	0	0	0	0	0	0	0	0	0	0	0	0	0	0	0	0	0	0	0	0	0	10.996	-10.996	19.046	0	0	0	0	-1	0	-2.0278	-17.891	16.968	0	0	0	0	0	0	0	0	0	2
1996	19.96	0	0	0	0	0	0	0	0	0	0	0	0	0	0	0	0	0	0	0	0	0	0	0	0	0	0	0	0	0	0	1	0	0	17.883	2.027	16.961	0	0	0	0	0	0	0	0	0	0	0	0	0	-1	0	-2.0278	-17.891	16.968	0	0	0	0	0	0	0	0	0	2
1997	19.97	0	0	0	0	0	0	0	0	0	0	0	0	0	0	0	0	0	0	0	0	0	0	0	0	0	0	0	0	0	0	0	0	0	0	0	0	0	0	0	0	0	0	0	0	0	0	0	0	0	-1	0	-2.0278	-17.891	16.968	0	0	0	1	0	0	17.47	2.0148	16.554	2
1998	19.98	0	0	0	0	0	0	0	0	0	0	0	0	0	0	0	0	0	0	0	0	0	0	0	0	0	0	0	0	0	0	0	0	0	0	0	0	0	0	0	0	0	0	0	0	0	0	0	0	0	0	0	0	0	0	0	0	0	1	0	0	17.47	2.0148	16.554	2
1999	19.99	0	0	0	0	0	0	0	0	0	0	0	0	0	0	0	0	0	0	0	0	0	0	0	0	0	0	0	0	0	0	0	0	0	0	0	0	0	0	0	0	0	0	0	0	0	0	0	0	0	-1	0	-2.0278	-17.891	16.968	0	0	0	0	0	0	10.93	-10.93	18.931	3
2000	20	0	0	0	0	0	0	0	0	0	0	0	0	0	0	0	0	0	0	0	0	0	0	0	0	0	0	0	0	0	0	0	0	0	10.991	-10.991	19.037	0	0	0	0	0	0	0	0	0	0	0	0	0	-1	0	-2.0278	-17.891	16.968	0	0	0	1	0	0	17.47	2.0148	16.554	2
2001	20.01	0	0	0	0	0	0	0	0	0	0	0	0	0	0	0	0	0	0	0	0	0	0	0	0	0	0	0	0	0	0	1	0	0	17.883	2.027	16.961	0	0	0	0	0	0	0	0	0	0	0	0	0	-1	0	-2.0278	-17.891	16.968	0	0	0	1	0	0	17.47	2.0148	16.554	2
2002	20.02	0	0	0	0	0	0	0	0	0	0	0	0	0	0	0	0	0	0	0	0	0	0	0	0	0	0	0	0	0	0	0	0	0	0	0	0	0	0	0	0	0	0	10.996	-10.996	19.046	0	0	0	0	-1	0	-2.0278	-17.891	16.968	0	0	0	0	0	0	0	0	0	2
2003	20.03	0	0	0	0	0	0	0	0	0	0	0	0	0	0	0	0	0	0	0	0	0	0	0	0	0	0	0	0	0	0	1	0	0	17.883	2.027	16.961	0	0	0	0	0	0	0	0	0	0	0	0	0	-1	0	-2.0278	-17.891	16.968	0	0	0	1	0	0	17.47	2.0148	16.554	2
2004	20.04	0	0	0	0	0	0	0	0	0	0	0	0	0	0	0	0	0	0	0	0	0	0	0	0	0	0	0	0	0	0	0	0	0	0	0	0	0	0	0	0	0	0	0	0	0	0	0	0	0	-1	0	-2.0278	-17.891	16.968	0	0	0	1	0	0	17.471	2.0135	16.556	2
2005	20.05	0	0	0	0	0	0	0	0	0	0	0	0	0	0	0	0	0	0	0	0	0	0	0	0	0	0	0	0	0	0	0	0	0	0	0	0	0	0	0	0	0	0	0	0	0	0	0	0	0	0	0	0	0	0	0	0	0	0	0	0	0	0	0	2
2006	20.06	0	0	0	0	0	0	0	0	0	0	0	0	0	0	0	0	0	0	0	0	0	0	0	0	0	0	0	0	0	0	1	0	0	17.761	2.1499	16.789	0	0	0	0	0	0	0	0	0	0	0	0	0	-1	0	-2.0278	-17.891	16.968	0	0	0	1	0	0	17.47	2.0148	16.554	2
2007	20.07	0	0	0	0	0	0	0	0	0	0	0	0	0	-1	0	-2.0372	-17.821	16.895	0	0	0	0	0	0	10.989	-10.989	19.033	0	0	0	0	0	0	0	0	0	0	0	0	0	0	0	0	0	0	0	0	0	0	-1	0	-2.0278	-17.891	16.968	0	0	0	1	0	0	17.47	2.0148	16.554	2
2008	20.08	0	0	0	0	0	0	0	0	0	0	0	0	0	0	0	0	0	0	0	0	0	0	0	0	0	0	0	0	0	0	1	0	0	17.883	2.027	16.961	0	0	0	0	0	0	0	0	0	0	0	0	0	-1	0	-2.0278	-17.891	16.968	0	0	0	0	0	0	0	0	0	2
2009	20.09	0	0	0	0	0	0	0	0	0	0	0	0	0	0	0	0	0	0	0	0	0	0	0	0	0	0	0	0	0	0	1	0	0	17.761	2.1499	16.789	0	0	0	0	0	0	0	0	0	0	0	0	0	-1	0	-2.0278	-17.891	16.968	0	0	0	1	0	0	17.47	2.0148	16.554	2
2010	20.1	0	0	0	0	0	0	0	0	0	0	0	0	0	0	0	0	0	0	0	0	0	0	0	0	0	0	0	0	0	0	0	0	0	0	0	0	0	0	0	0	0	0	0	0	0	0	0	0	0	-1	0	-2.0278	-17.891	16.968	0	0	0	0	0	0	0	0	0	2
2011	20.11	0	0	0	0	0	0	0	0	0	0	0	0	0	0	0	0	0	0	0	0	0	0	0	0	0	0	0	0	0	0	0	0	0	10.991	-10.991	19.037	0	0	0	0	0	0	0	0	0	0	0	0	0	-1	0	-2.0278	-17.891	16.968	0	0	0	1	0	0	17.47	2.0148	16.554	2
2012	20.12	0	0	0	0	0	0	0	0	0	0	0	0	0	0	0	0	0	0	0	0	0	0	0	0	0	0	0	0	0	0	0	0	0	0	0	0	0	0	0	0	0	0	0	0	0	0	0	0	0	-1	0	-2.0278	-17.891	16.968	0	0	0	0	0	0	0	0	0	2
2013	20.13	0	0	0	0	0	0	0	0	0	0	0	0	0	0	0	0	0	0	0	0	0	0	0	0	0	0	0	0	0	0	0	0	0	10.991	-10.991	19.037	0	0	0	0	0	0	0	0	0	0	0	0	0	-1	0	-2.0278	-17.891	16.968	0	0	0	0	0	0	0	0	0	2
2014	20.14	0	0	0	0	0	0	0	0	0	0	0	0	0	0	0	0	0	0	0	0	0	0	0	0	10.989	-10.989	19.033	0	0	0	1	0	0	17.883	2.027	16.961	0	0	0	0	0	0	0	0	0	0	0	0	0	-1	0	-2.0278	-17.891	16.968	0	0	0	1	0	0	17.47	2.0148	16.554	2
2015	20.15	0	0	0	0	0	0	0	0	0	0	0	0	0	0	0	0	0	0	0	0	0	0	0	0	0	0	0	0	0	0	1	0	0	17.883	2.027	16.961	0	0	0	0	0	0	0	0	0	0	0	0	0	-1	0	-2.0278	-17.891	16.968	0	0	0	0	0	0	0	0	0	2
2016	20.16	0	0	0	0	0	0	0	0	0	0	0	0	0	0	0	0	0	0	0	0	0	0	0	0	0	0	0	0	0	0	1	0	0	17.883	2.027	16.961	0	0	0	0	0	0	0	0	0	0	0	0	0	0	0	0	0	0	0	0	0	1	0	0	17.47	2.0148	16.554	2
2017	20.17	0	0	0	0	0	0	0	0	0	0	0	0	0	0	0	0	0	0	0	0	0	0	0	0	0	0	0	0	0	0	1	0	0	17.883	2.027	16.961	0	0	0	0	0	0	0	0	0	0	0	0	0	-1	0	-2.0278	-17.891	16.968	0	0	0	0	0	0	0	0	0	0
2018	20.18	0	0	0	0	0	0	0	0	0	0	0	0	0	0	0	0	0	0	0	0	0	0	0	0	0	0	0	0	0	0	0	0	0	0	0	0	0	0	0	0	0	0	0	0	0	0	0	0	0	-1	0	-2.0278	-17.891	16.968	0	0	0	0	0	0	0	0	0	2
2019	20.19	0	0	0	0	0	0	0	0	0	0	0	0	0	0	0	0	0	0	0	0	0	0	0	0	0	0	0	0	0	0	0	0	0	0	0	0	0	0	0	0	0	0	0	0	0	0	0	0	0	-1	0	-2.0278	-17.891	16.968	0	0	0	1	0	0	17.47	2.0148	16.554	2
2020	20.2	0	0	0	0	0	0	0	0	0	0	0	0	0	0	0	0	0	0	0	0	0	0	0	0	0	0	0	0	0	0	0	0	0	0	0	0	0	0	0	0	0	0	0	0	0	0	0	0	0	-1	0	-2.0278	-17.891	16.968	0	0	0	0	0	0	0	0	0	2
2021	20.21	0	0	0	0	0	0	0	0	0	0	0	0	0	0	0	0	0	0	0	0	0	0	0	0	0	0	0	0	0	0	1	0	0	17.883	2.027	16.961	0	0	0	0	0	0	0	0	0	0	0	0	0	-1	0	-2.0278	-17.891	16.968	0	0	0	0	0	0	0	0	0	2
2022	20.22	0	0	0	0	0	0	0	0	0	0	0	0	0	0	0	0	0	0	0	0	0	0	0	0	0	0	0	0	0	0	1	0	0	17.883	2.027	16.961	0	0	0	0	0	0	0	0	0	0	0	0	0	-1	0	-2.0278	-17.891	16.968	0	0	0	0	0	0	0	0	0	2
2023	20.23	0	0	0	0	0	0	10.917	-10.917	18.908	0	0	0	0	0	0	0	0	0	0	0	0	0	0	0	0	0	0	0	0	0	0	0	0	10.991	-10.991	19.037	0	0	0	0	0	0	0	0	0	0	0	0	0	0	0	0	0	0	0	0	0	0	0	0	0	0	0	2
2024	20.24	0	0	0	0	0	0	0	0	0	0	0	0	0	0	0	0	0	0	0	0	0	0	0	0	0	0	0	0	0	0	1	0	0	17.883	2.027	16.961	0	0	0	0	0	0	0	0	0	0	0	0	0	-1	0	-2.0278	-17.891	16.968	0	0	0	0	0	0	10.93	-10.93	18.931	2
2025	20.25	0	0	0	0	0	0	0	0	0	0	0	0	0	0	0	0	0	0	0	0	0	0	0	0	0	0	0	0	0	0	1	0	0	17.883	2.027	16.961	0	0	0	0	0	0	10.996	-10.996	19.046	0	0	0	0	-1	0	-2.0278	-17.891	16.968	0	0	0	0	0	0	0	0	0	2
2026	20.26	0	0	0	0	0	0	0	0	0	0	0	0	0	0	0	0	0	0	0	0	0	0	0	0	0	0	0	0	0	0	1	0	0	17.883	2.027	16.961	0	0	0	0	0	0	0	0	0	0	0	0	0	-1	0	-2.0278	-17.891	16.968	0	0	0	0	0	0	0	0	0	2
2027	20.27	0	0	0	0	0	0	0	0	0	0	0	0	0	0	0	0	0	0	0	0	0	0	0	0	0	0	0	0	0	0	0	0	0	0	0	0	0	0	0	0	0	0	0	0	0	0	0	0	0	-1	0	-2.0278	-17.891	16.968	0	0	0	0	0	0	0	0	0	2
2028	20.28	0	0	0	0	0	0	0	0	0	0	0	0	0	0	0	0	0	0	0	0	0	0	0	0	0	0	0	0	0	0	0	0	0	0	0	0	0	0	0	0	0	0	0	0	0	0	0	0	0	-1	0	-2.0278	-17.891	16.968	0	0	0	0	0	0	0	0	0	2
2029	20.29	0	0	0	0	0	0	0	0	0	0	0	0	0	0	0	0	0	0	0	0	0	0	0	0	0	0	0	0	0	0	1	0	0	17.883	2.027	16.961	0	0	0	0	0	0	0	0	0	0	0	0	0	-1	0	-2.0278	-17.891	16.968	0	0	0	1	0	0	17.47	2.0148	16.554	2
2030	20.3	0	0	0	0	0	0	0	0	0	0	0	0	0	0	0	0	0	0	0	0	0	0	0	0	0	0	0	0	0	0	0	0	0	0	0	0	0	0	0	0	0	0	0	0	0	0	0	0	0	0	0	0	0	0	0	0	0	0	0	0	0	0	0	2
2031	20.31	0	0	0	0	0	0	0	0	0	0	0	0	0	0	0	0	0	0	0	0	0	0	0	0	0	0	0	0	0	0	1	0	0	17.883	2.027	16.961	0	0	0	0	0	0	0	0	0	0	0	0	0	-1	0	-2.0278	-17.891	16.968	0	0	0	1	0	0	17.47	2.0148	16.554	2
2032	20.32	0	0	0	0	0	0	0	0	0	0	0	0	0	0	0	0	0	0	0	0	0	0	0	0	0	0	0	0	0	0	0	0	0	0	0	0	0	0	0	0	-1	0	-2.0279	-17.891	16.969	0	0	0	0	-1	0	-2.0278	-17.891	16.968	0	0	0	0	0	0	0	0	0	2
2033	20.33	0	0	0	0	0	0	0	0	0	0	0	0	0	0	0	0	0	0	0	0	0	0	0	0	10.989	-10.989	19.033	0	0	0	0	0	0	0	0	0	0	0	0	0	0	0	0	0	0	0	0	0	0	0	0	0	0	0	0	0	0	0	0	0	0	0	0	2
2034	20.34	0	0	0	0	0	0	0	0	0	0	0	0	0	0	0	0	0	0	0	0	0	0	0	0	0	0	0	0	0	0	1	0	0	17.761	2.1499	16.789	0	0	0	0	0	0	0	0	0	0	0	0	0	0	0	0	0	0	0	0	0	1	0	0	17.47	2.0148	16.554	2
2035	20.35	0	0	0	0	0	0	0	0	0	0	0	0	0	0	0	0	0	0	0	0	0	0	0	0	0	0	0	0	0	0	0	0	0	0	0	0	0	0	0	0	0	0	10.996	-10.996	19.046	0	0	0	0	-1	0	-2.0278	-17.891	16.968	0	0	0	0	0	0	0	0	0	2
2036	20.36	0	0	0	0	0	0	0	0	0	0	0	0	0	0	0	0	0	0	0	0	0	0	0	0	0	0	0	0	0	0	1	0	0	17.883	2.027	16.961	0	0	0	0	0	0	0	0	0	0	0	0	0	-1	0	-2.0278	-17.891	16.968	0	0	0	0	0	0	0	0	0	2
2037	20.37	0	0	0	0	0	0	0	0	0	0	0	0	0	0	0	0	0	0	0	0	0	0	0	0	0	0	0	0	0	0	1	0	0	17.883	2.027	16.961	0	0	0	0	0	0	0	0	0	0	0	0	0	-1	0	-2.0278	-17.891	16.968	0	0	0	0	0	0	0	0	0	2
2038	20.38	0	0	0	0	0	0	0	0	0	0	0	0	0	0	0	0	0	0	0	0	0	0	0	0	0	0	0	0	0	0	0	0	0	0	0	0	0	0	0	0	0	0	0	0	0	0	0	0	0	-1	0	-2.0278	-17.891	16.968	0	0	0	0	0	0	0	0	0	2
2039	20.39	0	0	0	0	0	0	0	0	0	0	0	0	0	0	0	0	0	0	0	0	0	0	0	0	0	0	0	0	0	0	1	0	0	17.883	2.027	16.961	0	0	0	0	0	0	0	0	0	0	0	0	0	-1	0	-2.0278	-17.891	16.968	0	0	0	1	0	0	17.47	2.0148	16.554	2
2040	20.4	0	0	0	0	0	0	0	0	0	0	0	0	0	0	0	0	0	0	0	0	0	0	0	0	0	0	0	0	0	0	1	-1	0	7.5496	-27.455	31.907	0	0	0	0	-1	0	-2.0279	-17.891	16.969	0	0	0	0	-1	0	-2.0278	-17.891	16.968	0	0	0	0	0	0	0	0	0	2
2041	20.41	0	0	0	0	0	0	0	0	0	0	0	0	0	0	0	0	0	0	0	0	0	0	0	0	0	0	0	0	0	0	0	0	0	0	0	0	0	0	0	0	-1	0	-2.0279	-17.891	16.969	0	0	0	0	-1	0	-2.0278	-17.891	16.968	0	0	0	0	0	0	0	0	0	2
2042	20.42	0	0	0	0	0	0	0	0	0	0	0	0	0	0	0	0	0	0	0	0	0	0	0	0	0	0	0	0	0	0	0	0	0	10.991	-10.991	19.037	0	0	0	0	0	0	0	0	0	0	0	0	0	-1	0	-2.0278	-17.891	16.968	0	0	0	1	0	0	17.47	2.0148	16.554	2
2043	20.43	0	0	0	0	0	0	0	0	0	0	0	0	0	0	0	0	0	0	0	0	0	0	0	0	0	0	0	0	0	0	0	0	0	0	0	0	0	0	0	0	0	0	0	0	0	0	0	0	0	-1	0	-2.0278	-17.891	16.968	0	0	0	0	0	0	0	0	0	2
2044	20.44	0	0	0	0	0	0	0	0	0	0	0	0	0	0	0	0	0	0	0	0	0	0	0	0	0	0	0	0	0	0	0	0	0	0	0	0	0	0	0	0	0	0	0	0	0	0	0	0	0	-1	0	-2.0278	-17.891	16.968	0	0	0	1	0	0	17.47	2.0148	16.554	2
2045	20.45	0	0	0	0	0	0	0	0	0	0	0	0	0	0	0	0	0	0	0	0	0	0	0	0	0	0	0	0	0	0	1	0	0	17.883	2.027	16.961	0	0	0	0	0	0	0	0	0	0	0	0	0	-1	0	-2.0278	-17.891	16.968	0	0	0	0	0	0	0	0	0	2
2046	20.46	0	0	0	0	0	0	0	0	0	0	0	0	0	0	0	0	0	0	0	0	0	0	0	0	0	0	0	0	0	0	1	0	0	17.883	2.027	16.961	0	0	0	0	0	0	0	0	0	0	0	0	0	-1	0	-2.0278	-17.891	16.968	0	0	0	1	0	0	17.471	2.0135	16.556	2
2047	20.47	0	0	0	0	0	0	0	0	0	0	0	0	0	0	0	0	0	0	0	0	0	0	0	0	0	0	0	0	0	0	1	0	0	17.761	2.1499	16.789	0	0	0	0	0	0	0	0	0	0	0	0	0	-1	0	-2.0278	-17.891	16.968	0	0	0	0	0	0	0	0	0	2
2048	20.48	0	0	0	0	0	0	0	0	0	0	0	0	0	0	0	0	0	0	0	0	0	0	0	0	10.989	-10.989	19.033	0	0	0	0	0	0	0	0	0	0	0	0	0	0	0	0	0	0	0	0	0	0	-1	0	-2.0278	-17.891	16.968	0	0	0	0	0	0	0	0	0	2
2049	20.49	0	0	0	0	0	0	0	0	0	0	0	0	0	0	0	0	0	0	0	0	0	0	0	0	0	0	0	0	0	0	1	0	0	17.883	2.027	16.961	0	0	0	0	0	0	0	0	0	0	0	0	0	-1	0	-2.0278	-17.891	16.968	0	0	0	1	0	0	17.47	2.0148	16.554	2
2050	20.5	0	0	0	0	0	0	0	0	0	0	0	0	0	0	0	0	0	0	0	0	0	0	0	0	0	0	0	0	0	0	0	0	0	0	0	0	0	0	0	0	-1	0	-2.1508	-17.769	16.797	0	0	0	0	-1	0	-2.0278	-17.891	16.968	0	0	0	0	0	0	0	0	0	2
2051	20.51	0	0	0	0	0	0	10.917	-10.917	18.908	0	0	0	0	0	0	0	0	0	0	0	0	0	0	0	0	0	0	0	0	0	1	0	0	17.883	2.027	16.961	0	0	0	0	0	0	0	0	0	0	0	0	0	0	0	0	0	0	0	0	0	1	0	0	17.47	2.0148	16.554	2
2052	20.52	0	0	0	0	0	0	0	0	0	0	0	0	0	0	0	0	0	0	0	0	0	0	0	0	0	0	0	0	0	0	0	0	0	0	0	0	0	0	0	0	0	0	0	0	0	0	0	0	0	-1	0	-2.0278	-17.891	16.968	0	0	0	0	0	0	0	0	0	2
2053	20.53	0	0	0	0	0	0	0	0	0	0	0	0	0	0	0	0	0	0	0	0	0	0	0	0	0	0	0	0	0	0	0	0	0	0	0	0	0	0	0	0	0	0	0	0	0	0	0	0	0	-1	0	-2.0278	-17.891	16.968	0	0	0	0	0	0	0	0	0	2
2054	20.54	0	0	0	0	0	0	0	0	0	0	0	0	0	0	0	0	0	0	0	0	0	0	0	0	0	0	0	0	0	0	0	0	0	0	0	0	0	0	0	0	0	0	0	0	0	0	0	0	0	-1	0	-2.0278	-17.891	16.968	0	0	0	1	0	0	17.47	2.0148	16.554	2
2055	20.55	0	0	0	0	0	0	0	0	0	0	0	0	0	0	0	0	0	0	0	0	0	0	0	0	0	0	0	0	0	0	0	0	0	10.991	-10.991	19.037	0	0	0	0	0	0	0	0	0	0	0	0	0	0	0	0	0	0	0	0	0	0	0	0	0	0	0	2
2056	20.56	0	0	0	0	0	0	0	0	0	0	0	0	0	0	0	0	0	0	0	0	0	0	0	0	0	0	0	0	0	0	0	0	0	0	0	0	0	0	0	0	0	0	0	0	0	0	0	0	1	-1	0	7.5503	-27.469	31.921	0	0	0	1	0	0	17.47	2.0148	16.554	2
2057	20.57	0	0	0	0	0	0	0	0	0	0	0	0	0	0	0	0	0	0	0	0	0	0	0	0	0	0	0	0	0	0	0	0	0	0	0	0	0	0	0	0	0	0	0	0	0	0	0	0	0	-1	0	-2.0278	-17.891	16.968	0	0	0	0	0	0	0	0	0	2
2058	20.58	0	0	0	0	0	0	10.917	-10.917	18.908	0	0	0	0	0	0	0	0	0	0	0	0	0	0	0	10.989	-10.989	19.033	0	0	0	0	0	0	0	0	0	0	0	0	0	0	0	0	0	0	0	0	0	0	0	0	0	0	0	0	0	0	1	0	0	17.47	2.0148	16.554	2
2059	20.59	0	0	0	0	0	0	0	0	0	0	0	0	0	0	0	0	0	0	0	0	0	0	0	0	0	0	0	0	0	0	1	0	0	17.761	2.1499	16.789	0	0	0	0	0	0	0	0	0	0	0	0	0	0	0	0	0	0	0	0	0	0	0	0	0	0	0	2
2060	20.6	0	0	0	0	0	0	0	0	0	0	0	0	0	0	0	0	0	0	0	0	0	0	0	0	0	0	0	0	0	0	0	0	0	0	0	0	0	0	0	0	-1	0	-2.1508	-17.769	16.797	0	0	0	0	-1	0	-2.0278	-17.891	16.968	0	0	0	0	0	0	0	0	0	2
2061	20.61	0	0	0	0	0	0	0	0	0	0	0	0	0	0	0	0	0	0	0	0	0	0	0	0	0	0	0	0	0	0	0	0	0	0	0	0	0	0	0	0	0	0	0	0	0	0	0	0	0	0	0	0	0	0	0	0	0	1	0	0	17.47	2.0148	16.554	2
2062	20.62	0	0	0	0	0	0	0	0	0	0	0	0	0	0	0	0	0	0	0	0	0	0	0	0	0	0	0	0	0	0	1	0	0	17.883	2.027	16.961	0	0	0	0	0	0	0	0	0	0	0	0	0	-1	0	-2.0278	-17.891	16.968	0	0	0	0	0	0	0	0	0	2
2063	20.63	0	0	0	0	0	0	0	0	0	0	0	0	0	0	0	0	0	0	0	0	0	0	0	0	0	0	0	0	0	0	0	0	0	0	0	0	0	0	0	0	0	0	0	0	0	0	0	0	0	-1	0	-2.0278	-17.891	16.968	0	0	0	0	0	0	0	0	0	2
2064	20.64	0	0	0	0	0	0	0	0	0	0	0	0	0	0	0	0	0	0	0	0	0	1	0	0	17.876	2.0262	16.954	0	0	0	1	0	0	17.883	2.027	16.961	0	0	0	0	0	0	0	0	0	0	0	0	0	-1	0	-2.0278	-17.891	16.968	0	0	0	1	0	0	17.47	2.0148	16.554	0
2065	20.65	0	0	0	0	0	0	0	0	0	0	0	0	0	0	0	0	0	0	0	0	0	0	0	0	0	0	0	0	0	0	0	0	0	0	0	0	0	0	0	0	0	0	0	0	0	0	0	0	0	-1	0	-2.0278	-17.891	16.968	0	0	0	0	0	0	0	0	0	2
2066	20.66	0	0	0	0	0	0	0	0	0	0	0	0	0	0	0	0	0	0	0	0	0	0	0	0	10.989	-10.989	19.033	0	0	0	0	0	0	0	0	0	0	0	0	0	0	0	0	0	0	0	0	0	0	-1	0	-2.0278	-17.891	16.968	0	0	0	1	0	0	17.471	2.0135	16.556	2
2067	20.67	0	0	0	0	0	0	0	0	0	0	0	0	0	-1	0	-2.0372	-17.821	16.895	0	0	0	0	0	0	0	0	0	0	0	0	1	0	0	17.883	2.027	16.961	0	0	0	0	0	0	0	0	0	0	0	0	0	-1	0	-2.0278	-17.891	16.968	0	0	0	0	0	0	10.93	-10.93	18.931	2
2068	20.68	0	0	0	0	0	0	0	0	0	0	0	0	0	0	0	0	0	0	0	0	0	0	0	0	0	0	0	0	0	0	1	0	0	17.883	2.027	16.961	0	0	0	0	0	0	0	0	0	0	0	0	0	0	0	0	0	0	0	0	0	0	0	0	0	0	0	2
2069	20.69	0	0	0	0	0	0	0	0	0	0	0	0	0	0	0	0	0	0	0	0	0	0	0	0	0	0	0	0	0	0	1	0	0	17.761	2.1499	16.789	0	0	0	0	0	0	0	0	0	0	0	0	0	0	0	0	0	0	0	0	0	0	0	0	0	0	0	2
2070	20.7	0	0	0	0	0	0	0	0	0	0	0	0	0	-1	0	-2.0372	-17.821	16.895	0	0	0	0	0	0	0	0	0	0	0	0	0	0	0	0	0	0	0	0	0	0	0	0	0	0	0	0	0	0	0	-1	0	-2.0278	-17.891	16.968	0	0	0	0	0	0	0	0	0	2
2071	20.71	0	0	0	0	0	0	0	0	0	0	0	0	0	0	0	0	0	0	0	0	0	0	0	0	0	0	0	0	0	0	0	0	0	0	0	0	0	0	0	0	0	0	0	0	0	0	0	0	0	0	0	0	0	0	0	0	0	1	0	0	17.47	2.0148	16.554	2
2072	20.72	0	0	0	0	0	0	0	0	0	0	0	0	0	0	0	0	0	0	0	0	0	0	0	0	0	0	0	0	0	0	0	-1	0	-2.0265	-17.879	16.957	0	0	0	0	0	0	0	0	0	0	0	0	0	-1	0	-2.0278	-17.891	16.968	0	0	0	1	0	0	17.47	2.0148	16.554	2
2073	20.73	0	0	0	0	0	0	0	0	0	0	0	0	0	0	0	0	0	0	0	0	0	0	0	0	0	0	0	0	0	0	0	0	0	0	0	0	0	0	0	0	-1	0	-2.0279	-17.891	16.969	0	0	0	0	-1	0	-2.0278	-17.891	16.968	0	0	0	1	0	0	17.47	2.0148	16.554	2
2074	20.74	0	0	0	0	0	0	0	0	0	0	0	0	0	0	0	0	0	0	0	0	0	0	0	0	10.989	-10.989	19.033	0	0	0	1	0	0	17.761	2.1499	16.789	0	0	0	0	0	0	0	0	0	0	0	0	0	-1	0	-2.0278	-17.891	16.968	0	0	0	1	0	0	17.471	2.0135	16.556	2
2075	20.75	0	0	0	0	0	0	0	0	0	0	0	0	0	0	0	0	0	0	0	0	0	0	0	0	0	0	0	0	0	0	0	0	0	0	0	0	0	0	0	0	0	0	0	0	0	0	0	0	0	-1	0	-2.0278	-17.891	16.968	0	0	0	0	0	0	0	0	0	2
2076	20.76	0	0	0	0	0	0	0	0	0	0	0	0	0	0	0	0	0	0	0	0	0	0	0	0	10.989	-10.989	19.033	0	0	0	1	0	0	17.883	2.027	16.961	0	0	0	0	0	0	0	0	0	0	0	0	0	-1	0	-2.0278	-17.891	16.968	0	0	0	0	0	0	0	0	0	2
2077	20.77	0	0	0	0	0	0	0	0	0	0	0	0	0	0	0	0	0	0	0	0	0	0	0	0	0	0	0	0	0	0	1	0	0	17.883	2.027	16.961	0	0	0	0	0	0	0	0	0	0	0	0	0	-1	0	-2.0278	-17.891	16.968	0	0	0	0	0	0	0	0	0	2
2078	20.78	0	0	0	0	0	0	0	0	0	0	0	0	0	0	0	0	0	0	0	0	0	0	0	0	0	0	0	0	0	0	1	0	0	17.883	2.027	16.961	0	0	0	0	0	0	0	0	0	0	0	0	0	-1	0	-2.0278	-17.891	16.968	0	0	0	1	0	0	17.47	2.0148	16.554	2
2079	20.79	0	0	0	0	0	0	0	0	0	0	0	0	0	0	0	0	0	0	0	0	0	0	0	0	0	0	0	0	0	0	0	0	0	0	0	0	0	0	0	0	0	0	0	0	0	0	0	0	0	-1	0	-2.0278	-17.891	16.968	0	0	0	1	0	0	17.47	2.0148	16.554	2
2080	20.8	0	0	0	0	0	0	0	0	0	0	0	0	0	0	0	0	0	0	0	0	0	0	0	0	0	0	0	0	0	0	0	0	0	0	0	0	0	0	0	0	0	0	0	0	0	0	0	0	0	-1	0	-2.0278	-17.891	16.968	0	0	0	0	0	0	0	0	0	2
2081	20.81	0	0	0	0	0	0	0	0	0	0	0	0	0	0	0	0	0	0	0	0	0	0	0	0	0	0	0	0	0	0	0	0	0	0	0	0	0	0	0	0	0	0	0	0	0	0	0	0	0	-1	0	-2.0278	-17.891	16.968	0	0	0	1	0	0	17.47	2.0148	16.554	2
2082	20.82	0	0	0	0	0	0	0	0	0	0	0	0	0	0	0	0	0	0	0	0	0	0	0	0	0	0	0	0	0	0	0	0	0	0	0	0	0	0	0	0	0	0	0	0	0	0	0	0	0	-1	0	-2.0278	-17.891	16.968	0	0	0	0	0	0	0	0	0	2
2083	20.83	0	0	0	0	0	0	0	0	0	0	0	0	0	0	0	0	0	0	0	0	0	0	0	0	10.989	-10.989	19.033	0	0	0	0	0	0	11.258	-11.253	19.496	0	0	0	0	0	0	0	0	0	0	0	0	0	-1	0	-2.0278	-17.891	16.968	0	0	0	0	0	0	0	0	0	2
2084	20.84	0	0	0	0	0	0	0	0	0	0	0	0	0	0	0	0	0	0	0	0	0	0	0	0	0	0	0	0	0	0	1	0	0	17.761	2.1499	16.789	0	0	0	0	0	0	0	0	0	0	0	0	0	0	0	0	0	0	0	0	0	0	0	0	0	0	0	2
2085	20.85	0	0	0	0	0	0	0	0	0	0	0	0	0	0	0	0	0	0	0	0	0	0	0	0	0	0	0	0	0	0	0	0	0	0	0	0	0	0	0	0	0	0	0	0	0	0	0	0	0	-1	0	-2.0278	-17.891	16.968	0	0	0	0	0	0	0	0	0	2
2086	20.86	0	0	0	0	0	0	0	0	0	0	0	0	0	0	0	0	0	0	0	0	0	0	0	0	10.989	-10.989	19.033	0	0	0	1	0	0	17.883	2.027	16.961	0	0	0	0	0	0	0	0	0	0	0	0	0	0	0	0	0	0	0	0	0	0	0	0	0	0	0	2
2087	20.87	0	0	0	0	0	0	0	0	0	0	0	0	0	0	0	0	0	0	0	0	0	0	0	0	0	0	0	0	0	0	0	0	0	0	0	0	0	0	0	0	0	0	0	0	0	0	0	0	0	-1	0	-2.0278	-17.891	16.968	0	0	0	0	0	0	0	0	0	2
2088	20.88	0	0	0	0	0	0	0	0	0	0	0	0	0	0	0	0	0	0	0	0	0	0	0	0	0	0	0	0	0	0	1	0	0	17.883	2.027	16.961	0	0	0	0	0	0	0	0	0	0	0	0	0	-1	0	-2.0278	-17.891	16.968	0	0	0	1	0	0	17.47	2.0148	16.554	2
2089	20.89	0	0	0	0	0	0	0	0	0	0	0	0	0	0	0	0	0	0	0	0	0	0	0	0	10.989	-10.989	19.033	0	0	0	0	0	0	0	0	0	0	0	0	0	0	0	0	0	0	0	0	0	0	0	0	0	0	0	0	0	0	1	0	0	17.47	2.0148	16.554	2
2090	20.9	0	0	0	0	0	0	0	0	0	0	0	0	0	0	0	0	0	0	0	0	0	0	0	0	0	0	0	0	0	0	0	0	0	0	0	0	0	0	0	0	0	0	0	0	0	0	0	0	0	-1	0	-2.0278	-17.891	16.968	0	0	0	0	0	0	0	0	0	2
2091	20.91	0	0	0	0	0	0	0	0	0	0	0	0	0	0	0	0	0	0	0	0	0	0	0	0	0	0	0	0	0	0	0	-1	0	-2.0265	-17.879	16.957	0	0	0	0	0	0	0	0	0	0	0	0	0	-1	0	-2.0278	-17.891	16.968	0	0	0	1	0	0	17.47	2.0148	16.554	2
2092	20.92	0	0	0	0	0	0	0	0	0	0	0	0	0	0	0	0	0	0	0	0	0	0	0	0	0	0	0	0	0	0	1	0	0	17.761	2.1499	16.789	0	0	0	0	0	0	0	0	0	0	0	0	0	0	0	0	0	0	0	0	0	0	0	0	0	0	0	2
2093	20.93	0	0	0	0	0	0	0	0	0	0	0	0	0	0	0	0	0	0	0	0	0	0	0	0	0	0	0	0	0	0	0	0	0	0	0	0	0	0	0	0	0	0	0	0	0	0	0	0	0	-1	0	-2.0278	-17.891	16.968	0	0	0	1	0	0	17.47	2.0148	16.554	2
2094	20.94	0	0	0	0	0	0	0	0	0	0	0	0	0	0	0	0	0	0	0	0	0	0	0	0	0	0	0	0	0	0	1	0	0	17.883	2.027	16.961	0	0	0	0	0	0	0	0	0	0	0	0	0	-1	0	-2.0278	-17.891	16.968	0	0	0	0	0	0	10.93	-10.93	18.931	2
2095	20.95	0	0	0	0	0	0	0	0	0	0	0	0	0	0	0	0	0	0	0	0	0	0	0	0	0	0	0	0	0	0	0	0	0	0	0	0	0	0	0	0	0	0	10.996	-10.996	19.046	0	0	0	0	-1	0	-2.0278	-17.891	16.968	0	0	0	0	0	0	0	0	0	2
2096	20.96	0	0	0	0	0	0	0	0	0	0	0	0	0	0	0	0	0	0	0	0	0	0	0	0	0	0	0	0	0	0	0	0	0	0	0	0	0	0	0	0	0	0	0	0	0	0	0	0	0	-1	0	-2.0278	-17.891	16.968	0	0	0	0	0	0	0	0	0	2
2097	20.97	0	0	0	0	0	0	0	0	0	0	0	0	0	0	0	0	0	0	0	0	0	0	0	0	10.989	-10.989	19.033	0	0	0	1	0	0	17.883	2.027	16.961	0	0	0	0	0	0	0	0	0	0	0	0	0	-1	0	-2.0278	-17.891	16.968	0	0	0	0	0	0	0	0	0	2
2098	20.98	0	0	0	0	0	0	0	0	0	0	0	0	0	0	0	0	0	0	0	0	0	0	0	0	0	0	0	0	0	0	0	0	0	0	0	0	0	0	0	0	0	0	0	0	0	0	0	0	0	-1	0	-2.0278	-17.891	16.968	0	0	0	1	0	0	17.47	2.0148	16.554	2
2099	20.99	0	0	0	0	0	0	0	0	0	0	0	0	0	0	0	0	0	0	0	0	0	0	0	0	10.989	-10.989	19.033	0	0	0	0	0	0	10.991	-10.991	19.037	0	0	0	0	0	0	0	0	0	0	0	0	0	0	0	0	0	0	0	0	0	1	0	0	17.47	2.0148	16.554	2
2100	21	0	0	0	0	0	0	0	0	0	0	0	0	0	0	0	0	0	0	0	0	0	0	-1	0	-2.0266	-17.88	16.957	0	0	0	0	0	0	0	0	0	0	0	0	0	0	0	0	0	0	0	0	0	0	0	0	0	0	0	0	0	0	0	0	0	0	0	0	2
2101	21.01	0	0	0	0	0	0	0	0	0	0	0	0	0	0	0	0	0	0	0	0	0	0	0	0	0	0	0	0	0	0	0	0	0	10.991	-10.991	19.037	0	0	0	0	0	0	0	0	0	0	0	0	0	-1	0	-2.0278	-17.891	16.968	0	0	0	1	0	0	17.47	2.0148	16.554	2
2102	21.02	0	0	0	0	0	0	0	0	0	0	0	0	0	0	0	0	0	0	0	0	0	0	0	0	10.989	-10.989	19.033	0	0	0	0	0	0	0	0	0	0	0	0	0	0	0	0	0	0	0	0	0	0	0	0	0	0	0	0	0	0	0	0	0	0	0	0	2
2103	21.03	0	0	0	0	0	0	0	0	0	0	0	0	0	0	0	0	0	0	0	0	0	0	0	0	0	0	0	0	0	0	0	0	0	0	0	0	0	0	0	0	0	0	0	0	0	0	0	0	0	-1	0	-2.0278	-17.891	16.968	0	0	0	0	0	0	0	0	0	2
2104	21.04	0	0	0	0	0	0	0	0	0	0	0	0	0	0	0	0	0	0	0	0	0	0	0	0	0	0	0	0	0	0	1	0	0	17.883	2.027	16.961	0	0	0	0	0	0	0	0	0	0	0	0	0	0	0	0	0	0	0	0	0	0	0	0	0	0	0	2
2105	21.05	0	0	0	0	0	0	0	0	0	0	0	0	0	0	0	0	0	0	0	0	0	0	0	0	0	0	0	0	0	0	0	0	0	0	0	0	0	0	0	0	0	0	0	0	0	0	0	0	0	-1	0	-2.0278	-17.891	16.968	0	0	0	0	0	0	0	0	0	2
2106	21.06	0	0	0	0	0	0	0	0	0	0	0	0	0	0	0	0	0	0	0	0	0	0	0	0	0	0	0	0	0	0	0	0	0	0	0	0	0	0	0	0	0	0	0	0	0	0	0	0	0	-1	0	-2.0278	-17.891	16.968	0	0	0	1	0	0	17.47	2.0148	16.554	2
2107	21.07	0	0	0	0	0	0	0	0	0	0	0	0	0	0	0	0	0	0	0	0	0	0	0	0	0	0	0	0	0	0	0	-1	0	-2.0265	-17.879	16.957	0	0	0	0	0	0	0	0	0	0	0	0	0	-1	0	-2.0278	-17.891	16.968	0	0	0	0	0	0	0	0	0	2
2108	21.08	0	0	0	0	0	0	0	0	0	0	0	0	0	0	0	0	0	0	0	0	0	0	0	0	0	0	0	0	0	0	0	0	0	10.991	-10.991	19.037	0	0	0	0	0	0	0	0	0	0	0	0	0	-1	0	-2.0278	-17.891	16.968	0	0	0	1	0	0	17.47	2.0148	16.554	2
2109	21.09	0	0	0	0	0	0	0	0	0	0	0	0	0	0	0	0	0	0	0	0	0	0	0	0	0	0	0	0	0	0	0	0	0	0	0	0	0	0	0	0	0	0	0	0	0	0	0	0	0	-1	0	-2.0278	-17.891	16.968	0	0	0	1	0	0	17.47	2.0148	16.554	2
2110	21.1	0	0	0	0	0	0	0	0	0	0	0	0	0	0	0	0	0	0	0	0	0	0	0	0	0	0	0	0	0	0	0	0	0	0	0	0	0	0	0	0	0	0	0	0	0	0	0	0	0	-1	0	-2.0278	-17.891	16.968	0	0	0	0	0	0	0	0	0	2
2111	21.11	0	0	0	0	0	0	0	0	0	0	0	0	0	0	0	0	0	0	0	0	0	0	0	0	0	0	0	0	0	0	0	0	0	10.991	-10.991	19.037	0	0	0	0	0	0	0	0	0	0	0	0	0	-1	0	-2.0278	-17.891	16.968	0	0	0	0	0	0	10.93	-10.93	18.931	2
2112	21.12	0	0	0	0	0	0	0	0	0	0	0	0	0	0	0	0	0	0	0	0	0	0	0	0	0	0	0	0	0	0	0	0	0	0	0	0	0	0	0	0	0	0	0	0	0	0	0	0	0	-1	0	-2.0278	-17.891	16.968	0	0	0	0	0	0	0	0	0	2
2113	21.13	0	0	0	0	0	0	0	0	0	0	0	0	0	0	0	0	0	0	0	0	0	0	0	0	0	0	0	0	0	0	0	0	0	0	0	0	0	0	0	0	0	0	0	0	0	0	0	0	0	-1	0	-2.0278	-17.891	16.968	0	0	0	0	0	0	0	0	0	2
2114	21.14	0	0	0	0	0	0	0	0	0	0	0	0	0	0	0	0	0	0	0	0	0	0	0	0	0	0	0	0	0	0	1	0	0	17.883	2.027	16.961	0	0	0	0	0	0	0	0	0	0	0	0	0	0	0	0	0	0	0	0	0	1	0	0	17.471	2.0135	16.556	2
2115	21.15	0	0	0	0	0	0	0	0	0	0	0	0	0	0	0	0	0	0	0	0	0	0	0	0	0	0	0	0	0	0	0	0	0	0	0	0	0	0	0	0	0	0	0	0	0	0	0	0	0	-1	0	-2.0278	-17.891	16.968	0	0	0	0	0	0	0	0	0	2
2116	21.16	0	0	0	0	0	0	0	0	0	0	0	0	0	0	0	0	0	0	0	0	0	0	0	0	0	0	0	0	0	0	1	0	0	17.883	2.027	16.961	0	0	0	0	-1	0	-2.0279	-17.891	16.969	0	0	0	0	-1	0	-2.0278	-17.891	16.968	0	0	0	1	0	0	17.47	2.0148	16.554	2
2117	21.17	0	0	0	0	0	0	0	0	0	0	0	0	0	0	0	0	0	0	0	0	0	0	0	0	0	0	0	0	0	0	1	0	0	17.761	2.1499	16.789	0	0	0	0	0	0	0	0	0	0	0	0	0	-1	0	-2.0278	-17.891	16.968	0	0	0	0	0	0	0	0	0	2
2118	21.18	0	0	0	0	0	0	0	0	0	0	0	0	0	0	0	0	0	0	0	0	0	0	0	0	0	0	0	0	0	0	0	0	0	0	0	0	0	0	0	0	0	0	0	0	0	0	0	0	0	-1	0	-2.0278	-17.891	16.968	0	0	0	0	0	0	0	0	0	2
2119	21.19	0	0	0	0	0	0	0	0	0	0	0	0	0	0	0	0	0	0	0	0	0	0	0	0	0	0	0	0	0	0	1	0	0	17.883	2.027	16.961	0	0	0	0	0	0	0	0	0	0	0	0	0	-1	0	-2.0278	-17.891	16.968	0	0	0	0	0	0	10.93	-10.93	18.931	2
2120	21.2	0	0	0	0	0	0	0	0	0	0	0	0	0	0	0	0	0	0	0	0	0	0	0	0	0	0	0	0	0	0	0	0	0	0	0	0	0	0	0	0	0	0	0	0	0	0	0	0	0	0	0	0	0	0	0	0	0	0	0	0	0	0	0	2
2121	21.21	0	0	0	0	0	0	0	0	0	0	0	0	0	0	0	0	0	0	0	0	0	0	0	0	0	0	0	0	0	0	0	0	0	0	0	0	0	0	0	0	0	0	0	0	0	0	0	0	0	-1	0	-2.0278	-17.891	16.968	0	0	0	1	0	0	17.47	2.0148	16.554	2
2122	21.22	0	0	0	0	0	0	0	0	0	0	0	0	0	0	0	0	0	0	0	0	0	0	0	0	0	0	0	0	0	0	1	0	0	17.883	2.027	16.961	0	0	0	0	0	0	0	0	0	0	0	0	0	-1	0	-2.0278	-17.891	16.968	0	0	0	0	0	0	0	0	0	2
2123	21.23	0	0	0	0	0	0	0	0	0	0	0	0	0	0	0	0	0	0	0	0	0	0	0	0	0	0	0	0	0	0	0	0	0	11.258	-11.253	19.496	0	0	0	0	0	0	0	0	0	0	0	0	0	-1	0	-2.0278	-17.891	16.968	0	0	0	1	0	0	17.47	2.0148	16.554	2
2124	21.24	0	0	0	0	0	0	0	0	0	0	0	0	0	-1	0	-2.0372	-17.821	16.895	0	0	0	0	0	0	0	0	0	0	0	0	1	0	0	17.883	2.027	16.961	0	0	0	0	0	0	0	0	0	0	0	0	0	-1	0	-2.0278	-17.891	16.968	0	0	0	0	0	0	0	0	0	2
2125	21.25	0	0	0	0	0	0	0	0	0	0	0	0	0	0	0	0	0	0	0	0	0	0	0	0	0	0	0	0	0	0	0	0	0	0	0	0	0	0	0	0	0	0	10.996	-10.996	19.046	0	0	0	0	-1	0	-2.0278	-17.891	16.968	0	0	0	1	0	0	17.471	2.0135	16.556	2
2126	21.26	0	0	0	0	0	0	0	0	0	0	0	0	0	0	0	0	0	0	0	0	0	0	0	0	0	0	0	0	0	0	0	0	0	0	0	0	0	0	0	0	0	0	0	0	0	0	0	0	0	-1	0	-2.0278	-17.891	16.968	0	0	0	0	0	0	0	0	0	2
2127	21.27	0	0	0	0	0	0	0	0	0	0	0	0	0	-1	0	-2.0372	-17.821	16.895	0	0	0	0	0	0	0	0	0	0	0	0	0	-1	0	-2.0265	-17.879	16.957	0	0	0	0	0	0	0	0	0	0	0	0	0	-1	0	-2.0278	-17.891	16.968	0	0	0	1	0	0	17.47	2.0148	16.554	2
2128	21.28	0	0	0	0	0	0	0	0	0	0	0	0	0	0	0	0	0	0	0	0	0	0	0	0	0	0	0	0	0	0	0	0	0	0	0	0	0	0	0	0	0	0	0	0	0	0	0	0	0	0	0	0	0	0	0	0	0	1	0	0	17.47	2.0148	16.554	2
2129	21.29	0	0	0	0	0	0	0	0	0	0	0	0	0	0	0	0	0	0	0	0	0	0	0	0	0	0	0	0	0	0	1	0	0	17.883	2.027	16.961	0	0	0	0	0	0	0	0	0	0	0	0	0	-1	0	-2.0278	-17.891	16.968	0	0	0	0	0	0	10.93	-10.93	18.931	2
2130	21.3	0	0	0	0	0	0	0	0	0	0	0	0	0	0	0	0	0	0	0	0	0	0	0	0	0	0	0	0	0	0	0	0	0	10.991	-10.991	19.037	0	0	0	0	0	0	0	0	0	0	0	0	0	-1	0	-2.0278	-17.891	16.968	0	0	0	0	0	0	0	0	0	2
2131	21.31	0	0	0	0	0	0	0	0	0	0	0	0	0	0	0	0	0	0	0	0	0	0	0	0	0	0	0	0	0	0	0	0	0	10.991	-10.991	19.037	0	0	0	0	0	0	0	0	0	0	0	0	0	-1	0	-2.0278	-17.891	16.968	0	0	0	1	0	0	17.471	2.0135	16.556	2
2132	21.32	0	0	0	0	0	0	0	0	0	0	0	0	0	0	0	0	0	0	0	0	0	0	0	0	0	0	0	0	0	0	0	0	0	0	0	0	0	0	0	0	0	0	0	0	0	0	0	0	0	-1	0	-2.0278	-17.891	16.968	0	0	0	1	0	0	17.47	2.0148	16.554	2
2133	21.33	0	0	0	0	0	0	0	0	0	0	0	0	0	0	0	0	0	0	0	0	0	0	0	0	0	0	0	0	0	0	1	0	0	17.883	2.027	16.961	0	0	0	0	0	0	0	0	0	0	0	0	0	-1	0	-2.0278	-17.891	16.968	0	0	0	1	0	0	17.47	2.0148	16.554	2
2134	21.34	0	0	0	0	0	0	0	0	0	0	0	0	0	0	0	0	0	0	0	0	0	0	0	0	0	0	0	0	0	0	0	0	0	0	0	0	0	0	0	0	0	0	0	0	0	0	0	0	0	-1	0	-2.0278	-17.891	16.968	0	0	0	0	0	0	0	0	0	2
2135	21.35	0	0	0	0	0	0	0	0	0	0	0	0	0	0	0	0	0	0	0	0	0	0	0	0	0	0	0	0	0	0	0	0	0	0	0	0	0	0	0	0	0	0	0	0	0	0	0	0	0	0	0	0	0	0	0	0	0	1	0	0	17.47	2.0148	16.554	2
2136	21.36	0	0	0	0	0	0	0	0	0	0	0	0	0	-1	0	-2.0372	-17.821	16.895	0	0	0	0	0	0	0	0	0	0	0	0	0	0	0	0	0	0	0	0	0	0	0	0	0	0	0	0	0	0	0	-1	0	-2.0278	-17.891	16.968	0	0	0	0	0	0	0	0	0	0
2137	21.37	0	0	0	0	0	0	0	0	0	0	0	0	0	0	0	0	0	0	0	0	0	0	0	0	0	0	0	0	0	0	0	0	0	0	0	0	0	0	0	0	0	0	0	0	0	0	0	0	0	-1	0	-2.0278	-17.891	16.968	0	0	0	0	0	0	0	0	0	2
2138	21.38	0	0	0	0	0	0	0	0	0	0	0	0	0	0	0	0	0	0	0	0	0	0	0	0	0	0	0	0	0	0	0	0	0	0	0	0	0	0	0	0	0	0	0	0	0	0	0	0	0	-1	0	-2.0278	-17.891	16.968	0	0	0	1	0	0	17.47	2.0148	16.554	2
2139	21.39	0	0	0	0	0	0	0	0	0	0	0	0	0	0	0	0	0	0	0	0	0	0	0	0	0	0	0	0	0	0	0	0	0	0	0	0	0	0	0	0	0	0	0	0	0	0	0	0	0	-1	0	-2.0278	-17.891	16.968	0	0	0	1	0	0	17.47	2.0148	16.554	0
2140	21.4	0	0	0	0	0	0	0	0	0	0	0	0	0	0	0	0	0	0	0	0	0	0	0	0	0	0	0	0	0	0	0	0	0	0	0	0	0	0	0	0	0	0	10.996	-10.996	19.046	0	0	0	0	-1	0	-2.0278	-17.891	16.968	0	0	0	0	0	0	0	0	0	2
2141	21.41	0	0	0	0	0	0	0	0	0	0	0	0	0	0	0	0	0	0	0	0	0	0	0	0	0	0	0	0	0	0	0	0	0	10.991	-10.991	19.037	0	0	0	0	0	0	0	0	0	0	0	0	0	0	0	0	0	0	0	0	0	1	0	0	17.471	2.0135	16.556	2
2142	21.42	0	0	0	0	0	0	0	0	0	0	0	0	0	0	0	0	0	0	0	0	0	0	0	0	0	0	0	0	0	0	0	0	0	0	0	0	0	0	0	0	0	0	0	0	0	0	0	0	0	0	0	0	0	0	0	0	0	1	0	0	17.471	2.0135	16.556	2
2143	21.43	0	0	0	0	0	0	0	0	0	0	0	0	0	0	0	0	0	0	0	0	0	0	0	0	0	0	0	0	0	0	0	0	0	0	0	0	0	0	0	0	-1	0	-2.0279	-17.891	16.969	0	0	0	0	-1	0	-2.0278	-17.891	16.968	0	0	0	1	0	0	17.47	2.0148	16.554	2
2144	21.44	0	0	0	0	0	0	0	0	0	0	0	0	0	0	0	0	0	0	0	0	0	0	0	0	0	0	0	0	0	0	0	0	0	0	0	0	0	0	0	0	0	0	0	0	0	0	0	0	0	-1	0	-2.0278	-17.891	16.968	0	0	0	1	0	0	17.47	2.0148	16.554	2
2145	21.45	0	0	0	0	0	0	0	0	0	0	0	0	0	0	0	0	0	0	0	0	0	0	0	0	0	0	0	0	0	0	0	0	0	0	0	0	0	0	0	0	-1	0	-2.0279	-17.891	16.969	0	0	0	0	-1	0	-2.0278	-17.891	16.968	0	0	0	0	0	0	0	0	0	2
2146	21.46	0	0	0	0	0	0	0	0	0	0	0	0	0	0	0	0	0	0	0	0	0	0	0	0	0	0	0	0	0	0	0	0	0	0	0	0	0	0	0	0	0	0	0	0	0	0	0	0	0	0	0	0	0	0	0	0	0	1	0	0	17.471	2.0135	16.556	2
2147	21.47	0	0	0	0	0	0	0	0	0	0	0	0	0	0	0	0	0	0	0	0	0	0	0	0	0	0	0	0	0	0	1	0	0	17.883	2.027	16.961	0	0	0	0	0	0	0	0	0	0	0	0	0	-1	0	-2.0278	-17.891	16.968	0	0	0	0	0	0	10.93	-10.93	18.931	2
2148	21.48	0	0	0	0	0	0	0	0	0	0	0	0	0	0	0	0	0	0	0	0	0	0	0	0	10.989	-10.989	19.033	0	0	0	0	0	0	0	0	0	0	0	0	0	0	0	0	0	0	0	0	0	0	-1	0	-2.0278	-17.891	16.968	0	0	0	0	0	0	0	0	0	0
2149	21.49	0	0	0	0	0	0	0	0	0	0	0	0	0	0	0	0	0	0	0	0	0	0	0	0	0	0	0	0	0	0	0	0	0	0	0	0	0	0	0	0	0	0	0	0	0	0	0	0	0	-1	0	-2.0278	-17.891	16.968	0	0	0	1	0	0	17.47	2.0148	16.554	2
2150	21.5	0	0	0	0	0	0	0	0	0	0	0	0	0	0	0	0	0	0	0	0	0	0	0	0	0	0	0	0	0	0	1	0	0	17.883	2.027	16.961	0	0	0	0	-1	0	-2.0279	-17.891	16.969	0	0	0	0	-1	0	-2.0278	-17.891	16.968	0	0	0	1	0	0	17.47	2.0148	16.554	0
2151	21.51	0	0	0	0	0	0	0	0	0	0	0	0	0	0	0	0	0	0	0	0	0	0	0	0	0	0	0	0	0	0	0	0	0	10.991	-10.991	19.037	0	0	0	0	0	0	0	0	0	0	0	0	0	-1	0	-2.0278	-17.891	16.968	0	0	0	1	0	0	17.47	2.0148	16.554	2
2152	21.52	0	0	0	0	0	0	0	0	0	0	0	0	0	0	0	0	0	0	0	0	0	0	0	0	0	0	0	0	0	0	0	0	0	0	0	0	0	0	0	0	0	0	0	0	0	0	0	0	0	0	0	10.994	-10.994	19.042	0	0	0	0	0	0	0	0	0	2
2153	21.53	0	0	0	0	0	0	0	0	0	0	0	0	0	0	0	0	0	0	0	0	0	0	0	0	0	0	0	0	0	0	1	0	0	17.883	2.027	16.961	0	0	0	0	0	0	0	0	0	0	0	0	0	-1	0	-2.0278	-17.891	16.968	0	0	0	0	0	0	0	0	0	0
2154	21.54	0	0	0	0	0	0	0	0	0	0	0	0	0	0	0	0	0	0	0	0	0	0	0	0	0	0	0	0	0	0	0	0	0	0	0	0	0	0	0	0	0	0	0	0	0	0	0	0	0	0	0	0	0	0	0	0	0	1	0	0	17.471	2.0135	16.556	2
2155	21.55	0	0	0	0	0	0	0	0	0	0	0	0	0	0	0	0	0	0	0	0	0	0	0	0	0	0	0	0	0	0	0	0	0	0	0	0	0	0	0	0	0	0	0	0	0	0	0	0	0	0	0	0	0	0	0	0	0	0	0	0	0	0	0	2
2156	21.56	0	0	0	0	0	0	0	0	0	0	0	0	0	0	0	0	0	0	0	0	0	0	0	0	0	0	0	0	0	0	0	0	0	10.991	-10.991	19.037	0	0	0	0	-1	0	-2.0279	-17.891	16.969	0	0	0	0	-1	0	-2.0278	-17.891	16.968	0	0	0	1	0	0	17.471	2.0135	16.556	2
2157	21.57	0	0	0	0	0	0	0	0	0	0	0	0	0	0	0	0	0	0	0	0	0	0	0	0	0	0	0	0	0	0	1	0	0	17.883	2.027	16.961	0	0	0	0	0	0	0	0	0	0	0	0	0	-1	0	-2.0278	-17.891	16.968	0	0	0	1	0	0	17.47	2.0148	16.554	2
2158	21.58	0	0	0	0	0	0	0	0	0	0	0	0	0	-1	0	-2.0372	-17.821	16.895	0	0	0	0	0	0	0	0	0	0	0	0	0	0	0	0	0	0	0	0	0	0	0	0	0	0	0	0	0	0	0	-1	0	-2.0278	-17.891	16.968	0	0	0	0	0	0	10.93	-10.93	18.931	2
2159	21.59	0	0	0	0	0	0	0	0	0	0	0	0	0	0	0	0	0	0	0	0	0	0	0	0	0	0	0	0	0	0	0	0	0	0	0	0	0	0	0	0	0	0	0	0	0	0	0	0	0	-1	0	-2.0278	-17.891	16.968	0	0	0	1	0	0	17.47	2.0148	16.554	2
2160	21.6	0	0	0	0	0	0	0	0	0	0	0	0	0	0	0	0	0	0	0	0	0	0	0	0	0	0	0	0	0	0	0	0	0	0	0	0	0	0	0	0	0	0	0	0	0	0	0	0	0	-1	0	-2.0278	-17.891	16.968	0	0	0	1	0	0	17.47	2.0148	16.554	2
2161	21.61	0	0	0	0	0	0	0	0	0	0	0	0	0	0	0	0	0	0	0	0	0	0	0	0	0	0	0	0	0	0	0	0	0	10.991	-10.991	19.037	0	0	0	0	0	0	10.996	-10.996	19.046	0	0	0	0	-1	0	-2.0278	-17.891	16.968	0	0	0	1	0	0	17.471	2.0135	16.556	2
2162	21.62	0	0	0	0	0	0	0	0	0	0	0	0	0	0	0	0	0	0	0	0	0	0	0	0	0	0	0	0	0	0	0	0	0	0	0	0	0	0	0	0	0	0	0	0	0	0	0	0	0	-1	0	-2.0278	-17.891	16.968	0	0	0	0	0	0	0	0	0	2
2163	21.63	0	0	0	0	0	0	0	0	0	0	0	0	0	0	0	0	0	0	0	0	0	0	0	0	0	0	0	0	0	0	0	0	0	0	0	0	0	0	0	0	0	0	0	0	0	0	0	0	0	-1	0	-2.0278	-17.891	16.968	0	0	0	1	0	0	17.47	2.0148	16.554	2
2164	21.64	0	0	0	0	0	0	0	0	0	0	0	0	0	0	0	0	0	0	0	0	0	0	0	0	0	0	0	0	0	0	1	0	0	17.883	2.027	16.961	0	0	0	0	0	0	0	0	0	0	0	0	0	-1	0	-2.0278	-17.891	16.968	0	0	0	1	0	0	17.471	2.0135	16.556	0
2165	21.65	0	0	0	0	0	0	0	0	0	0	0	0	0	0	0	0	0	0	0	0	0	0	-1	0	-2.0266	-17.88	16.957	0	0	0	0	0	0	0	0	0	0	0	0	0	0	0	0	0	0	0	0	0	0	-1	0	-2.0278	-17.891	16.968	0	0	0	0	0	0	0	0	0	2
2166	21.66	0	0	0	0	0	0	0	0	0	0	0	0	0	0	0	0	0	0	0	0	0	0	0	0	0	0	0	0	0	0	0	0	0	0	0	0	0	0	0	0	0	0	0	0	0	0	0	0	0	-1	0	-2.0278	-17.891	16.968	0	0	0	1	0	0	17.471	2.0135	16.556	0
2167	21.67	0	0	0	0	0	0	0	0	0	0	0	0	0	0	0	0	0	0	0	0	0	0	0	0	0	0	0	0	0	0	1	0	0	17.883	2.027	16.961	0	0	0	0	0	0	0	0	0	0	0	0	0	0	0	0	0	0	0	0	0	0	0	0	0	0	0	2
2168	21.68	0	0	0	0	0	0	0	0	0	0	0	0	0	0	0	0	0	0	0	0	0	0	0	0	0	0	0	0	0	0	0	0	0	0	0	0	0	0	0	0	0	0	0	0	0	0	0	0	0	-1	0	-2.0278	-17.891	16.968	0	0	0	1	0	0	17.47	2.0148	16.554	2
2169	21.69	0	0	0	0	0	0	0	0	0	0	0	0	0	0	0	0	0	0	0	0	0	0	0	0	0	0	0	0	0	0	1	0	0	17.883	2.027	16.961	0	0	0	0	0	0	0	0	0	0	0	0	0	0	0	0	0	0	0	0	0	1	0	0	17.471	2.0135	16.556	2
2170	21.7	0	0	0	0	0	0	0	0	0	0	0	0	0	0	0	0	0	0	0	0	0	0	0	0	0	0	0	0	0	0	0	0	0	0	0	0	0	0	0	0	0	0	0	0	0	0	0	0	0	0	0	0	0	0	0	0	0	0	0	0	0	0	0	2
2171	21.71	0	0	0	0	0	0	0	0	0	0	0	0	0	0	0	0	0	0	0	0	0	0	0	0	0	0	0	0	0	0	1	0	0	17.883	2.027	16.961	0	0	0	0	0	0	0	0	0	0	0	0	0	-1	0	-2.0278	-17.891	16.968	0	0	0	1	0	0	17.471	2.0135	16.556	2
2172	21.72	0	0	0	0	0	0	0	0	0	0	0	0	0	0	0	0	0	0	0	0	0	0	0	0	0	0	0	0	0	0	1	0	0	17.883	2.027	16.961	0	0	0	0	0	0	0	0	0	0	0	0	0	-1	0	-2.0278	-17.891	16.968	0	0	0	0	0	0	0	0	0	2
2173	21.73	0	0	0	0	0	0	0	0	0	0	0	0	0	0	0	0	0	0	0	0	0	0	0	0	0	0	0	0	0	0	1	0	0	17.883	2.027	16.961	0	0	0	0	0	0	0	0	0	0	0	0	0	0	0	0	0	0	0	0	0	0	0	0	0	0	0	2
2174	21.74	0	0	0	0	0	0	0	0	0	0	0	0	0	0	0	0	0	0	0	0	0	0	0	0	10.989	-10.989	19.033	0	0	0	0	0	0	0	0	0	0	0	0	0	0	0	0	0	0	0	0	0	0	0	0	0	0	0	0	0	0	1	0	0	17.47	2.0148	16.554	2
2175	21.75	0	0	0	0	0	0	0	0	0	0	0	0	0	0	0	0	0	0	0	0	0	0	0	0	0	0	0	0	0	0	0	0	0	0	0	0	0	0	0	0	0	0	10.996	-10.996	19.046	0	0	0	0	-1	0	-2.0278	-17.891	16.968	0	0	0	1	0	0	17.47	2.0148	16.554	2
2176	21.76	0	0	0	0	0	0	0	0	0	0	0	0	0	0	0	0	0	0	0	0	0	0	0	0	0	0	0	0	0	0	0	0	0	10.991	-10.991	19.037	0	0	0	0	0	0	0	0	0	0	0	0	0	-1	0	-2.0278	-17.891	16.968	0	0	0	1	0	0	17.47	2.0148	16.554	2
2177	21.77	0	0	0	0	0	0	0	0	0	0	0	0	0	0	0	0	0	0	0	0	0	0	0	0	0	0	0	0	0	0	0	0	0	0	0	0	0	0	0	0	0	0	0	0	0	0	0	0	0	0	0	0	0	0	0	0	0	0	0	0	0	0	0	2
2178	21.78	0	0	0	0	0	0	0	0	0	0	0	0	0	0	0	0	0	0	0	0	0	0	0	0	0	0	0	0	0	0	1	0	0	17.883	2.027	16.961	0	0	0	0	0	0	0	0	0	0	0	0	0	-1	0	-2.0278	-17.891	16.968	0	0	0	0	0	0	10.93	-10.93	18.931	2
2179	21.79	0	0	0	0	0	0	0	0	0	0	0	0	0	0	0	0	0	0	0	0	0	0	0	0	0	0	0	0	0	0	1	0	0	17.883	2.027	16.961	0	0	0	0	0	0	0	0	0	0	0	0	0	0	0	0	0	0	0	0	0	1	0	0	17.47	2.0148	16.554	2
2180	21.8	0	0	0	0	0	0	0	0	0	0	0	0	0	0	0	0	0	0	0	0	0	0	-1	0	-2.0266	-17.88	16.957	0	0	0	0	0	0	0	0	0	0	0	0	0	0	0	0	0	0	0	0	0	0	0	0	0	0	0	0	0	0	0	0	0	0	0	0	2
2181	21.81	0	0	0	0	0	0	0	0	0	0	0	0	0	0	0	0	0	0	0	0	0	0	0	0	0	0	0	0	0	0	1	0	0	17.761	2.1499	16.789	0	0	0	0	0	0	0	0	0	0	0	0	0	-1	0	-2.0278	-17.891	16.968	0	0	0	1	0	0	17.47	2.0148	16.554	2
2182	21.82	0	0	0	0	0	0	0	0	0	0	0	0	0	0	0	0	0	0	0	0	0	0	0	0	0	0	0	0	0	0	0	0	0	0	0	0	0	0	0	0	0	0	0	0	0	0	0	0	0	0	0	0	0	0	0	0	0	1	0	0	17.471	2.0135	16.556	2
2183	21.83	0	0	0	0	0	0	0	0	0	0	0	0	0	0	0	0	0	0	0	0	0	0	0	0	0	0	0	0	0	0	0	0	0	0	0	0	0	0	0	0	0	0	0	0	0	0	0	0	0	-1	0	-2.0278	-17.891	16.968	0	0	0	0	0	0	0	0	0	2
2184	21.84	0	0	0	0	0	0	0	0	0	0	0	0	0	0	0	0	0	0	0	0	0	0	0	0	0	0	0	0	0	0	1	0	0	17.883	2.027	16.961	0	0	0	0	0	0	0	0	0	0	0	0	0	-1	0	-2.0278	-17.891	16.968	0	0	0	0	0	0	0	0	0	2
2185	21.85	0	0	0	0	0	0	0	0	0	0	0	0	0	0	0	0	0	0	0	0	0	0	0	0	0	0	0	0	0	0	0	0	0	0	0	0	0	0	0	0	0	0	0	0	0	0	0	0	0	-1	0	-2.0278	-17.891	16.968	0	0	0	0	0	0	0	0	0	2
2186	21.86	0	0	0	0	0	0	0	0	0	0	0	0	0	0	0	0	0	0	0	0	0	0	0	0	10.989	-10.989	19.033	0	0	0	1	0	0	17.761	2.1499	16.789	0	0	0	0	0	0	0	0	0	0	0	0	0	-1	0	-2.0278	-17.891	16.968	0	0	0	1	0	0	17.47	2.0148	16.554	2
2187	21.87	0	0	0	0	0	0	0	0	0	0	0	0	0	0	0	0	0	0	0	0	0	0	0	0	0	0	0	0	0	0	0	0	0	10.991	-10.991	19.037	0	0	0	0	0	0	0	0	0	0	0	0	0	-1	0	-2.0278	-17.891	16.968	0	0	0	0	0	0	0	0	0	2
2188	21.88	0	0	0	0	0	0	0	0	0	0	0	0	0	0	0	0	0	0	0	0	0	0	0	0	0	0	0	0	0	0	1	0	0	17.883	2.027	16.961	0	0	0	0	0	0	0	0	0	0	0	0	0	0	0	0	0	0	0	0	0	0	0	0	0	0	0	2
2189	21.89	0	0	0	0	0	0	0	0	0	0	0	0	0	0	0	0	0	0	0	0	0	0	0	0	0	0	0	0	0	0	1	0	0	17.761	2.1499	16.789	0	0	0	0	0	0	0	0	0	0	0	0	0	-1	0	-2.0278	-17.891	16.968	0	0	0	1	0	0	17.47	2.0148	16.554	2
2190	21.9	0	0	0	0	0	0	0	0	0	0	0	0	0	0	0	0	0	0	0	0	0	0	0	0	0	0	0	0	0	0	0	0	0	0	0	0	0	0	0	0	0	0	0	0	0	0	0	0	0	-1	0	-2.0278	-17.891	16.968	0	0	0	0	0	0	0	0	0	2
2191	21.91	0	0	0	0	0	0	0	0	0	0	0	0	0	0	0	0	0	0	0	0	0	0	0	0	0	0	0	0	0	0	0	0	0	10.991	-10.991	19.037	0	0	0	0	0	0	0	0	0	0	0	0	0	-1	0	-2.0278	-17.891	16.968	0	0	0	1	0	0	17.471	2.0135	16.556	2
2192	21.92	0	0	0	0	0	0	0	0	0	0	0	0	0	0	0	0	0	0	0	0	0	0	0	0	0	0	0	0	0	0	0	0	0	0	0	0	0	0	0	0	0	0	10.996	-10.996	19.046	0	0	0	0	-1	0	-2.0278	-17.891	16.968	0	0	0	0	0	0	0	0	0	2
2193	21.93	0	0	0	0	0	0	0	0	0	0	0	0	0	0	0	0	0	0	0	0	0	0	0	0	0	0	0	0	0	0	1	0	0	17.883	2.027	16.961	0	0	0	0	0	0	0	0	0	0	0	0	0	-1	0	-2.0278	-17.891	16.968	0	0	0	1	0	0	17.47	2.0148	16.554	2
2194	21.94	0	0	0	0	0	0	0	0	0	0	0	0	0	0	0	0	0	0	0	0	0	0	0	0	0	0	0	0	0	0	1	0	0	17.761	2.1499	16.789	0	0	0	0	0	0	0	0	0	0	0	0	0	0	0	0	0	0	0	0	0	1	0	0	17.47	2.0148	16.554	2
2195	21.95	0	0	0	0	0	0	0	0	0	0	0	0	0	0	0	0	0	0	0	0	0	0	0	0	0	0	0	0	0	0	0	0	0	0	0	0	0	0	0	0	0	0	10.996	-10.996	19.046	0	0	0	0	-1	0	-2.0278	-17.891	16.968	0	0	0	0	0	0	0	0	0	2
2196	21.96	0	0	0	0	0	0	0	0	0	0	0	0	0	0	0	0	0	0	0	0	0	0	0	0	0	0	0	0	0	0	0	0	0	0	0	0	0	0	0	0	0	0	0	0	0	0	0	0	0	-1	0	-2.0278	-17.891	16.968	0	0	0	0	0	0	0	0	0	2
2197	21.97	0	0	0	0	0	0	0	0	0	0	0	0	0	0	0	0	0	0	0	0	0	0	0	0	0	0	0	0	0	0	0	0	0	10.991	-10.991	19.037	0	0	0	0	0	0	0	0	0	0	0	0	0	-1	0	-2.0278	-17.891	16.968	0	0	0	0	0	0	0	0	0	2
2198	21.98	0	0	0	0	0	0	0	0	0	0	0	0	0	0	0	0	0	0	0	0	0	0	0	0	0	0	0	0	0	0	0	0	0	0	0	0	0	0	0	0	0	0	0	0	0	0	0	0	0	0	0	0	0	0	0	0	0	0	0	0	0	0	0	2
2199	21.99	0	0	0	0	0	0	0	0	0	0	0	0	0	0	0	0	0	0	0	0	0	0	0	0	10.989	-10.989	19.033	0	0	0	1	0	0	17.883	2.027	16.961	0	0	0	0	0	0	0	0	0	0	0	0	0	-1	0	-2.0278	-17.891	16.968	0	0	0	1	0	0	17.471	2.0135	16.556	2
2200	22	0	0	0	0	0	0	0	0	0	0	0	0	0	0	0	0	0	0	0	0	0	0	0	0	0	0	0	0	0	0	1	0	0	17.883	2.027	16.961	0	0	0	0	0	0	10.996	-10.996	19.046	0	0	0	0	-1	0	-2.0278	-17.891	16.968	0	0	0	0	0	0	0	0	0	2
2201	22.01	0	0	0	0	0	0	0	0	0	0	0	0	0	0	0	0	0	0	0	0	0	0	0	0	0	0	0	0	0	0	0	0	0	0	0	0	0	0	0	0	0	0	0	0	0	0	0	0	0	-1	0	-2.0278	-17.891	16.968	0	0	0	1	0	0	17.471	2.0135	16.556	2
2202	22.02	0	0	0	0	0	0	0	0	0	0	0	0	0	0	0	0	0	0	0	0	0	0	0	0	0	0	0	0	0	0	1	0	0	17.883	2.027	16.961	0	0	0	0	0	0	0	0	0	0	0	0	0	-1	0	-2.0278	-17.891	16.968	0	0	0	1	0	0	17.47	2.0148	16.554	2
2203	22.03	0	0	0	0	0	0	0	0	0	0	0	0	0	0	0	0	0	0	0	0	0	0	0	0	0	0	0	0	0	0	0	0	0	0	0	0	0	0	0	0	0	0	0	0	0	0	0	0	0	-1	0	-2.0278	-17.891	16.968	0	0	0	0	0	0	0	0	0	2
2204	22.04	0	0	0	0	0	0	0	0	0	0	0	0	0	0	0	0	0	0	0	0	0	0	0	0	0	0	0	0	0	0	0	0	0	0	0	0	0	0	0	0	0	0	0	0	0	0	0	0	0	0	0	0	0	0	0	0	0	1	0	0	17.47	2.0148	16.554	2
2205	22.05	0	0	0	0	0	0	0	0	0	0	0	0	0	0	0	0	0	0	0	0	0	0	0	0	0	0	0	0	0	0	1	0	0	17.883	2.027	16.961	0	0	0	0	0	0	0	0	0	0	0	0	0	0	0	0	0	0	0	0	0	0	0	0	0	0	0	2
2206	22.06	0	0	0	0	0	0	0	0	0	0	0	0	0	0	0	0	0	0	0	0	0	0	0	0	0	0	0	0	0	0	0	0	0	0	0	0	0	0	0	0	0	0	0	0	0	0	0	0	0	-1	0	-2.0278	-17.891	16.968	0	0	0	1	0	0	17.471	2.0135	16.556	2
2207	22.07	0	0	0	0	0	0	0	0	0	0	0	0	0	0	0	0	0	0	0	0	0	0	0	0	0	0	0	0	0	0	1	0	0	17.883	2.027	16.961	0	0	0	0	0	0	0	0	0	0	0	0	0	0	0	0	0	0	0	0	0	1	0	0	17.47	2.0148	16.554	2
2208	22.08	0	0	0	0	0	0	0	0	0	0	0	0	0	0	0	0	0	0	0	0	0	0	0	0	0	0	0	0	0	0	0	0	0	0	0	0	0	0	0	0	0	0	0	0	0	0	0	0	0	0	0	0	0	0	0	0	0	0	0	0	0	0	0	2
2209	22.09	0	0	0	0	0	0	0	0	0	0	0	0	0	0	0	0	0	0	0	0	0	0	0	0	0	0	0	0	0	0	1	0	0	17.761	2.1499	16.789	0	0	0	0	0	0	0	0	0	0	0	0	0	-1	0	-2.0278	-17.891	16.968	0	0	0	1	0	0	17.47	2.0148	16.554	0
2210	22.1	0	0	0	0	0	0	0	0	0	0	0	0	0	0	0	0	0	0	0	0	0	0	0	0	0	0	0	0	0	0	0	0	0	0	0	0	0	0	0	0	0	0	0	0	0	0	0	0	0	-1	0	-2.0278	-17.891	16.968	0	0	0	0	0	0	0	0	0	0
2211	22.11	0	0	0	0	0	0	0	0	0	0	0	0	0	0	0	0	0	0	0	0	0	0	0	0	0	0	0	0	0	0	1	0	0	17.761	2.1499	16.789	0	0	0	0	0	0	0	0	0	0	0	0	0	-1	0	-2.0278	-17.891	16.968	0	0	0	0	0	0	0	0	0	2
2212	22.12	0	0	0	0	0	0	0	0	0	0	0	0	0	0	0	0	0	0	0	0	0	0	0	0	0	0	0	0	0	0	0	0	0	0	0	0	0	0	0	0	0	0	10.996	-10.996	19.046	0	0	0	0	-1	0	-2.0278	-17.891	16.968	0	0	0	1	0	0	17.47	2.0148	16.554	2
2213	22.13	0	0	0	0	0	0	0	0	0	0	0	0	0	0	0	0	0	0	0	0	0	0	0	0	0	0	0	0	0	0	0	0	0	10.991	-10.991	19.037	0	0	0	0	0	0	0	0	0	0	0	0	0	-1	0	-2.0278	-17.891	16.968	0	0	0	0	0	0	0	0	0	2
2214	22.14	0	0	0	0	0	0	0	0	0	0	0	0	0	0	0	0	0	0	0	0	0	0	0	0	0	0	0	0	0	0	1	0	0	17.761	2.1499	16.789	0	0	0	0	0	0	0	0	0	0	0	0	0	-1	0	-2.0278	-17.891	16.968	0	0	0	0	0	0	0	0	0	2
2215	22.15	0	0	0	0	0	0	0	0	0	0	0	0	0	0	0	0	0	0	0	0	0	0	0	0	0	0	0	0	0	0	0	0	0	0	0	0	0	0	0	0	0	0	10.996	-10.996	19.046	0	0	0	0	-1	0	-2.0278	-17.891	16.968	0	0	0	0	0	0	0	0	0	2
2216	22.16	0	0	0	0	0	0	0	0	0	0	0	0	0	0	0	0	0	0	0	0	0	0	0	0	0	0	0	0	0	0	0	0	0	10.991	-10.991	19.037	0	0	0	0	0	0	0	0	0	0	0	0	0	-1	0	-2.0278	-17.891	16.968	0	0	0	0	0	0	0	0	0	2
2217	22.17	0	0	0	0	0	0	0	0	0	0	0	0	0	0	0	0	0	0	0	0	0	0	0	0	0	0	0	0	0	0	1	0	0	17.883	2.027	16.961	0	0	0	0	0	0	0	0	0	0	0	0	0	-1	0	-2.0278	-17.891	16.968	0	0	0	1	0	0	17.47	2.0148	16.554	2
2218	22.18	0	0	0	0	0	0	0	0	0	0	0	0	0	0	0	0	0	0	0	0	0	0	0	0	0	0	0	0	0	0	0	0	0	0	0	0	0	0	0	0	0	0	0	0	0	0	0	0	0	-1	0	-2.0278	-17.891	16.968	0	0	0	1	0	0	17.47	2.0148	16.554	2
2219	22.19	0	0	0	0	0	0	10.917	-10.917	18.908	0	0	0	0	0	0	0	0	0	0	0	0	0	0	0	0	0	0	0	0	0	1	0	0	17.761	2.1499	16.789	0	0	0	0	0	0	0	0	0	0	0	0	0	-1	0	-2.0278	-17.891	16.968	0	0	0	0	0	0	0	0	0	2
2220	22.2	0	0	0	0	0	0	0	0	0	0	0	0	0	0	0	0	0	0	0	0	0	0	0	0	0	0	0	0	0	0	0	0	0	10.991	-10.991	19.037	0	0	0	0	0	0	10.996	-10.996	19.046	0	0	0	0	-1	0	-2.0278	-17.891	16.968	0	0	0	0	0	0	0	0	0	2
2221	22.21	0	0	0	0	0	0	0	0	0	0	0	0	0	0	0	0	0	0	0	0	0	0	0	0	0	0	0	0	0	0	0	0	0	10.991	-10.991	19.037	0	0	0	0	0	0	0	0	0	0	0	0	0	-1	0	-2.0278	-17.891	16.968	0	0	0	0	0	0	0	0	0	2
2222	22.22	0	0	0	0	0	0	0	0	0	0	0	0	0	0	0	0	0	0	0	0	0	0	0	0	0	0	0	0	0	0	1	0	0	17.761	2.1499	16.789	0	0	0	0	0	0	0	0	0	0	0	0	0	-1	0	-2.0278	-17.891	16.968	0	0	0	0	0	0	0	0	0	2
2223	22.23	0	0	0	0	0	0	0	0	0	0	0	0	0	0	0	0	0	0	0	0	0	0	0	0	10.989	-10.989	19.033	0	0	0	0	0	0	0	0	0	0	0	0	0	0	0	0	0	0	0	0	0	0	-1	0	-2.0278	-17.891	16.968	0	0	0	0	0	0	0	0	0	2
2224	22.24	0	0	0	0	0	0	0	0	0	0	0	0	0	0	0	0	0	0	0	0	0	0	0	0	0	0	0	0	0	0	1	0	0	17.883	2.027	16.961	0	0	0	0	0	0	0	0	0	0	0	0	0	-1	0	-2.0278	-17.891	16.968	0	0	0	1	0	0	17.47	2.0148	16.554	2
2225	22.25	0	0	0	0	0	0	0	0	0	0	0	0	0	0	0	0	0	0	0	0	0	0	0	0	0	0	0	0	0	0	0	0	0	0	0	0	0	0	0	0	0	0	0	0	0	0	0	0	0	-1	0	-2.0278	-17.891	16.968	0	0	0	0	0	0	0	0	0	2
2226	22.26	0	0	0	0	0	0	0	0	0	0	0	0	0	0	0	0	0	0	0	0	0	0	0	0	0	0	0	0	0	0	1	0	0	17.761	2.1499	16.789	0	0	0	0	0	0	0	0	0	0	0	0	0	-1	0	-2.0278	-17.891	16.968	0	0	0	1	0	0	17.47	2.0148	16.554	2
2227	22.27	0	0	0	0	0	0	0	0	0	0	0	0	0	0	0	0	0	0	0	0	0	0	0	0	0	0	0	0	0	0	0	0	0	0	0	0	0	0	0	0	0	0	0	0	0	0	0	0	0	-1	0	-2.0278	-17.891	16.968	0	0	0	1	0	0	17.47	2.0148	16.554	2
2228	22.28	0	0	0	0	0	0	0	0	0	0	0	0	0	0	0	0	0	0	0	0	0	0	0	0	0	0	0	0	0	0	0	0	0	0	0	0	0	0	0	0	0	0	0	0	0	0	0	0	0	-1	0	-2.0278	-17.891	16.968	0	0	0	1	0	0	17.47	2.0148	16.554	2
2229	22.29	0	0	0	0	0	0	0	0	0	0	0	0	0	0	0	0	0	0	0	0	0	0	0	0	0	0	0	0	0	0	1	0	0	17.761	2.1499	16.789	0	0	0	0	0	0	0	0	0	0	0	0	0	-1	0	-2.0278	-17.891	16.968	0	0	0	0	0	0	10.93	-10.93	18.931	2
2230	22.3	0	0	0	0	0	0	0	0	0	0	0	0	0	0	0	0	0	0	0	0	0	0	0	0	0	0	0	0	0	0	0	0	0	0	0	0	0	0	0	0	0	0	0	0	0	0	0	0	0	-1	0	-2.0278	-17.891	16.968	0	0	0	1	0	0	17.47	2.0148	16.554	2
2231	22.31	0	0	0	0	0	0	0	0	0	0	0	0	0	0	0	0	0	0	0	0	0	0	0	0	0	0	0	0	0	0	1	0	0	17.761	2.1499	16.789	0	0	0	0	0	0	0	0	0	0	0	0	0	-1	0	-2.0278	-17.891	16.968	0	0	0	0	0	0	0	0	0	2
2232	22.32	0	0	0	0	0	0	0	0	0	0	0	0	0	0	0	0	0	0	0	0	0	0	0	0	0	0	0	0	0	0	0	0	0	0	0	0	0	0	0	0	-1	0	-2.1508	-17.769	16.797	0	0	0	0	-1	0	-2.0278	-17.891	16.968	0	0	0	0	0	0	0	0	0	2
2233	22.33	0	0	0	0	0	0	0	0	0	0	0	0	0	0	0	0	0	0	0	0	0	0	0	0	0	0	0	0	0	0	0	0	0	10.991	-10.991	19.037	0	0	0	0	0	0	0	0	0	0	0	0	0	-1	0	-2.0278	-17.891	16.968	0	0	0	0	0	0	0	0	0	2
2234	22.34	0	0	0	0	0	0	0	0	0	0	0	0	0	0	0	0	0	0	0	0	0	0	0	0	0	0	0	0	0	0	0	0	0	10.991	-10.991	19.037	0	0	0	0	0	0	0	0	0	0	0	0	0	-1	0	-2.0278	-17.891	16.968	0	0	0	0	0	0	0	0	0	2
2235	22.35	0	0	0	0	0	0	0	0	0	0	0	0	0	0	0	0	0	0	0	0	0	0	0	0	0	0	0	0	0	0	0	0	0	10.991	-10.991	19.037	0	0	0	0	0	0	0	0	0	0	0	0	0	-1	0	-2.0278	-17.891	16.968	0	0	0	0	0	0	0	0	0	2
2236	22.36	0	0	0	0	0	0	0	0	0	0	0	0	0	0	0	0	0	0	0	0	0	0	0	0	0	0	0	0	0	0	1	0	0	17.761	2.1499	16.789	0	0	0	0	0	0	0	0	0	0	0	0	0	-1	0	-2.0278	-17.891	16.968	0	0	0	1	0	0	17.47	2.0148	16.554	2
2237	22.37	0	0	0	0	0	0	0	0	0	0	0	0	0	0	0	0	0	0	0	0	0	0	0	0	0	0	0	0	0	0	1	0	0	17.883	2.027	16.961	0	0	0	0	0	0	0	0	0	0	0	0	0	-1	0	-2.0278	-17.891	16.968	0	0	0	1	0	0	17.47	2.0148	16.554	2
2238	22.38	0	0	0	0	0	0	0	0	0	0	0	0	0	0	0	0	0	0	0	0	0	0	0	0	0	0	0	0	0	0	1	0	0	17.883	2.027	16.961	0	0	0	0	0	0	0	0	0	0	0	0	0	-1	0	-2.0278	-17.891	16.968	0	0	0	0	0	0	0	0	0	2
2239	22.39	0	0	0	0	0	0	0	0	0	0	0	0	0	0	0	0	0	0	0	0	0	0	0	0	0	0	0	0	0	0	0	0	0	10.991	-10.991	19.037	0	0	0	0	-1	0	-2.0279	-17.891	16.969	0	0	0	0	-1	0	-2.0278	-17.891	16.968	0	0	0	0	0	0	0	0	0	2
2240	22.4	0	0	0	0	0	0	0	0	0	0	0	0	0	0	0	0	0	0	0	0	0	0	0	0	0	0	0	0	0	0	1	0	0	17.883	2.027	16.961	0	0	0	0	0	0	0	0	0	0	0	0	0	-1	0	-2.0278	-17.891	16.968	0	0	0	0	0	0	0	0	0	2
2241	22.41	0	0	0	0	0	0	0	0	0	0	0	0	0	0	0	0	0	0	0	0	0	0	0	0	0	0	0	0	0	0	1	0	0	17.761	2.1499	16.789	0	0	0	0	0	0	0	0	0	0	0	0	0	-1	0	-2.0278	-17.891	16.968	0	0	0	1	0	0	17.47	2.0148	16.554	2
2242	22.42	0	0	0	0	0	0	0	0	0	0	0	0	0	0	0	0	0	0	0	0	0	0	0	0	0	0	0	0	0	0	0	0	0	0	0	0	0	0	0	0	0	0	0	0	0	0	0	0	0	-1	0	-2.0278	-17.891	16.968	0	0	0	1	0	0	17.47	2.0148	16.554	2
2243	22.43	0	0	0	0	0	0	0	0	0	0	0	0	0	0	0	0	0	0	0	0	0	0	0	0	0	0	0	0	0	0	0	0	0	0	0	0	0	0	0	0	0	0	0	0	0	0	0	0	0	-1	0	-2.0278	-17.891	16.968	0	0	0	0	0	0	0	0	0	2
2244	22.44	0	0	0	0	0	0	0	0	0	0	0	0	0	0	0	0	0	0	0	0	0	0	0	0	10.989	-10.989	19.033	0	0	0	1	0	0	17.883	2.027	16.961	0	0	0	0	0	0	0	0	0	0	0	0	0	0	0	0	0	0	0	0	0	1	0	0	17.47	2.0148	16.554	2
2245	22.45	0	0	0	0	0	0	0	0	0	0	0	0	0	0	0	0	0	0	0	0	0	0	0	0	0	0	0	0	0	0	1	0	0	17.883	2.027	16.961	0	0	0	0	0	0	0	0	0	0	0	0	0	-1	0	-2.0278	-17.891	16.968	0	0	0	0	0	0	0	0	0	2
2246	22.46	0	0	0	0	0	0	0	0	0	0	0	0	0	0	0	0	0	0	0	0	0	0	0	0	10.989	-10.989	19.033	0	0	0	1	0	0	17.761	2.1499	16.789	0	0	0	0	0	0	0	0	0	0	0	0	0	0	0	0	0	0	0	0	0	1	0	0	17.47	2.0148	16.554	2
2247	22.47	0	0	0	0	0	0	0	0	0	0	0	0	0	0	0	0	0	0	0	0	0	0	0	0	0	0	0	0	0	0	0	0	0	10.991	-10.991	19.037	0	0	0	0	0	0	10.996	-10.996	19.046	0	0	0	0	-1	0	-2.0278	-17.891	16.968	0	0	0	0	0	0	0	0	0	2
2248	22.48	0	0	0	0	0	0	0	0	0	0	0	0	0	0	0	0	0	0	0	0	0	0	0	0	10.989	-10.989	19.033	0	0	0	0	0	0	0	0	0	0	0	0	0	0	0	0	0	0	0	0	0	0	-1	0	-2.0278	-17.891	16.968	0	0	0	0	0	0	0	0	0	2
2249	22.49	0	0	0	0	0	0	0	0	0	0	0	0	0	0	0	0	0	0	0	0	0	0	0	0	0	0	0	0	0	0	1	0	0	17.883	2.027	16.961	0	0	0	0	0	0	0	0	0	0	0	0	0	-1	0	-2.0278	-17.891	16.968	0	0	0	1	0	0	17.47	2.0148	16.554	2
2250	22.5	0	0	0	0	0	0	0	0	0	0	0	0	0	0	0	0	0	0	0	0	0	0	0	0	0	0	0	0	0	0	0	0	0	0	0	0	0	0	0	0	-1	0	-2.0279	-17.891	16.969	0	0	0	0	0	0	0	0	0	0	0	0	0	0	0	0	0	0	2
2251	22.51	0	0	0	0	0	0	0	0	0	0	0	0	0	0	0	0	0	0	0	0	0	0	0	0	0	0	0	0	0	0	1	0	0	17.761	2.1499	16.789	0	0	0	0	0	0	0	0	0	0	0	0	0	0	0	0	0	0	0	0	0	0	0	0	0	0	0	2
2252	22.52	0	0	0	0	0	0	0	0	0	0	0	0	0	0	0	0	0	0	0	0	0	0	0	0	0	0	0	0	0	0	1	0	0	17.883	2.027	16.961	0	0	0	0	0	0	0	0	0	0	0	0	0	0	0	0	0	0	0	0	0	0	0	0	0	0	0	2
2253	22.53	0	0	0	0	0	0	0	0	0	0	0	0	0	0	0	0	0	0	0	0	0	0	0	0	0	0	0	0	0	0	0	0	0	0	0	0	0	0	0	0	0	0	10.996	-10.996	19.046	0	0	0	0	-1	0	-2.0278	-17.891	16.968	0	0	0	0	0	0	0	0	0	0
2254	22.54	0	0	0	0	0	0	0	0	0	0	0	0	0	0	0	0	0	0	0	0	0	0	0	0	0	0	0	0	0	0	1	0	0	17.761	2.1499	16.789	0	0	0	0	0	0	0	0	0	0	0	0	0	-1	0	-2.0278	-17.891	16.968	0	0	0	1	0	0	17.47	2.0148	16.554	2
2255	22.55	0	0	0	0	0	0	0	0	0	0	0	0	0	0	0	0	0	0	0	0	0	0	0	0	0	0	0	0	0	0	0	0	0	0	0	0	0	0	0	0	0	0	0	0	0	0	0	0	0	-1	0	-2.0278	-17.891	16.968	0	0	0	0	0	0	0	0	0	2
2256	22.56	0	0	0	0	0	0	0	0	0	0	0	0	0	0	0	0	0	0	0	0	0	0	0	0	0	0	0	0	0	0	1	0	0	17.883	2.027	16.961	0	0	0	0	0	0	0	0	0	0	0	0	0	-1	0	-2.0278	-17.891	16.968	0	0	0	1	0	0	17.471	2.0135	16.556	2
2257	22.57	0	0	0	0	0	0	0	0	0	0	0	0	0	0	0	0	0	0	0	0	0	0	0	0	0	0	0	0	0	0	0	0	0	0	0	0	0	0	0	0	0	0	0	0	0	0	0	0	0	-1	0	-2.0278	-17.891	16.968	0	0	0	0	0	0	0	0	0	2
2258	22.58	0	0	0	0	0	0	0	0	0	0	0	0	0	0	0	0	0	0	0	0	0	0	0	0	0	0	0	0	0	0	0	0	0	0	0	0	0	0	0	0	0	0	0	0	0	0	0	0	0	-1	0	-2.0278	-17.891	16.968	0	0	0	0	0	0	0	0	0	2
2259	22.59	0	0	0	0	0	0	0	0	0	0	0	0	0	0	0	0	0	0	0	0	0	0	0	0	0	0	0	0	0	0	1	0	0	17.883	2.027	16.961	0	0	0	0	0	0	0	0	0	0	0	0	0	0	0	0	0	0	0	0	0	0	0	0	0	0	0	2
2260	22.6	0	0	0	0	0	0	0	0	0	0	0	0	0	0	0	0	0	0	0	0	0	0	0	0	0	0	0	0	0	0	0	0	0	0	0	0	0	0	0	0	0	0	0	0	0	0	0	0	0	-1	0	-2.0278	-17.891	16.968	0	0	0	0	0	0	0	0	0	2
2261	22.61	0	0	0	0	0	0	10.917	-10.917	18.908	0	0	0	0	0	0	0	0	0	0	0	0	0	0	0	0	0	0	0	0	0	0	0	0	10.991	-10.991	19.037	0	0	0	0	0	0	0	0	0	0	0	0	0	-1	0	-2.0278	-17.891	16.968	0	0	0	0	0	0	0	0	0	2
2262	22.62	0	0	0	0	0	0	0	0	0	0	0	0	0	0	0	0	0	0	0	0	0	0	0	0	0	0	0	0	0	0	0	0	0	0	0	0	0	0	0	0	0	0	10.996	-10.996	19.046	0	0	0	0	-1	0	-2.0278	-17.891	16.968	0	0	0	0	0	0	0	0	0	2
2263	22.63	0	0	0	0	0	0	0	0	0	0	0	0	0	0	0	0	0	0	0	0	0	0	0	0	0	0	0	0	0	0	1	0	0	17.883	2.027	16.961	0	0	0	0	0	0	0	0	0	0	0	0	1	-1	0	7.5503	-27.469	31.921	0	0	0	0	0	0	0	0	0	2
2264	22.64	0	0	0	0	0	0	0	0	0	0	0	0	0	0	0	0	0	0	0	0	0	0	0	0	10.989	-10.989	19.033	0	0	0	1	0	0	17.883	2.027	16.961	0	0	0	0	0	0	0	0	0	0	0	0	0	-1	0	-2.0278	-17.891	16.968	0	0	0	1	0	0	17.47	2.0148	16.554	2
2265	22.65	0	0	0	0	0	0	0	0	0	0	0	0	0	0	0	0	0	0	0	0	0	0	0	0	0	0	0	0	0	0	0	0	0	0	0	0	0	0	0	0	0	0	10.996	-10.996	19.046	0	0	0	0	-1	0	-2.0278	-17.891	16.968	0	0	0	0	0	0	0	0	0	2
2266	22.66	0	0	0	0	0	0	0	0	0	0	0	0	0	0	0	0	0	0	0	0	0	0	0	0	0	0	0	0	0	0	0	0	0	0	0	0	0	0	0	0	0	0	0	0	0	0	0	0	0	0	0	0	0	0	0	0	0	1	0	0	17.471	2.0135	16.556	2
2267	22.67	0	0	0	0	0	0	0	0	0	0	0	0	0	0	0	0	0	0	0	0	0	0	0	0	0	0	0	0	0	0	0	0	0	0	0	0	0	0	0	0	0	0	0	0	0	0	0	0	0	-1	0	-2.0278	-17.891	16.968	0	0	0	0	0	0	0	0	0	2
2268	22.68	0	0	0	0	0	0	0	0	0	0	0	0	0	0	0	0	0	0	0	0	0	0	0	0	0	0	0	0	0	0	1	0	0	17.883	2.027	16.961	0	0	0	0	0	0	0	0	0	0	0	0	0	-1	0	-2.0278	-17.891	16.968	0	0	0	1	0	0	17.47	2.0148	16.554	2
2269	22.69	0	0	0	0	0	0	0	0	0	0	0	0	0	0	0	0	0	0	0	0	0	1	0	0	17.876	2.0262	16.954	0	0	0	0	0	0	0	0	0	0	0	0	0	0	0	0	0	0	0	0	0	0	0	0	0	0	0	0	0	0	1	0	0	17.47	2.0148	16.554	2
2270	22.7	0	0	0	0	0	0	0	0	0	0	0	0	0	0	0	0	0	0	0	0	0	0	0	0	10.989	-10.989	19.033	0	0	0	1	0	0	17.883	2.027	16.961	0	0	0	0	0	0	0	0	0	0	0	0	0	-1	0	-2.0278	-17.891	16.968	0	0	0	0	0	0	0	0	0	2
2271	22.71	0	0	0	0	0	0	0	0	0	0	0	0	0	0	0	0	0	0	0	0	0	0	0	0	0	0	0	0	0	0	0	0	0	10.991	-10.991	19.037	0	0	0	0	0	0	0	0	0	0	0	0	0	-1	0	-2.0278	-17.891	16.968	0	0	0	0	0	0	0	0	0	2
2272	22.72	0	0	0	0	0	0	10.917	-10.917	18.908	0	0	0	0	0	0	0	0	0	0	0	0	0	0	0	10.989	-10.989	19.033	0	0	0	0	0	0	0	0	0	0	0	0	0	0	0	10.996	-10.996	19.046	0	0	0	0	-1	0	-2.0278	-17.891	16.968	0	0	0	0	0	0	0	0	0	2
2273	22.73	0	0	0	0	0	0	0	0	0	0	0	0	0	0	0	0	0	0	0	0	0	0	0	0	10.989	-10.989	19.033	0	0	0	0	0	0	0	0	0	0	0	0	0	0	0	0	0	0	0	0	0	0	-1	0	-2.0278	-17.891	16.968	0	0	0	0	0	0	0	0	0	0
2274	22.74	0	0	0	0	0	0	0	0	0	0	0	0	0	0	0	0	0	0	0	0	0	0	0	0	0	0	0	0	0	0	1	0	0	17.883	2.027	16.961	0	0	0	0	0	0	0	0	0	0	0	0	0	-1	0	-2.0278	-17.891	16.968	0	0	0	0	0	0	10.93	-10.93	18.931	2
2275	22.75	0	0	0	0	0	0	0	0	0	0	0	0	0	0	0	0	0	0	0	0	0	0	0	0	0	0	0	0	0	0	0	0	0	0	0	0	0	0	0	0	0	0	10.996	-10.996	19.046	0	0	0	0	-1	0	-2.0278	-17.891	16.968	0	0	0	0	0	0	0	0	0	2
2276	22.76	0	0	0	0	0	0	0	0	0	0	0	0	0	0	0	0	0	0	0	0	0	0	0	0	0	0	0	0	0	0	0	0	0	0	0	0	0	0	0	0	0	0	0	0	0	0	0	0	0	-1	0	-2.0278	-17.891	16.968	0	0	0	0	0	0	0	0	0	2
2277	22.77	0	0	0	0	0	0	0	0	0	0	0	0	0	0	0	0	0	0	0	0	0	0	0	0	0	0	0	0	0	0	0	0	0	10.991	-10.991	19.037	0	0	0	0	0	0	0	0	0	0	0	0	0	-1	0	-2.0278	-17.891	16.968	0	0	0	1	0	0	17.47	2.0148	16.554	2
2278	22.78	0	0	0	0	0	0	0	0	0	0	0	0	0	0	0	0	0	0	0	0	0	0	0	0	0	0	0	0	0	0	0	0	0	0	0	0	0	0	0	0	0	0	0	0	0	0	0	0	0	-1	0	-2.0278	-17.891	16.968	0	0	0	0	0	0	0	0	0	2
2279	22.79	0	0	0	0	0	0	0	0	0	0	0	0	0	0	0	0	0	0	0	0	0	0	0	0	0	0	0	0	0	0	0	0	0	0	0	0	0	0	0	0	0	0	0	0	0	0	0	0	0	0	0	0	0	0	0	0	0	1	0	0	17.47	2.0148	16.554	2
2280	22.8	0	0	0	0	0	0	0	0	0	0	0	0	0	0	0	0	0	0	0	0	0	0	0	0	0	0	0	0	0	0	1	0	0	17.883	2.027	16.961	0	0	0	0	0	0	0	0	0	0	0	0	0	-1	0	-2.0278	-17.891	16.968	0	0	0	0	0	0	0	0	0	2
2281	22.81	0	0	0	0	0	0	0	0	0	0	0	0	0	0	0	0	0	0	0	0	0	0	0	0	0	0	0	0	0	0	0	0	0	0	0	0	0	0	0	0	0	0	0	0	0	0	0	0	0	-1	0	-2.0278	-17.891	16.968	0	0	0	1	0	0	17.47	2.0148	16.554	2
2282	22.82	0	0	0	0	0	0	0	0	0	0	0	0	0	0	0	0	0	0	0	0	0	0	0	0	0	0	0	0	0	0	0	0	0	0	0	0	0	0	0	0	0	0	0	0	0	0	0	0	0	-1	0	-2.0278	-17.891	16.968	0	0	0	0	0	0	0	0	0	2
2283	22.83	0	0	0	0	0	0	0	0	0	0	0	0	0	0	0	0	0	0	0	0	0	0	0	0	0	0	0	0	0	0	0	0	0	10.991	-10.991	19.037	0	0	0	0	0	0	0	0	0	0	0	0	0	-1	0	-2.0278	-17.891	16.968	0	0	0	1	0	0	17.47	2.0148	16.554	2
2284	22.84	0	0	0	0	0	0	0	0	0	0	0	0	0	0	0	0	0	0	0	0	0	0	0	0	0	0	0	0	0	0	1	0	0	17.883	2.027	16.961	0	0	0	0	0	0	0	0	0	0	0	0	0	-1	0	-2.0278	-17.891	16.968	0	0	0	0	0	0	0	0	0	2
2285	22.85	0	0	0	0	0	0	0	0	0	0	0	0	0	0	0	0	0	0	0	0	0	0	0	0	0	0	0	0	0	0	0	0	0	0	0	0	0	0	0	0	0	0	0	0	0	0	0	0	0	-1	0	-2.0278	-17.891	16.968	0	0	0	0	0	0	0	0	0	0
2286	22.86	0	0	0	0	0	0	10.917	-10.917	18.908	0	0	0	0	0	0	0	0	0	0	0	0	0	0	0	0	0	0	0	0	0	0	0	0	0	0	0	0	0	0	0	0	0	0	0	0	0	0	0	0	-1	0	-2.0278	-17.891	16.968	0	0	0	0	0	0	0	0	0	2
2287	22.87	0	0	0	0	0	0	0	0	0	0	0	0	0	0	0	0	0	0	0	0	0	0	0	0	0	0	0	0	0	0	0	0	0	0	0	0	0	0	0	0	0	0	0	0	0	0	0	0	0	-1	0	-2.0278	-17.891	16.968	0	0	0	0	0	0	0	0	0	2
2288	22.88	0	0	0	0	0	0	0	0	0	0	0	0	0	0	0	0	0	0	0	0	0	0	0	0	0	0	0	0	0	0	0	0	0	0	0	0	0	0	0	0	0	0	0	0	0	0	0	0	0	-1	0	-2.0278	-17.891	16.968	0	0	0	0	0	0	0	0	0	2
2289	22.89	0	0	0	0	0	0	0	0	0	0	0	0	0	0	0	0	0	0	0	0	0	0	0	0	0	0	0	0	0	0	1	0	0	17.883	2.027	16.961	0	0	0	0	0	0	0	0	0	0	0	0	0	-1	0	-2.0278	-17.891	16.968	0	0	0	0	0	0	0	0	0	2
2290	22.9	0	0	0	0	0	0	0	0	0	0	0	0	0	0	0	0	0	0	0	0	0	0	0	0	0	0	0	0	0	0	0	0	0	0	0	0	0	0	0	0	0	0	0	0	0	0	0	0	0	-1	0	-2.0278	-17.891	16.968	0	0	0	0	0	0	0	0	0	2
2291	22.91	0	0	0	0	0	0	0	0	0	0	0	0	0	0	0	0	0	0	0	0	0	0	0	0	0	0	0	0	0	0	0	0	0	10.991	-10.991	19.037	0	0	0	0	0	0	0	0	0	0	0	0	0	-1	0	-2.0278	-17.891	16.968	0	0	0	0	0	0	10.93	-10.93	18.931	2
2292	22.92	0	0	0	0	0	0	0	0	0	0	0	0	0	0	0	0	0	0	0	0	0	0	0	0	10.989	-10.989	19.033	0	0	0	0	0	0	0	0	0	0	0	0	0	0	0	0	0	0	0	0	0	0	-1	0	-2.0278	-17.891	16.968	0	0	0	0	0	0	0	0	0	2
2293	22.93	0	0	0	0	0	0	0	0	0	0	0	0	0	0	0	0	0	0	0	0	0	0	0	0	0	0	0	0	0	0	1	0	0	17.883	2.027	16.961	0	0	0	0	0	0	0	0	0	0	0	0	0	-1	0	-2.0278	-17.891	16.968	0	0	0	1	0	0	17.47	2.0148	16.554	2
2294	22.94	0	0	0	0	0	0	0	0	0	0	0	0	0	0	0	0	0	0	0	0	0	0	0	0	0	0	0	0	0	0	0	0	0	0	0	0	0	0	0	0	0	0	0	0	0	0	0	0	0	-1	0	-2.0278	-17.891	16.968	0	0	0	0	0	0	0	0	0	2
2295	22.95	0	0	0	0	0	0	0	0	0	0	0	0	0	-1	0	-2.0372	-17.821	16.895	0	0	0	0	0	0	0	0	0	0	0	0	0	0	0	0	0	0	0	0	0	0	0	0	0	0	0	0	0	0	0	-1	0	-2.0278	-17.891	16.968	0	0	0	0	0	0	0	0	0	2
2296	22.96	0	0	0	0	0	0	0	0	0	0	0	0	0	0	0	0	0	0	0	0	0	0	0	0	0	0	0	0	0	0	1	0	0	17.883	2.027	16.961	0	0	0	0	0	0	0	0	0	0	0	0	0	-1	0	-2.0278	-17.891	16.968	0	0	0	0	0	0	0	0	0	2
2297	22.97	0	0	0	0	0	0	10.917	-10.917	18.908	0	0	0	0	0	0	0	0	0	0	0	0	0	0	0	0	0	0	0	0	0	0	0	0	10.991	-10.991	19.037	0	0	0	0	0	0	0	0	0	0	0	0	0	-1	0	-2.0278	-17.891	16.968	0	0	0	0	0	0	0	0	0	2
2298	22.98	0	0	0	0	0	0	0	0	0	0	0	0	0	0	0	0	0	0	0	0	0	0	0	0	0	0	0	0	0	0	0	0	0	0	0	0	0	0	0	0	0	0	0	0	0	0	0	0	0	0	0	0	0	0	0	0	0	0	0	0	0	0	0	2
2299	22.99	0	0	0	0	0	0	10.917	-10.917	18.908	0	0	0	0	0	0	0	0	0	0	0	0	0	0	0	0	0	0	0	0	0	0	0	0	0	0	0	0	0	0	0	0	0	0	0	0	0	0	0	0	0	0	0	0	0	0	0	0	1	0	0	17.47	2.0148	16.554	2
2300	23	0	0	0	0	0	0	0	0	0	0	0	0	0	0	0	0	0	0	0	0	0	0	0	0	0	0	0	0	0	0	0	0	0	0	0	0	0	0	0	0	0	0	0	0	0	0	0	0	0	-1	0	-2.0278	-17.891	16.968	0	0	0	0	0	0	0	0	0	3
2301	23.01	0	0	0	0	0	0	0	0	0	0	0	0	0	0	0	0	0	0	0	0	0	0	0	0	0	0	0	0	0	0	0	0	0	0	0	0	0	0	0	0	0	0	0	0	0	0	0	0	0	-1	0	-2.0278	-17.891	16.968	0	0	0	1	0	0	17.47	2.0148	16.554	2
2302	23.02	0	0	0	0	0	0	0	0	0	0	0	0	0	0	0	0	0	0	0	0	0	0	0	0	0	0	0	0	0	0	0	0	0	0	0	0	0	0	0	0	0	0	0	0	0	0	0	0	0	-1	0	-2.0278	-17.891	16.968	0	0	0	1	0	0	17.47	2.0148	16.554	2
2303	23.03	0	0	0	0	0	0	0	0	0	0	0	0	0	0	0	0	0	0	0	0	0	0	0	0	0	0	0	0	0	0	0	0	0	0	0	0	0	0	0	0	0	0	0	0	0	0	0	0	0	-1	0	-2.0278	-17.891	16.968	0	0	0	0	0	0	0	0	0	2
2304	23.04	0	0	0	0	0	0	0	0	0	0	0	0	0	0	0	0	0	0	0	0	0	0	0	0	0	0	0	0	0	0	1	0	0	17.883	2.027	16.961	0	0	0	0	0	0	0	0	0	0	0	0	0	-1	0	-2.0278	-17.891	16.968	0	0	0	0	0	0	0	0	0	2
2305	23.05	0	0	0	0	0	0	0	0	0	0	0	0	0	0	0	0	0	0	0	0	0	0	0	0	0	0	0	0	0	0	0	0	0	0	0	0	0	0	0	0	0	0	0	0	0	0	0	0	0	-1	0	-2.0278	-17.891	16.968	0	0	0	0	0	0	0	0	0	2
2306	23.06	0	0	0	0	0	0	0	0	0	0	0	0	0	0	0	0	0	0	0	0	0	0	0	0	0	0	0	0	0	0	0	0	0	0	0	0	0	0	0	0	0	0	0	0	0	0	0	0	0	-1	0	-2.0278	-17.891	16.968	0	0	0	1	0	0	17.47	2.0148	16.554	2
2307	23.07	0	0	0	0	0	0	0	0	0	0	0	0	0	0	0	0	0	0	0	0	0	0	0	0	0	0	0	0	0	0	1	0	0	17.883	2.027	16.961	0	0	0	0	0	0	0	0	0	0	0	0	0	-1	0	-2.0278	-17.891	16.968	0	0	0	0	0	0	0	0	0	2
2308	23.08	0	0	0	0	0	0	0	0	0	0	0	0	0	0	0	0	0	0	0	0	0	0	0	0	0	0	0	0	0	0	0	0	0	0	0	0	0	0	0	0	0	0	0	0	0	0	0	0	0	-1	0	-2.0278	-17.891	16.968	0	0	0	0	0	0	0	0	0	2
2309	23.09	0	0	0	0	0	0	10.917	-10.917	18.908	0	0	0	0	0	0	0	0	0	0	0	0	0	0	0	0	0	0	0	0	0	0	0	0	0	0	0	0	0	0	0	0	0	0	0	0	0	0	0	0	-1	0	-2.0278	-17.891	16.968	0	0	0	1	0	0	17.47	2.0148	16.554	2
2310	23.1	0	0	0	0	0	0	0	0	0	0	0	0	0	0	0	0	0	0	0	0	0	0	0	0	0	0	0	0	0	0	0	0	0	0	0	0	0	0	0	0	-1	0	-2.0279	-17.891	16.969	0	0	0	0	-1	0	-2.0278	-17.891	16.968	0	0	0	0	0	0	0	0	0	2
2311	23.11	0	0	0	0	0	0	0	0	0	0	0	0	0	-1	0	-2.0372	-17.821	16.895	0	0	0	0	0	0	0	0	0	0	0	0	0	0	0	0	0	0	0	0	0	0	0	0	0	0	0	0	0	0	0	-1	0	-2.0278	-17.891	16.968	0	0	0	0	0	0	0	0	0	2
2312	23.12	0	0	0	0	0	0	0	0	0	0	0	0	0	0	0	0	0	0	0	0	0	0	0	0	0	0	0	0	0	0	0	0	0	0	0	0	0	0	0	0	0	0	0	0	0	0	0	0	0	0	0	0	0	0	0	0	0	0	0	0	0	0	0	3
2313	23.13	0	0	0	0	0	0	0	0	0	0	0	0	0	0	0	0	0	0	0	0	0	0	0	0	0	0	0	0	0	0	0	0	0	0	0	0	0	0	0	0	0	0	0	0	0	0	0	0	0	-1	0	-2.0278	-17.891	16.968	0	0	0	0	0	0	0	0	0	2
2314	23.14	0	0	0	0	0	0	0	0	0	0	0	0	0	0	0	0	0	0	0	0	0	0	0	0	0	0	0	0	0	0	0	0	0	0	0	0	0	0	0	0	0	0	0	0	0	0	0	0	0	-1	0	-2.0278	-17.891	16.968	0	0	0	0	0	0	0	0	0	2
2315	23.15	0	0	0	0	0	0	0	0	0	0	0	0	0	0	0	0	0	0	0	0	0	0	0	0	0	0	0	0	0	0	0	0	0	0	0	0	0	0	0	0	0	0	0	0	0	0	0	0	0	-1	0	-2.0278	-17.891	16.968	0	0	0	0	0	0	0	0	0	2
2316	23.16	0	0	0	0	0	0	0	0	0	0	0	0	0	0	0	0	0	0	0	0	0	0	0	0	0	0	0	0	0	0	0	0	0	10.991	-10.991	19.037	0	0	0	0	0	0	0	0	0	0	0	0	0	0	0	0	0	0	0	0	0	0	0	0	0	0	0	2
2317	23.17	0	0	0	0	0	0	0	0	0	0	0	0	0	0	0	0	0	0	0	0	0	0	0	0	0	0	0	0	0	0	0	0	0	0	0	0	0	0	0	0	0	0	0	0	0	0	0	0	0	-1	0	-2.0278	-17.891	16.968	0	0	0	0	0	0	0	0	0	2
2318	23.18	0	0	0	0	0	0	0	0	0	0	0	0	0	0	0	0	0	0	0	0	0	0	0	0	0	0	0	0	0	0	0	0	0	0	0	0	0	0	0	0	0	0	0	0	0	0	0	0	0	-1	0	-2.0278	-17.891	16.968	0	0	0	0	0	0	0	0	0	2
2319	23.19	0	0	0	0	0	0	0	0	0	0	0	0	0	0	0	0	0	0	0	0	0	0	0	0	0	0	0	0	0	0	0	0	0	10.991	-10.991	19.037	0	0	0	0	0	0	0	0	0	0	0	0	0	-1	0	-2.0278	-17.891	16.968	0	0	0	0	0	0	0	0	0	2
2320	23.2	0	0	0	0	0	0	0	0	0	0	0	0	0	0	0	0	0	0	0	0	0	0	0	0	0	0	0	0	0	0	1	0	0	17.883	2.027	16.961	0	0	0	0	0	0	0	0	0	0	0	0	0	-1	0	-2.0278	-17.891	16.968	0	0	0	0	0	0	0	0	0	2
2321	23.21	0	0	0	0	0	0	0	0	0	0	0	0	0	0	0	0	0	0	0	0	0	0	0	0	0	0	0	0	0	0	0	0	0	10.991	-10.991	19.037	0	0	0	0	0	0	0	0	0	0	0	0	0	-1	0	-2.0278	-17.891	16.968	0	0	0	1	0	0	17.47	2.0148	16.554	2
2322	23.22	0	0	0	0	0	0	0	0	0	0	0	0	0	-1	0	-2.0372	-17.821	16.895	0	0	0	0	0	0	0	0	0	0	0	0	0	0	0	0	0	0	0	0	0	0	0	0	0	0	0	0	0	0	0	-1	0	-2.0278	-17.891	16.968	0	0	0	0	0	0	0	0	0	2
2323	23.23	0	0	0	0	0	0	0	0	0	0	0	0	0	0	0	0	0	0	0	0	0	0	0	0	0	0	0	0	0	0	0	0	0	10.991	-10.991	19.037	0	0	0	0	0	0	0	0	0	0	0	0	0	0	0	0	0	0	0	0	0	0	0	0	0	0	0	2
2324	23.24	0	0	0	0	0	0	0	0	0	0	0	0	0	0	0	0	0	0	0	0	0	0	0	0	0	0	0	0	0	0	1	0	0	17.883	2.027	16.961	0	0	0	0	0	0	0	0	0	0	0	0	0	-1	0	-2.0278	-17.891	16.968	0	0	0	1	0	0	17.47	2.0148	16.554	2
2325	23.25	0	0	0	0	0	0	0	0	0	0	0	0	0	-1	0	-2.0372	-17.821	16.895	0	0	0	0	0	0	0	0	0	0	0	0	0	0	0	0	0	0	0	0	0	0	0	0	0	0	0	0	0	0	0	-1	0	-2.0278	-17.891	16.968	0	0	0	0	0	0	0	0	0	2
2326	23.26	0	0	0	0	0	0	0	0	0	0	0	0	0	0	0	0	0	0	0	0	0	0	0	0	0	0	0	0	0	0	1	0	0	17.883	2.027	16.961	0	0	0	0	0	0	0	0	0	0	0	0	0	-1	0	-2.0278	-17.891	16.968	0	0	0	1	0	0	17.471	2.0135	16.556	2
2327	23.27	0	0	0	0	0	0	0	0	0	0	0	0	0	0	0	0	0	0	0	0	0	0	0	0	0	0	0	0	0	0	0	0	0	0	0	0	0	0	0	0	0	0	0	0	0	0	0	0	0	-1	0	-2.0278	-17.891	16.968	0	0	0	0	0	0	0	0	0	2
2328	23.28	0	0	0	0	0	0	0	0	0	0	0	0	0	0	0	0	0	0	0	0	0	0	0	0	0	0	0	0	0	0	1	0	0	17.761	2.1499	16.789	0	0	0	0	0	0	0	0	0	0	0	0	0	-1	0	-2.0278	-17.891	16.968	0	0	0	1	0	0	17.471	2.0135	16.556	2
2329	23.29	0	0	0	0	0	0	0	0	0	0	0	0	0	0	0	0	0	0	0	0	0	0	0	0	0	0	0	0	0	0	1	0	0	17.761	2.1499	16.789	0	0	0	0	0	0	0	0	0	0	0	0	0	-1	0	-2.0278	-17.891	16.968	0	0	0	0	0	0	10.93	-10.93	18.931	2
2330	23.3	0	0	0	0	0	0	0	0	0	0	0	0	0	0	0	0	0	0	0	0	0	0	0	0	0	0	0	0	0	0	0	0	0	0	0	0	0	0	0	0	0	0	10.996	-10.996	19.046	0	0	0	0	-1	0	-2.0278	-17.891	16.968	0	0	0	0	0	0	0	0	0	2
2331	23.31	0	0	0	0	0	0	0	0	0	0	0	0	0	0	0	0	0	0	0	0	0	0	0	0	0	0	0	0	0	0	0	0	0	0	0	0	0	0	0	0	0	0	0	0	0	0	0	0	0	-1	0	-2.0278	-17.891	16.968	0	0	0	0	0	0	0	0	0	2
2332	23.32	0	0	0	0	0	0	0	0	0	0	0	0	0	0	0	0	0	0	0	0	0	0	0	0	0	0	0	0	0	0	0	0	0	0	0	0	0	0	0	0	0	0	0	0	0	0	0	0	0	-1	0	-2.0278	-17.891	16.968	0	0	0	0	0	0	0	0	0	2
2333	23.33	0	0	0	0	0	0	0	0	0	0	0	0	0	0	0	0	0	0	0	0	0	0	0	0	0	0	0	0	0	0	0	0	0	0	0	0	0	0	0	0	0	0	0	0	0	0	0	0	0	0	0	0	0	0	0	0	0	0	0	0	0	0	0	2
2334	23.34	0	0	0	0	0	0	0	0	0	0	0	0	0	-1	0	-2.0372	-17.821	16.895	0	0	0	0	0	0	0	0	0	0	0	0	1	0	0	17.883	2.027	16.961	0	0	0	0	0	0	0	0	0	0	0	0	0	-1	0	-2.0278	-17.891	16.968	0	0	0	1	0	0	17.47	2.0148	16.554	2
2335	23.35	0	0	0	0	0	0	0	0	0	0	0	0	0	0	0	0	0	0	0	0	0	0	0	0	0	0	0	0	0	0	0	0	0	0	0	0	0	0	0	0	-1	0	-2.0279	-17.891	16.969	0	0	0	0	-1	0	-2.0278	-17.891	16.968	0	0	0	0	0	0	0	0	0	2
2336	23.36	0	0	0	0	0	0	0	0	0	0	0	0	0	0	0	0	0	0	0	0	0	0	0	0	0	0	0	0	0	0	0	0	0	0	0	0	0	0	0	0	0	0	0	0	0	0	0	0	0	-1	0	-2.0278	-17.891	16.968	0	0	0	1	0	0	17.47	2.0148	16.554	2
2337	23.37	0	0	0	0	0	0	0	0	0	0	0	0	0	0	0	0	0	0	0	0	0	0	0	0	0	0	0	0	0	0	0	0	0	0	0	0	0	0	0	0	0	0	0	0	0	0	0	0	0	-1	0	-2.0278	-17.891	16.968	0	0	0	0	0	0	0	0	0	0
2338	23.38	0	0	0	0	0	0	0	0	0	0	0	0	0	0	0	0	0	0	0	0	0	0	0	0	0	0	0	0	0	0	0	0	0	0	0	0	0	0	0	0	0	0	0	0	0	0	0	0	0	0	0	0	0	0	0	0	0	1	0	0	17.47	2.0148	16.554	2
2339	23.39	0	0	0	0	0	0	0	0	0	0	0	0	0	0	0	0	0	0	0	0	0	0	0	0	10.989	-10.989	19.033	0	0	0	0	0	0	0	0	0	0	0	0	0	0	0	0	0	0	0	0	0	0	-1	0	-2.0278	-17.891	16.968	0	0	0	1	0	0	17.47	2.0148	16.554	2
2340	23.4	0	0	0	0	0	0	0	0	0	0	0	0	0	0	0	0	0	0	0	0	0	0	0	0	0	0	0	0	0	0	0	0	0	0	0	0	0	0	0	0	0	0	0	0	0	0	0	0	0	0	0	0	0	0	0	0	0	0	0	0	0	0	0	2
2341	23.41	0	0	0	0	0	0	0	0	0	0	0	0	0	0	0	0	0	0	0	0	0	0	0	0	0	0	0	0	0	0	1	0	0	17.883	2.027	16.961	0	0	0	0	0	0	0	0	0	0	0	0	0	-1	0	-2.0278	-17.891	16.968	0	0	0	1	0	0	17.47	2.0148	16.554	2
2342	23.42	0	0	0	0	0	0	0	0	0	0	0	0	0	0	0	0	0	0	0	0	0	0	0	0	0	0	0	0	0	0	0	0	0	0	0	0	0	0	0	0	0	0	0	0	0	0	0	0	0	-1	0	-2.0278	-17.891	16.968	0	0	0	0	0	0	0	0	0	2
2343	23.43	0	0	0	0	0	0	0	0	0	0	0	0	0	0	0	0	0	0	0	0	0	0	0	0	0	0	0	0	0	0	0	0	0	0	0	0	0	0	0	0	0	0	0	0	0	0	0	0	0	0	0	0	0	0	0	0	0	1	0	0	17.47	2.0148	16.554	2
2344	23.44	0	0	0	0	0	0	0	0	0	0	0	0	0	0	0	0	0	0	0	0	0	0	0	0	0	0	0	0	0	0	1	0	0	17.761	2.1499	16.789	0	0	0	0	0	0	0	0	0	0	0	0	0	-1	0	-2.0278	-17.891	16.968	0	0	0	1	0	0	17.47	2.0148	16.554	2
2345	23.45	0	0	0	0	0	0	0	0	0	0	0	0	0	0	0	0	0	0	0	0	0	0	0	0	0	0	0	0	0	0	0	0	0	0	0	0	0	0	0	0	0	0	0	0	0	0	0	0	0	-1	0	-2.0278	-17.891	16.968	0	0	0	0	0	0	0	0	0	2
2346	23.46	0	0	0	0	0	0	0	0	0	0	0	0	0	0	0	0	0	0	0	0	0	0	0	0	0	0	0	0	0	0	1	0	0	17.883	2.027	16.961	0	0	0	0	0	0	0	0	0	0	0	0	0	-1	0	-2.0278	-17.891	16.968	0	0	0	0	0	0	0	0	0	2
2347	23.47	0	0	0	0	0	0	0	0	0	0	0	0	0	0	0	0	0	0	0	0	0	0	0	0	10.989	-10.989	19.033	0	0	0	0	0	0	10.991	-10.991	19.037	0	0	0	0	-1	0	-2.1508	-17.769	16.797	0	0	0	0	-1	0	-2.0278	-17.891	16.968	0	0	0	0	0	0	0	0	0	2
2348	23.48	0	0	0	0	0	0	0	0	0	0	0	0	0	0	0	0	0	0	0	0	0	0	0	0	0	0	0	0	0	0	0	0	0	0	0	0	0	0	0	0	0	0	0	0	0	0	0	0	0	-1	0	-2.0278	-17.891	16.968	0	0	0	1	0	0	17.47	2.0148	16.554	2
2349	23.49	0	0	0	0	0	0	0	0	0	0	0	0	0	0	0	0	0	0	0	0	0	0	0	0	0	0	0	0	0	0	0	0	0	0	0	0	0	0	0	0	0	0	0	0	0	0	0	0	0	-1	0	-2.0278	-17.891	16.968	0	0	0	0	0	0	0	0	0	2
2350	23.5	0	0	0	0	0	0	0	0	0	0	0	0	0	0	0	0	0	0	0	0	0	0	0	0	0	0	0	0	0	0	0	0	0	0	0	0	0	0	0	0	0	0	0	0	0	0	0	0	0	-1	0	-2.0278	-17.891	16.968	0	0	0	0	0	0	0	0	0	2
2351	23.51	0	0	0	0	0	0	0	0	0	0	0	0	0	0	0	0	0	0	0	0	0	0	0	0	0	0	0	0	0	0	0	0	0	10.991	-10.991	19.037	0	0	0	0	0	0	0	0	0	0	0	0	0	-1	0	-2.0278	-17.891	16.968	0	0	0	0	0	0	0	0	0	2
2352	23.52	0	0	0	0	0	0	0	0	0	0	0	0	0	0	0	0	0	0	0	0	0	0	0	0	0	0	0	0	0	0	0	0	0	0	0	0	0	0	0	0	0	0	0	0	0	0	0	0	0	-1	0	-2.0278	-17.891	16.968	0	0	0	0	0	0	0	0	0	2
2353	23.53	0	0	0	0	0	0	0	0	0	0	0	0	0	0	0	0	0	0	0	0	0	0	0	0	0	0	0	0	0	0	1	0	0	17.883	2.027	16.961	0	0	0	0	0	0	0	0	0	0	0	0	0	0	0	0	0	0	0	0	0	0	0	0	0	0	0	2
2354	23.54	0	0	0	0	0	0	0	0	0	0	0	0	0	0	0	0	0	0	0	0	0	0	0	0	0	0	0	0	0	0	0	0	0	0	0	0	0	0	0	0	0	0	0	0	0	0	0	0	0	-1	0	-2.0278	-17.891	16.968	0	0	0	0	0	0	0	0	0	2
2355	23.55	0	0	0	0	0	0	0	0	0	0	0	0	0	0	0	0	0	0	0	0	0	0	0	0	0	0	0	0	0	0	1	0	0	17.883	2.027	16.961	0	0	0	0	0	0	0	0	0	0	0	0	0	-1	0	-2.0278	-17.891	16.968	0	0	0	0	0	0	0	0	0	2
2356	23.56	0	0	0	0	0	0	0	0	0	0	0	0	0	0	0	0	0	0	0	0	0	0	0	0	10.989	-10.989	19.033	0	0	0	1	0	0	17.883	2.027	16.961	0	0	0	0	0	0	0	0	0	0	0	0	0	-1	0	-2.0278	-17.891	16.968	0	0	0	0	0	0	0	0	0	2
2357	23.57	0	0	0	0	0	0	0	0	0	0	0	0	0	0	0	0	0	0	0	0	0	0	0	0	0	0	0	0	0	0	0	0	0	0	0	0	0	0	0	0	0	0	0	0	0	0	0	0	0	-1	0	-2.0278	-17.891	16.968	0	0	0	0	0	0	0	0	0	2
2358	23.58	0	0	0	0	0	0	0	0	0	0	0	0	0	0	0	0	0	0	0	0	0	0	0	0	0	0	0	0	0	0	0	0	0	0	0	0	0	0	0	0	-1	0	-2.0279	-17.891	16.969	0	0	0	0	0	0	0	0	0	0	0	0	0	0	0	0	0	0	2
2359	23.59	0	0	0	0	0	0	0	0	0	0	0	0	0	0	0	0	0	0	0	0	0	0	0	0	0	0	0	0	0	0	0	0	0	0	0	0	0	0	0	0	0	0	0	0	0	0	0	0	0	-1	0	-2.0278	-17.891	16.968	0	0	0	0	0	0	0	0	0	2
2360	23.6	0	0	0	0	0	0	0	0	0	0	0	0	0	0	0	0	0	0	0	0	0	0	0	0	0	0	0	0	0	0	0	0	0	0	0	0	0	0	0	0	-1	0	-2.0279	-17.891	16.969	0	0	0	0	0	0	0	0	0	0	0	0	0	0	0	0	0	0	2
2361	23.61	0	0	0	0	0	0	10.917	-10.917	18.908	0	0	0	0	0	0	0	0	0	0	0	0	0	0	0	0	0	0	0	0	0	1	0	0	17.883	2.027	16.961	0	0	0	0	0	0	0	0	0	0	0	0	0	-1	0	-2.0278	-17.891	16.968	0	0	0	0	0	0	0	0	0	2
2362	23.62	0	0	0	0	0	0	0	0	0	0	0	0	0	0	0	0	0	0	0	0	0	0	0	0	0	0	0	0	0	0	0	-1	0	-2.0265	-17.879	16.957	0	0	0	0	-1	0	-2.0279	-17.891	16.969	0	0	0	0	0	0	0	0	0	0	0	0	0	0	0	0	0	0	2
2363	23.63	0	0	0	0	0	0	0	0	0	0	0	0	0	0	0	0	0	0	0	0	0	0	0	0	0	0	0	0	0	0	0	0	0	0	0	0	0	0	0	0	-1	0	-2.0279	-17.891	16.969	0	0	0	0	0	0	0	0	0	0	0	0	1	0	0	17.47	2.0148	16.554	2
2364	23.64	0	0	0	0	0	0	0	0	0	0	0	0	0	0	0	0	0	0	0	0	0	0	0	0	0	0	0	0	0	0	1	0	0	17.883	2.027	16.961	0	0	0	0	0	0	0	0	0	0	0	0	0	-1	0	-2.0278	-17.891	16.968	0	0	0	0	0	0	0	0	0	2
2365	23.65	0	0	0	0	0	0	0	0	0	0	0	0	0	0	0	0	0	0	0	0	0	0	0	0	0	0	0	0	0	0	0	0	0	0	0	0	0	0	0	0	-1	0	-2.0279	-17.891	16.969	0	0	0	0	-1	0	-2.0278	-17.891	16.968	0	0	0	1	0	0	17.47	2.0148	16.554	2
2366	23.66	0	0	0	0	0	0	0	0	0	0	0	0	0	0	0	0	0	0	0	0	0	0	0	0	0	0	0	0	0	0	0	0	0	0	0	0	0	0	0	0	0	0	0	0	0	0	0	0	0	-1	0	-2.0278	-17.891	16.968	0	0	0	0	0	0	0	0	0	0
2367	23.67	0	0	0	0	0	0	0	0	0	0	0	0	0	0	0	0	0	0	0	0	0	0	0	0	0	0	0	0	0	0	1	0	0	17.883	2.027	16.961	0	0	0	0	0	0	0	0	0	0	0	0	0	-1	0	-2.0278	-17.891	16.968	0	0	0	0	0	0	0	0	0	2
2368	23.68	0	0	0	0	0	0	0	0	0	0	0	0	0	0	0	0	0	0	0	0	0	0	0	0	10.989	-10.989	19.033	0	0	0	0	0	0	0	0	0	0	0	0	0	0	0	0	0	0	0	0	0	0	-1	0	-2.0278	-17.891	16.968	0	0	0	1	0	0	17.47	2.0148	16.554	2
2369	23.69	0	0	0	0	0	0	0	0	0	0	0	0	0	0	0	0	0	0	0	0	0	0	0	0	0	0	0	0	0	0	0	0	0	0	0	0	0	0	0	0	0	0	0	0	0	0	0	0	0	0	0	0	0	0	0	0	0	1	0	0	17.47	2.0148	16.554	2
2370	23.7	0	0	0	0	0	0	0	0	0	0	0	0	0	0	0	0	0	0	0	0	0	0	0	0	0	0	0	0	0	0	0	0	0	0	0	0	0	0	0	0	0	0	10.996	-10.996	19.046	0	0	0	0	0	0	0	0	0	0	0	0	0	0	0	0	0	0	2
2371	23.71	0	0	0	0	0	0	0	0	0	0	0	0	0	0	0	0	0	0	0	0	0	0	0	0	0	0	0	0	0	0	0	0	0	10.991	-10.991	19.037	0	0	0	0	-1	0	-2.0279	-17.891	16.969	0	0	0	0	0	0	0	0	0	0	0	0	1	0	0	17.47	2.0148	16.554	2
2372	23.72	0	0	0	0	0	0	0	0	0	0	0	0	0	0	0	0	0	0	0	0	0	0	0	0	0	0	0	0	0	0	1	0	0	17.883	2.027	16.961	0	0	0	0	0	0	0	0	0	0	0	0	0	-1	0	-2.0278	-17.891	16.968	0	0	0	0	0	0	0	0	0	2
2373	23.73	0	0	0	0	0	0	0	0	0	0	0	0	0	0	0	0	0	0	0	0	0	0	0	0	0	0	0	0	0	0	0	0	0	0	0	0	0	0	0	0	0	0	0	0	0	0	0	0	0	-1	0	-2.0278	-17.891	16.968	0	0	0	1	0	0	17.47	2.0148	16.554	2
2374	23.74	0	0	0	0	0	0	0	0	0	0	0	0	0	0	0	0	0	0	0	0	0	0	0	0	0	0	0	0	0	0	0	0	0	10.991	-10.991	19.037	0	0	0	0	0	0	0	0	0	0	0	0	0	-1	0	-2.0278	-17.891	16.968	0	0	0	0	0	0	0	0	0	2
2375	23.75	0	0	0	0	0	0	0	0	0	0	0	0	0	0	0	0	0	0	0	0	0	0	0	0	0	0	0	0	0	0	0	0	0	0	0	0	0	0	0	0	0	0	0	0	0	0	0	0	0	-1	0	-2.0278	-17.891	16.968	0	0	0	0	0	0	0	0	0	2
2376	23.76	0	0	0	0	0	0	0	0	0	0	0	0	0	0	0	0	0	0	0	0	0	0	0	0	0	0	0	0	0	0	1	0	0	17.761	2.1499	16.789	0	0	0	0	0	0	0	0	0	0	0	0	0	-1	0	-2.0278	-17.891	16.968	0	0	0	0	0	0	0	0	0	2
2377	23.77	0	0	0	0	0	0	0	0	0	0	0	0	0	0	0	0	0	0	0	0	0	0	0	0	0	0	0	0	0	0	0	0	0	0	0	0	0	0	0	0	0	0	0	0	0	0	0	0	0	-1	0	-2.0278	-17.891	16.968	0	0	0	1	0	0	17.47	2.0148	16.554	2
2378	23.78	0	0	0	0	0	0	0	0	0	0	0	0	0	0	0	0	0	0	0	0	0	0	0	0	0	0	0	0	0	0	1	0	0	17.883	2.027	16.961	0	0	0	0	0	0	0	0	0	0	0	0	0	-1	0	-2.0278	-17.891	16.968	0	0	0	1	0	0	17.47	2.0148	16.554	2
2379	23.79	0	0	0	0	0	0	0	0	0	0	0	0	0	0	0	0	0	0	0	0	0	0	0	0	0	0	0	0	0	0	0	0	0	0	0	0	0	0	0	0	0	0	0	0	0	0	0	0	0	-1	0	-2.0278	-17.891	16.968	0	0	0	1	0	0	17.47	2.0148	16.554	2
2380	23.8	0	0	0	0	0	0	0	0	0	0	0	0	0	0	0	0	0	0	0	0	0	0	0	0	0	0	0	0	0	0	0	0	0	0	0	0	0	0	0	0	0	0	0	0	0	0	0	0	0	-1	0	-2.0278	-17.891	16.968	0	0	0	0	0	0	0	0	0	2
2381	23.81	0	0	0	0	0	0	10.917	-10.917	18.908	0	0	0	0	0	0	0	0	0	0	0	0	0	0	0	0	0	0	0	0	0	1	0	0	17.883	2.027	16.961	0	0	0	0	0	0	0	0	0	0	0	0	0	-1	0	-2.0278	-17.891	16.968	0	0	0	0	0	0	0	0	0	2
2382	23.82	0	0	0	0	0	0	0	0	0	0	0	0	0	0	0	0	0	0	0	0	0	0	0	0	0	0	0	0	0	0	1	0	0	17.883	2.027	16.961	0	0	0	0	0	0	0	0	0	0	0	0	0	-1	0	-2.0278	-17.891	16.968	0	0	0	0	0	0	0	0	0	2
2383	23.83	0	0	0	0	0	0	0	0	0	0	0	0	0	0	0	0	0	0	0	0	0	0	0	0	0	0	0	0	0	0	0	0	0	0	0	0	0	0	0	0	-1	0	-2.0279	-17.891	16.969	0	0	0	0	-1	0	-2.0278	-17.891	16.968	0	0	0	0	0	0	0	0	0	2
2384	23.84	0	0	0	0	0	0	0	0	0	0	0	0	0	-1	0	-2.0372	-17.821	16.895	0	0	0	0	0	0	0	0	0	0	0	0	0	0	0	0	0	0	0	0	0	0	0	0	0	0	0	0	0	0	0	-1	0	-2.0278	-17.891	16.968	0	0	0	0	0	0	0	0	0	2
2385	23.85	0	0	0	0	0	0	0	0	0	0	0	0	0	0	0	0	0	0	0	0	0	0	0	0	0	0	0	0	0	0	0	0	0	0	0	0	0	0	0	0	-1	0	-2.0279	-17.891	16.969	0	0	0	0	-1	0	-2.0278	-17.891	16.968	0	0	0	0	0	0	0	0	0	2
2386	23.86	0	0	0	0	0	0	0	0	0	0	0	0	0	0	0	0	0	0	0	0	0	0	0	0	10.989	-10.989	19.033	0	0	0	0	0	0	0	0	0	0	0	0	0	0	0	0	0	0	0	0	0	0	-1	0	-2.0278	-17.891	16.968	0	0	0	0	0	0	0	0	0	2
2387	23.87	0	0	0	0	0	0	0	0	0	0	0	0	0	0	0	0	0	0	0	0	0	0	0	0	0	0	0	0	0	0	0	0	0	0	0	0	0	0	0	0	0	0	10.996	-10.996	19.046	0	0	0	0	-1	0	-2.0278	-17.891	16.968	0	0	0	0	0	0	0	0	0	2
2388	23.88	0	0	0	0	0	0	0	0	0	0	0	0	0	0	0	0	0	0	0	0	0	0	0	0	0	0	0	0	0	0	0	0	0	0	0	0	0	0	0	0	0	0	0	0	0	0	0	0	0	-1	0	-2.0278	-17.891	16.968	0	0	0	0	0	0	0	0	0	2
2389	23.89	0	0	0	0	0	0	0	0	0	0	0	0	0	0	0	0	0	0	0	0	0	0	0	0	0	0	0	0	0	0	0	0	0	0	0	0	0	0	0	0	0	0	10.996	-10.996	19.046	0	0	0	0	-1	0	-2.0278	-17.891	16.968	0	0	0	0	0	0	0	0	0	2
2390	23.9	0	0	0	0	0	0	0	0	0	0	0	0	0	0	0	0	0	0	0	0	0	0	0	0	0	0	0	0	0	0	0	0	0	0	0	0	0	0	0	0	0	0	0	0	0	0	0	0	0	-1	0	-2.0278	-17.891	16.968	0	0	0	0	0	0	0	0	0	2
2391	23.91	0	0	0	0	0	0	0	0	0	0	0	0	0	0	0	0	0	0	0	0	0	0	0	0	0	0	0	0	0	0	0	0	0	10.991	-10.991	19.037	0	0	0	0	0	0	0	0	0	0	0	0	0	-1	0	-2.0278	-17.891	16.968	0	0	0	1	0	0	17.47	2.0148	16.554	2
2392	23.92	0	0	0	0	0	0	0	0	0	0	0	0	0	0	0	0	0	0	0	0	0	0	0	0	0	0	0	0	0	0	0	0	0	0	0	0	0	0	0	0	0	0	0	0	0	0	0	0	0	-1	0	-2.0278	-17.891	16.968	0	0	0	0	0	0	0	0	0	2
2393	23.93	0	0	0	0	0	0	0	0	0	0	0	0	0	0	0	0	0	0	0	0	0	0	0	0	0	0	0	0	0	0	0	0	0	0	0	0	0	0	0	0	0	0	0	0	0	0	0	0	0	0	0	0	0	0	0	0	0	1	0	0	17.47	2.0148	16.554	2
2394	23.94	0	0	0	0	0	0	0	0	0	0	0	0	0	0	0	0	0	0	0	0	0	0	0	0	0	0	0	0	0	0	0	0	0	0	0	0	0	0	0	0	0	0	0	0	0	0	0	0	0	-1	0	-2.0278	-17.891	16.968	0	0	0	0	0	0	0	0	0	2
2395	23.95	0	0	0	0	0	0	0	0	0	0	0	0	0	0	0	0	0	0	0	0	0	0	0	0	0	0	0	0	0	0	0	0	0	0	0	0	0	0	0	0	0	0	0	0	0	0	0	0	0	-1	0	-2.0278	-17.891	16.968	0	0	0	0	0	0	0	0	0	2
2396	23.96	0	0	0	0	0	0	0	0	0	0	0	0	0	0	0	0	0	0	0	0	0	0	0	0	0	0	0	0	0	0	1	0	0	17.883	2.027	16.961	0	0	0	0	0	0	0	0	0	0	0	0	0	0	0	0	0	0	0	0	0	0	0	0	0	0	0	2
2397	23.97	0	0	0	0	0	0	0	0	0	0	0	0	0	0	0	0	0	0	0	0	0	0	0	0	0	0	0	0	0	0	0	0	0	0	0	0	0	0	0	0	0	0	0	0	0	0	0	0	0	0	0	0	0	0	0	0	0	0	0	0	0	0	0	2
2398	23.98	0	0	0	0	0	0	0	0	0	0	0	0	0	0	0	0	0	0	0	0	0	0	0	0	0	0	0	0	0	0	0	0	0	0	0	0	0	0	0	0	0	0	10.996	-10.996	19.046	0	0	0	0	-1	0	-2.0278	-17.891	16.968	0	0	0	0	0	0	0	0	0	2
2399	23.99	0	0	0	0	0	0	0	0	0	0	0	0	0	0	0	0	0	0	0	0	0	0	0	0	0	0	0	0	0	0	0	0	0	0	0	0	0	0	0	0	0	0	0	0	0	0	0	0	0	0	0	0	0	0	0	0	0	0	0	0	0	0	0	2
2400	24	0	0	0	0	0	0	0	0	0	0	0	0	0	0	0	0	0	0	0	0	0	0	0	0	0	0	0	0	0	0	1	0	0	17.883	2.027	16.961	0	0	0	0	0	0	0	0	0	0	0	0	0	0	0	0	0	0	0	0	0	0	0	0	0	0	0	2
2401	24.01	0	0	0	0	-1	0	-2.0364	-17.814	16.888	0	0	0	0	0	0	0	0	0	0	0	0	0	0	0	0	0	0	0	0	0	0	0	0	10.991	-10.991	19.037	0	0	0	0	0	0	0	0	0	0	0	0	0	0	0	0	0	0	0	0	0	0	0	0	0	0	0	0
2402	24.02	0	0	0	0	0	0	0	0	0	0	0	0	0	0	0	0	0	0	0	0	0	0	0	0	0	0	0	0	0	0	0	0	0	0	0	0	0	0	0	0	0	0	0	0	0	0	0	0	0	-1	0	-2.0278	-17.891	16.968	0	0	0	0	0	0	0	0	0	2
2403	24.03	0	0	0	0	0	0	0	0	0	0	0	0	0	0	0	0	0	0	0	0	0	0	0	0	10.989	-10.989	19.033	0	0	0	0	0	0	0	0	0	0	0	0	0	0	0	0	0	0	0	0	0	0	-1	0	-2.0278	-17.891	16.968	0	0	0	0	0	0	0	0	0	2
2404	24.04	0	0	0	0	0	0	0	0	0	0	0	0	0	0	0	0	0	0	0	0	0	0	0	0	0	0	0	0	0	0	1	0	0	17.883	2.027	16.961	0	0	0	0	0	0	0	0	0	0	0	0	0	-1	0	-2.0278	-17.891	16.968	0	0	0	1	0	0	17.47	2.0148	16.554	2
2405	24.05	0	0	0	0	0	0	0	0	0	0	0	0	0	0	0	0	0	0	0	0	0	0	0	0	0	0	0	0	0	0	0	0	0	0	0	0	0	0	0	0	0	0	0	0	0	0	0	0	0	0	0	0	0	0	0	0	0	0	0	0	0	0	0	2
2406	24.06	0	0	0	0	0	0	0	0	0	0	0	0	0	0	0	0	0	0	0	0	0	0	0	0	0	0	0	0	0	0	0	0	0	0	0	0	0	0	0	0	0	0	0	0	0	0	0	0	0	0	0	0	0	0	0	0	0	1	0	0	17.47	2.0148	16.554	2
2407	24.07	0	0	0	0	0	0	0	0	0	0	0	0	0	0	0	0	0	0	0	0	0	0	0	0	0	0	0	0	0	0	0	0	0	0	0	0	0	0	0	0	0	0	0	0	0	0	0	0	0	-1	0	-2.0278	-17.891	16.968	0	0	0	0	0	0	0	0	0	2
2408	24.08	0	0	0	0	0	0	0	0	0	0	0	0	0	0	0	0	0	0	0	0	0	0	0	0	0	0	0	0	0	0	0	0	0	0	0	0	0	0	0	0	0	0	0	0	0	0	0	0	0	0	0	0	0	0	0	0	0	0	0	0	0	0	0	2
2409	24.09	0	0	0	0	0	0	0	0	0	0	0	0	0	0	0	0	0	0	0	0	0	0	0	0	0	0	0	0	0	0	0	0	0	0	0	0	0	0	0	0	0	0	0	0	0	0	0	0	0	-1	0	-2.0278	-17.891	16.968	0	0	0	0	0	0	0	0	0	2
2410	24.1	0	0	0	0	0	0	0	0	0	0	0	0	0	0	0	0	0	0	0	0	0	0	0	0	0	0	0	0	0	0	0	0	0	0	0	0	0	0	0	0	0	0	0	0	0	0	0	0	0	0	0	0	0	0	0	0	0	0	0	0	0	0	0	2
2411	24.11	0	0	0	0	0	0	0	0	0	0	0	0	0	0	0	0	0	0	0	0	0	0	0	0	0	0	0	0	0	0	0	0	0	10.991	-10.991	19.037	0	0	0	0	0	0	0	0	0	0	0	0	0	-1	0	-2.0278	-17.891	16.968	0	0	0	1	0	0	17.47	2.0148	16.554	2
2412	24.12	0	0	0	0	0	0	0	0	0	0	0	0	0	0	0	0	0	0	0	0	0	0	0	0	0	0	0	0	0	0	0	0	0	0	0	0	0	0	0	0	0	0	0	0	0	0	0	0	0	0	0	0	0	0	0	0	0	0	0	0	0	0	0	2
2413	24.13	0	0	0	0	0	0	0	0	0	0	0	0	0	0	0	0	0	0	0	0	0	0	0	0	0	0	0	0	0	0	1	0	0	17.761	2.1499	16.789	0	0	0	0	0	0	0	0	0	0	0	0	0	0	0	0	0	0	0	0	0	1	0	0	17.47	2.0148	16.554	2
2414	24.14	0	0	0	0	0	0	0	0	0	0	0	0	0	0	0	0	0	0	0	0	0	0	0	0	0	0	0	0	0	0	1	0	0	17.883	2.027	16.961	0	0	0	0	0	0	0	0	0	0	0	0	0	-1	0	-2.0278	-17.891	16.968	0	0	0	0	0	0	0	0	0	2
2415	24.15	0	0	0	0	0	0	0	0	0	0	0	0	0	0	0	0	0	0	0	0	0	0	0	0	0	0	0	0	0	0	0	0	0	0	0	0	0	0	0	0	0	0	0	0	0	0	0	0	0	-1	0	-2.0278	-17.891	16.968	0	0	0	0	0	0	0	0	0	2
2416	24.16	0	0	0	0	0	0	0	0	0	0	0	0	0	0	0	0	0	0	0	0	0	0	0	0	0	0	0	0	0	0	1	0	0	17.883	2.027	16.961	0	0	0	0	0	0	0	0	0	0	0	0	0	0	0	0	0	0	0	0	0	0	0	0	0	0	0	2
2417	24.17	0	0	0	0	0	0	0	0	0	0	0	0	0	0	0	0	0	0	0	0	0	0	0	0	0	0	0	0	0	0	1	0	0	17.883	2.027	16.961	0	0	0	0	0	0	0	0	0	0	0	0	0	-1	0	-2.0278	-17.891	16.968	0	0	0	0	0	0	0	0	0	2
2418	24.18	0	0	0	0	0	0	0	0	0	0	0	0	0	0	0	0	0	0	0	0	0	0	0	0	0	0	0	0	0	0	0	0	0	10.991	-10.991	19.037	0	0	0	0	0	0	0	0	0	0	0	0	0	0	0	0	0	0	0	0	0	0	0	0	0	0	0	2
2419	24.19	0	0	0	0	0	0	10.917	-10.917	18.908	0	0	0	0	0	0	0	0	0	0	0	0	0	0	0	0	0	0	0	0	0	1	0	0	17.883	2.027	16.961	0	0	0	0	0	0	0	0	0	0	0	0	0	-1	0	-2.0278	-17.891	16.968	0	0	0	1	0	0	17.47	2.0148	16.554	2
2420	24.2	0	0	0	0	0	0	10.917	-10.917	18.908	0	0	0	0	0	0	0	0	0	0	0	0	0	0	0	0	0	0	0	0	0	0	0	0	0	0	0	0	0	0	0	0	0	0	0	0	0	0	0	0	-1	0	-2.0278	-17.891	16.968	0	0	0	0	0	0	0	0	0	2
2421	24.21	0	0	0	0	0	0	0	0	0	0	0	0	0	0	0	0	0	0	0	0	0	0	0	0	0	0	0	0	0	0	0	0	0	0	0	0	0	0	0	0	0	0	0	0	0	0	0	0	0	0	0	0	0	0	0	0	0	1	0	0	17.47	2.0148	16.554	2
2422	24.22	0	0	0	0	0	0	0	0	0	0	0	0	0	0	0	0	0	0	0	0	0	0	0	0	0	0	0	0	0	0	1	0	0	17.761	2.1499	16.789	0	0	0	0	0	0	0	0	0	0	0	0	0	-1	0	-2.0278	-17.891	16.968	0	0	0	0	0	0	0	0	0	2
2423	24.23	0	0	0	0	0	0	0	0	0	0	0	0	0	0	0	0	0	0	0	0	0	0	0	0	0	0	0	0	0	0	0	0	0	0	0	0	0	0	0	0	0	0	10.996	-10.996	19.046	0	0	0	0	-1	0	-2.0278	-17.891	16.968	0	0	0	1	0	0	17.47	2.0148	16.554	2
2424	24.24	0	0	0	0	0	0	0	0	0	0	0	0	0	0	0	0	0	0	0	0	0	0	0	0	0	0	0	0	0	0	1	0	0	17.883	2.027	16.961	0	0	0	0	0	0	0	0	0	0	0	0	1	-1	0	7.5503	-27.469	31.921	0	0	0	0	0	0	0	0	0	2
2425	24.25	0	0	0	0	0	0	0	0	0	0	0	0	0	0	0	0	0	0	0	0	0	0	0	0	0	0	0	0	0	0	0	0	0	0	0	0	0	0	0	0	0	0	0	0	0	0	0	0	0	-1	0	-2.0278	-17.891	16.968	0	0	0	0	0	0	0	0	0	2
2426	24.26	0	0	0	0	0	0	0	0	0	0	0	0	0	0	0	0	0	0	0	0	0	0	0	0	0	0	0	0	0	0	0	0	0	10.991	-10.991	19.037	0	0	0	0	0	0	0	0	0	0	0	0	0	-1	0	-2.0278	-17.891	16.968	0	0	0	1	0	0	17.47	2.0148	16.554	2
2427	24.27	0	0	0	0	0	0	10.917	-10.917	18.908	0	0	0	0	0	0	0	0	0	0	0	0	0	0	0	0	0	0	0	0	0	0	0	0	0	0	0	0	0	0	0	0	0	0	0	0	0	0	0	0	-1	0	-2.0278	-17.891	16.968	0	0	0	0	0	0	0	0	0	2
2428	24.28	0	0	0	0	0	0	0	0	0	0	0	0	0	0	0	0	0	0	0	0	0	0	0	0	0	0	0	0	0	0	0	0	0	0	0	0	0	0	0	0	0	0	0	0	0	0	0	0	0	0	0	0	0	0	0	0	0	0	0	0	0	0	0	2
2429	24.29	0	0	0	0	0	0	0	0	0	0	0	0	0	0	0	0	0	0	0	0	0	0	0	0	0	0	0	0	0	0	0	0	0	0	0	0	0	0	0	0	0	0	0	0	0	0	0	0	0	-1	0	-2.0278	-17.891	16.968	0	0	0	1	0	0	17.47	2.0148	16.554	2
2430	24.3	0	0	0	0	0	0	0	0	0	0	0	0	0	0	0	0	0	0	0	0	0	0	0	0	0	0	0	0	0	0	0	0	0	0	0	0	0	0	0	0	0	0	0	0	0	0	0	0	0	0	0	0	0	0	0	0	0	0	0	0	0	0	0	2
2431	24.31	0	0	0	0	0	0	0	0	0	0	0	0	0	0	0	0	0	0	0	0	0	0	0	0	0	0	0	0	0	0	0	0	0	0	0	0	0	0	0	0	0	0	0	0	0	0	0	0	0	-1	0	-2.0278	-17.891	16.968	0	0	0	0	0	0	0	0	0	2
2432	24.32	0	0	0	0	0	0	10.917	-10.917	18.908	0	0	0	0	0	0	0	0	0	0	0	0	0	0	0	0	0	0	0	0	0	0	0	0	0	0	0	0	0	0	0	0	0	0	0	0	0	0	0	0	-1	0	-2.0278	-17.891	16.968	0	0	0	1	0	0	17.47	2.0148	16.554	2
2433	24.33	0	0	0	0	0	0	0	0	0	0	0	0	0	0	0	0	0	0	0	0	0	0	0	0	0	0	0	0	0	0	0	0	0	0	0	0	0	0	0	0	-1	0	-2.1508	-17.769	16.797	0	0	0	0	-1	0	-2.0278	-17.891	16.968	0	0	0	0	0	0	0	0	0	2
2434	24.34	0	0	0	0	0	0	0	0	0	0	0	0	0	0	0	0	0	0	0	0	0	0	0	0	0	0	0	0	0	0	0	0	0	0	0	0	0	0	0	0	0	0	0	0	0	0	0	0	0	-1	0	-2.0278	-17.891	16.968	0	0	0	0	0	0	0	0	0	2
2435	24.35	0	0	0	0	0	0	0	0	0	0	0	0	0	0	0	0	0	0	0	0	0	0	0	0	0	0	0	0	0	0	1	0	0	17.883	2.027	16.961	0	0	0	0	0	0	10.996	-10.996	19.046	0	0	0	0	-1	0	-2.0278	-17.891	16.968	0	0	0	1	0	0	17.47	2.0148	16.554	2
2436	24.36	0	0	0	0	0	0	0	0	0	0	0	0	0	0	0	0	0	0	0	0	0	0	0	0	0	0	0	0	0	0	1	0	0	17.883	2.027	16.961	0	0	0	0	0	0	0	0	0	0	0	0	0	-1	0	-2.0278	-17.891	16.968	0	0	0	0	0	0	0	0	0	2
2437	24.37	0	0	0	0	0	0	0	0	0	0	0	0	0	0	0	0	0	0	0	0	0	0	0	0	0	0	0	0	0	0	0	0	0	0	0	0	0	0	0	0	0	0	0	0	0	0	0	0	0	-1	0	-2.0278	-17.891	16.968	0	0	0	0	0	0	10.93	-10.93	18.931	2
2438	24.38	0	0	0	0	0	0	0	0	0	0	0	0	0	-1	0	-2.0372	-17.821	16.895	0	0	0	0	0	0	0	0	0	0	0	0	0	0	0	0	0	0	0	0	0	0	0	0	0	0	0	0	0	0	0	0	0	0	0	0	0	0	0	1	0	0	17.47	2.0148	16.554	2
2439	24.39	0	0	0	0	0	0	0	0	0	0	0	0	0	0	0	0	0	0	0	0	0	0	0	0	0	0	0	0	0	0	1	0	0	17.883	2.027	16.961	0	0	0	0	0	0	0	0	0	0	0	0	0	-1	0	-2.0278	-17.891	16.968	0	0	0	1	0	0	17.47	2.0148	16.554	2
2440	24.4	0	0	0	0	0	0	0	0	0	0	0	0	0	0	0	0	0	0	0	0	0	0	0	0	0	0	0	0	0	0	0	0	0	0	0	0	0	0	0	0	0	0	0	0	0	0	0	0	0	-1	0	-2.0278	-17.891	16.968	0	0	0	0	0	0	0	0	0	2
2441	24.41	0	0	0	0	0	0	0	0	0	0	0	0	0	0	0	0	0	0	0	0	0	0	0	0	0	0	0	0	0	0	0	0	0	0	0	0	0	0	0	0	0	0	0	0	0	0	0	0	0	0	0	0	0	0	0	0	0	1	0	0	17.47	2.0148	16.554	2
2442	24.42	0	0	0	0	0	0	0	0	0	0	0	0	0	0	0	0	0	0	0	0	0	0	0	0	0	0	0	0	0	0	0	0	0	0	0	0	0	0	0	0	0	0	10.996	-10.996	19.046	0	0	0	0	-1	0	-2.0278	-17.891	16.968	0	0	0	0	0	0	0	0	0	2
2443	24.43	0	0	0	0	0	0	0	0	0	0	0	0	0	0	0	0	0	0	0	0	0	0	0	0	0	0	0	0	0	0	0	0	0	10.991	-10.991	19.037	0	0	0	0	0	0	0	0	0	0	0	0	0	-1	0	-2.0278	-17.891	16.968	0	0	0	0	0	0	0	0	0	2
2444	24.44	0	0	0	0	0	0	0	0	0	0	0	0	0	0	0	0	0	0	0	0	0	0	0	0	0	0	0	0	0	0	0	0	0	0	0	0	0	0	0	0	0	0	0	0	0	0	0	0	0	0	0	0	0	0	0	0	0	0	0	0	0	0	0	2
2445	24.45	0	0	0	0	0	0	0	0	0	0	0	0	0	0	0	0	0	0	0	0	0	0	0	0	0	0	0	0	0	0	0	0	0	0	0	0	0	0	0	0	0	0	0	0	0	0	0	0	0	-1	0	-2.0278	-17.891	16.968	0	0	0	0	0	0	0	0	0	2
2446	24.46	0	0	0	0	0	0	0	0	0	0	0	0	0	0	0	0	0	0	0	0	0	0	0	0	0	0	0	0	0	0	1	0	0	17.761	2.1499	16.789	0	0	0	0	0	0	0	0	0	0	0	0	0	-1	0	-2.0278	-17.891	16.968	0	0	0	0	0	0	0	0	0	2
2447	24.47	0	0	0	0	0	0	0	0	0	0	0	0	0	0	0	0	0	0	0	0	0	0	0	0	0	0	0	0	0	0	1	0	0	17.883	2.027	16.961	0	0	0	0	-1	0	-2.0279	-17.891	16.969	0	0	0	0	-1	0	-2.0278	-17.891	16.968	0	0	0	0	0	0	0	0	0	2
2448	24.48	0	0	0	0	0	0	0	0	0	0	0	0	0	0	0	0	0	0	0	0	0	0	0	0	0	0	0	0	0	0	1	0	0	17.883	2.027	16.961	0	0	0	0	0	0	0	0	0	0	0	0	0	-1	0	-2.0278	-17.891	16.968	0	0	0	1	0	0	17.47	2.0148	16.554	2
2449	24.49	0	0	0	0	0	0	0	0	0	0	0	0	0	0	0	0	0	0	0	0	0	0	0	0	0	0	0	0	0	0	0	0	0	0	0	0	0	0	0	0	0	0	0	0	0	0	0	0	0	-1	0	-2.0278	-17.891	16.968	0	0	0	1	0	0	17.47	2.0148	16.554	2
2450	24.5	0	0	0	0	0	0	0	0	0	0	0	0	0	0	0	0	0	0	0	0	0	0	0	0	0	0	0	0	0	0	1	0	0	17.883	2.027	16.961	0	0	0	0	0	0	0	0	0	0	0	0	0	0	0	0	0	0	0	0	0	0	0	0	0	0	0	2
2451	24.51	0	0	0	0	0	0	0	0	0	0	0	0	0	0	0	0	0	0	0	0	0	0	0	0	0	0	0	0	0	0	0	0	0	0	0	0	0	0	0	0	0	0	10.996	-10.996	19.046	0	0	0	0	-1	0	-2.0278	-17.891	16.968	0	0	0	0	0	0	0	0	0	2
2452	24.52	0	0	0	0	0	0	0	0	0	0	0	0	0	0	0	0	0	0	0	0	0	0	0	0	0	0	0	0	0	0	0	0	0	0	0	0	0	0	0	0	0	0	0	0	0	0	0	0	0	-1	0	-2.0278	-17.891	16.968	0	0	0	0	0	0	0	0	0	2
2453	24.53	0	0	0	0	0	0	0	0	0	0	0	0	0	0	0	0	0	0	0	0	0	0	0	0	0	0	0	0	0	0	0	0	0	0	0	0	0	0	0	0	0	0	0	0	0	0	0	0	0	-1	0	-2.0278	-17.891	16.968	0	0	0	0	0	0	0	0	0	0
2454	24.54	0	0	0	0	0	0	0	0	0	0	0	0	0	0	0	0	0	0	0	0	0	0	0	0	0	0	0	0	0	0	0	0	0	0	0	0	0	0	0	0	0	0	0	0	0	0	0	0	0	-1	0	-2.0278	-17.891	16.968	0	0	0	1	0	0	17.47	2.0148	16.554	2
2455	24.55	0	0	0	0	0	0	0	0	0	0	0	0	0	0	0	0	0	0	0	0	0	0	0	0	0	0	0	0	0	0	1	0	0	17.883	2.027	16.961	0	0	0	0	0	0	10.996	-10.996	19.046	0	0	0	0	0	0	0	0	0	0	0	0	1	0	0	17.47	2.0148	16.554	2
2456	24.56	0	0	0	0	0	0	0	0	0	0	0	0	0	0	0	0	0	0	0	0	0	0	0	0	0	0	0	0	0	0	0	0	0	0	0	0	0	0	0	0	0	0	0	0	0	0	0	0	0	-1	0	-2.0278	-17.891	16.968	0	0	0	0	0	0	0	0	0	2
2457	24.57	0	0	0	0	0	0	0	0	0	0	0	0	0	0	0	0	0	0	0	0	0	0	0	0	0	0	0	0	0	0	0	0	0	0	0	0	0	0	0	0	0	0	0	0	0	0	0	0	0	-1	0	-2.0278	-17.891	16.968	0	0	0	0	0	0	0	0	0	2
2458	24.58	0	0	0	0	0	0	0	0	0	0	0	0	0	0	0	0	0	0	0	0	0	0	0	0	0	0	0	0	0	0	0	0	0	0	0	0	0	0	0	0	0	0	0	0	0	0	0	0	0	-1	0	-2.0278	-17.891	16.968	0	0	0	0	0	0	0	0	0	2
2459	24.59	0	0	0	0	0	0	0	0	0	0	0	0	0	0	0	0	0	0	0	0	0	0	0	0	0	0	0	0	0	0	1	0	0	17.883	2.027	16.961	0	0	0	0	0	0	0	0	0	0	0	0	0	-1	0	-2.0278	-17.891	16.968	0	0	0	1	0	0	17.471	2.0135	16.556	2
2460	24.6	0	0	0	0	0	0	0	0	0	0	0	0	0	0	0	0	0	0	0	0	0	0	0	0	0	0	0	0	0	0	0	0	0	0	0	0	0	0	0	0	-1	0	-2.1508	-17.769	16.797	0	0	0	0	0	0	0	0	0	0	0	0	0	0	0	0	0	0	2
2461	24.61	0	0	0	0	0	0	0	0	0	0	0	0	0	0	0	0	0	0	0	0	0	0	0	0	0	0	0	0	0	0	1	0	0	17.883	2.027	16.961	0	0	0	0	0	0	0	0	0	0	0	0	0	-1	0	-2.0278	-17.891	16.968	0	0	0	1	0	0	17.47	2.0148	16.554	2
2462	24.62	0	0	0	0	0	0	0	0	0	0	0	0	0	0	0	0	0	0	0	0	0	0	0	0	0	0	0	0	0	0	0	0	0	0	0	0	0	0	0	0	0	0	0	0	0	0	0	0	0	-1	0	-2.0278	-17.891	16.968	0	0	0	0	0	0	0	0	0	2
2463	24.63	0	0	0	0	0	0	0	0	0	0	0	0	0	0	0	0	0	0	0	0	0	0	0	0	0	0	0	0	0	0	0	0	0	0	0	0	0	0	0	0	-1	0	-2.0279	-17.891	16.969	0	0	0	0	0	0	0	0	0	0	0	0	1	0	0	17.47	2.0148	16.554	0
2464	24.64	0	0	0	0	0	0	0	0	0	0	0	0	0	0	0	0	0	0	0	0	0	0	0	0	0	0	0	0	0	0	0	0	0	0	0	0	0	0	0	0	0	0	0	0	0	0	0	0	0	-1	0	-2.0278	-17.891	16.968	0	0	0	0	0	0	0	0	0	2
2465	24.65	0	0	0	0	0	0	0	0	0	0	0	0	0	0	0	0	0	0	0	0	0	0	0	0	0	0	0	0	0	0	0	0	0	0	0	0	0	0	0	0	0	0	10.996	-10.996	19.046	0	0	0	0	-1	0	-2.0278	-17.891	16.968	0	0	0	0	0	0	0	0	0	0
2466	24.66	0	0	0	0	0	0	10.917	-10.917	18.908	0	0	0	0	0	0	0	0	0	0	0	0	0	0	0	0	0	0	0	0	0	0	0	0	0	0	0	0	0	0	0	0	0	0	0	0	0	0	0	0	0	0	0	0	0	0	0	0	1	0	0	17.47	2.0148	16.554	2
2467	24.67	0	0	0	0	0	0	0	0	0	0	0	0	0	0	0	0	0	0	0	0	0	0	0	0	0	0	0	0	0	0	0	0	0	0	0	0	0	0	0	0	0	0	10.996	-10.996	19.046	0	0	0	0	-1	0	-2.0278	-17.891	16.968	0	0	0	0	0	0	0	0	0	2
2468	24.68	0	0	0	0	0	0	0	0	0	0	0	0	0	0	0	0	0	0	0	0	0	0	0	0	0	0	0	0	0	0	0	0	0	0	0	0	0	0	0	0	0	0	10.996	-10.996	19.046	0	0	0	0	-1	0	-2.0278	-17.891	16.968	0	0	0	1	0	0	30.423	8.5595	27.174	2
2469	24.69	0	0	0	0	0	0	0	0	0	0	0	0	0	0	0	0	0	0	0	0	0	0	0	0	0	0	0	0	0	0	0	0	0	0	0	0	0	0	0	0	0	0	0	0	0	0	0	0	0	-1	0	-2.0278	-17.891	16.968	0	0	0	0	0	0	0	0	0	2
2470	24.7	0	0	0	0	0	0	0	0	0	0	0	0	0	0	0	0	0	0	0	0	0	0	0	0	0	0	0	0	0	0	0	0	0	0	0	0	0	0	0	0	0	0	0	0	0	0	0	0	0	-1	0	-2.0278	-17.891	16.968	0	0	0	0	0	0	0	0	0	2
2471	24.71	0	0	0	0	0	0	0	0	0	0	0	0	0	0	0	0	0	0	0	0	0	0	0	0	0	0	0	0	0	0	1	0	0	17.883	2.027	16.961	0	0	0	0	0	0	0	0	0	0	0	0	0	-1	0	-2.0278	-17.891	16.968	0	0	0	1	0	0	17.471	2.0135	16.556	2
2472	24.72	0	0	0	0	0	0	0	0	0	0	0	0	0	0	0	0	0	0	0	0	0	0	0	0	0	0	0	0	0	0	0	0	0	0	0	0	0	0	0	0	0	0	0	0	0	0	0	0	0	-1	0	-2.0278	-17.891	16.968	0	0	0	0	0	0	0	0	0	2
2473	24.73	0	0	0	0	0	0	10.917	-10.917	18.908	0	0	0	0	0	0	0	0	0	0	0	0	0	0	0	0	0	0	0	0	0	0	0	0	0	0	0	0	0	0	0	-1	0	-2.0279	-17.891	16.969	0	0	0	0	-1	0	-2.0278	-17.891	16.968	0	0	0	1	0	0	17.47	2.0148	16.554	2
2474	24.74	0	0	0	0	0	0	0	0	0	0	0	0	0	0	0	0	0	0	0	0	0	0	0	0	0	0	0	0	0	0	0	0	0	0	0	0	0	0	0	0	0	0	0	0	0	0	0	0	0	0	0	0	0	0	0	0	0	0	0	0	0	0	0	2
2475	24.75	0	0	0	0	0	0	0	0	0	0	0	0	0	0	0	0	0	0	0	0	0	0	0	0	0	0	0	0	0	0	0	0	0	0	0	0	0	0	0	0	0	0	0	0	0	0	0	0	0	-1	0	-2.0278	-17.891	16.968	0	0	0	0	0	0	0	0	0	2
2476	24.76	0	0	0	0	0	0	0	0	0	0	0	0	0	0	0	0	0	0	0	0	0	0	0	0	0	0	0	0	0	0	0	0	0	0	0	0	0	0	0	0	0	0	0	0	0	0	0	0	0	-1	0	-2.0278	-17.891	16.968	0	0	0	0	0	0	0	0	0	2
2477	24.77	0	0	0	0	0	0	0	0	0	0	0	0	0	0	0	0	0	0	0	0	0	0	0	0	0	0	0	0	0	0	0	0	0	0	0	0	0	0	0	0	0	0	0	0	0	0	0	0	0	0	0	0	0	0	0	0	0	0	0	0	0	0	0	2
2478	24.78	0	0	0	0	0	0	0	0	0	0	0	0	0	0	0	0	0	0	0	0	0	0	0	0	0	0	0	0	0	0	0	0	0	0	0	0	0	0	0	0	0	0	0	0	0	0	0	0	0	-1	0	-2.0278	-17.891	16.968	0	0	0	0	0	0	0	0	0	2
2479	24.79	0	0	0	0	0	0	0	0	0	0	0	0	0	0	0	0	0	0	0	0	0	0	0	0	0	0	0	0	0	0	1	0	0	17.883	2.027	16.961	0	0	0	0	0	0	0	0	0	0	0	0	0	-1	0	-2.0278	-17.891	16.968	0	0	0	1	0	0	17.47	2.0148	16.554	2
2480	24.8	0	0	0	0	0	0	0	0	0	0	0	0	0	0	0	0	0	0	0	0	0	0	0	0	0	0	0	0	0	0	0	0	0	0	0	0	0	0	0	0	-1	0	-2.0279	-17.891	16.969	0	0	0	0	0	0	0	0	0	0	0	0	0	0	0	0	0	0	2
2481	24.81	0	0	0	0	0	0	0	0	0	0	0	0	0	0	0	0	0	0	0	0	0	0	0	0	0	0	0	0	0	0	0	0	0	0	0	0	0	0	0	0	0	0	0	0	0	0	0	0	0	0	0	0	0	0	0	0	0	0	0	0	0	0	0	2
2482	24.82	0	0	0	0	0	0	0	0	0	0	0	0	0	0	0	0	0	0	0	0	0	0	0	0	0	0	0	0	0	0	0	0	0	0	0	0	0	0	0	0	0	0	0	0	0	0	0	0	0	-1	0	-2.0278	-17.891	16.968	0	0	0	0	0	0	0	0	0	2
2483	24.83	0	0	0	0	0	0	10.917	-10.917	18.908	0	0	0	0	0	0	0	0	0	0	0	0	0	0	0	0	0	0	0	0	0	1	0	0	17.883	2.027	16.961	0	0	0	0	0	0	0	0	0	0	0	0	0	-1	0	-2.0278	-17.891	16.968	0	0	0	0	0	0	0	0	0	2
2484	24.84	0	0	0	0	0	0	0	0	0	0	0	0	0	0	0	0	0	0	0	0	0	0	0	0	0	0	0	0	0	0	0	0	0	0	0	0	0	0	0	0	0	0	0	0	0	0	0	0	0	-1	0	-2.0278	-17.891	16.968	0	0	0	1	0	0	17.47	2.0148	16.554	2
2485	24.85	0	0	0	0	0	0	0	0	0	0	0	0	0	0	0	0	0	0	0	0	0	0	0	0	0	0	0	0	0	0	0	0	0	0	0	0	0	0	0	0	0	0	0	0	0	0	0	0	0	-1	0	-2.0278	-17.891	16.968	0	0	0	0	0	0	0	0	0	2
2486	24.86	0	0	0	0	0	0	0	0	0	0	0	0	0	0	0	0	0	0	0	0	0	0	0	0	10.989	-10.989	19.033	0	0	0	1	0	0	17.883	2.027	16.961	0	0	0	0	0	0	0	0	0	0	0	0	0	-1	0	-2.0278	-17.891	16.968	0	0	0	1	0	0	17.47	2.0148	16.554	2
2487	24.87	0	0	0	0	0	0	0	0	0	0	0	0	0	0	0	0	0	0	0	0	0	0	0	0	0	0	0	0	0	0	0	0	0	0	0	0	0	0	0	0	0	0	10.996	-10.996	19.046	0	0	0	0	-1	0	-2.0278	-17.891	16.968	0	0	0	0	0	0	0	0	0	2
2488	24.88	0	0	0	0	0	0	0	0	0	0	0	0	0	0	0	0	0	0	0	0	0	0	0	0	0	0	0	0	0	0	0	0	0	0	0	0	0	0	0	0	0	0	0	0	0	0	0	0	0	-1	0	-2.0278	-17.891	16.968	0	0	0	0	0	0	0	0	0	2
2489	24.89	0	0	0	0	0	0	0	0	0	0	0	0	0	0	0	0	0	0	0	0	0	0	0	0	0	0	0	0	0	0	0	0	0	0	0	0	0	0	0	0	0	0	0	0	0	0	0	0	0	0	0	0	0	0	0	0	0	0	0	0	0	0	0	2
2490	24.9	0	0	0	0	0	0	0	0	0	0	0	0	0	0	0	0	0	0	0	0	0	0	0	0	0	0	0	0	0	0	0	0	0	0	0	0	0	0	0	0	0	0	0	0	0	0	0	0	0	-1	0	-2.0278	-17.891	16.968	0	0	0	0	0	0	0	0	0	2
2491	24.91	0	0	0	0	0	0	0	0	0	0	0	0	0	0	0	0	0	0	0	0	0	0	0	0	10.989	-10.989	19.033	0	0	0	1	0	0	17.883	2.027	16.961	0	0	0	0	0	0	0	0	0	0	0	0	0	0	0	0	0	0	0	0	0	0	0	0	0	0	0	2
2492	24.92	0	0	0	0	0	0	0	0	0	0	0	0	0	0	0	0	0	0	0	0	0	0	0	0	0	0	0	0	0	0	0	0	0	0	0	0	0	0	0	0	0	0	10.996	-10.996	19.046	0	0	0	0	-1	0	-2.0278	-17.891	16.968	0	0	0	1	0	0	17.47	2.0148	16.554	2
2493	24.93	0	0	0	0	0	0	0	0	0	0	0	0	0	0	0	0	0	0	0	0	0	0	0	0	0	0	0	0	0	0	0	0	0	0	0	0	0	0	0	0	0	0	0	0	0	0	0	0	0	-1	0	-2.0278	-17.891	16.968	0	0	0	0	0	0	0	0	0	2
2494	24.94	0	0	0	0	0	0	0	0	0	0	0	0	0	0	0	0	0	0	0	0	0	0	0	0	0	0	0	0	0	0	0	0	0	0	0	0	0	0	0	0	0	0	0	0	0	0	0	0	0	-1	0	-2.0278	-17.891	16.968	0	0	0	0	0	0	10.93	-10.93	18.931	2
2495	24.95	0	0	0	0	0	0	0	0	0	0	0	0	0	0	0	0	0	0	0	0	0	0	0	0	0	0	0	0	0	0	1	0	0	17.883	2.027	16.961	0	0	0	0	0	0	0	0	0	0	0	0	0	-1	0	-2.0278	-17.891	16.968	0	0	0	0	0	0	0	0	0	2
2496	24.96	0	0	0	0	0	0	0	0	0	0	0	0	0	0	0	0	0	0	0	0	0	0	0	0	0	0	0	0	0	0	0	0	0	0	0	0	0	0	0	0	-1	0	-2.0279	-17.891	16.969	0	0	0	0	-1	0	-2.0278	-17.891	16.968	0	0	0	1	0	0	17.47	2.0148	16.554	2
2497	24.97	0	0	0	0	0	0	0	0	0	0	0	0	0	0	0	0	0	0	0	0	0	0	0	0	0	0	0	0	0	0	0	0	0	0	0	0	0	0	0	0	0	0	0	0	0	0	0	0	0	-1	0	-2.0278	-17.891	16.968	0	0	0	0	0	0	0	0	0	2
2498	24.98	0	0	0	0	0	0	10.917	-10.917	18.908	0	0	0	0	0	0	0	0	0	0	0	0	0	0	0	0	0	0	0	0	0	0	0	0	0	0	0	0	0	0	0	0	0	0	0	0	0	0	0	0	-1	0	-2.0278	-17.891	16.968	0	0	0	1	0	0	17.47	2.0148	16.554	2
2499	24.99	0	0	0	0	0	0	0	0	0	0	0	0	0	0	0	0	0	0	0	0	0	0	0	0	0	0	0	0	0	0	0	0	0	0	0	0	0	0	0	0	0	0	0	0	0	0	0	0	0	-1	0	-2.0278	-17.891	16.968	0	0	0	0	0	0	10.93	-10.93	18.931	2
2500	25	0	0	0	0	0	0	0	0	0	0	0	0	0	0	0	0	0	0	0	0	0	0	0	0	0	0	0	0	0	0	0	0	0	0	0	0	0	0	0	0	0	0	0	0	0	0	0	0	0	-1	0	-2.0278	-17.891	16.968	0	0	0	0	0	0	0	0	0	2
2501	25.01	0	0	0	0	0	0	0	0	0	0	0	0	0	0	0	0	0	0	0	0	0	0	0	0	0	0	0	0	0	0	1	0	0	17.883	2.027	16.961	0	0	0	0	0	0	0	0	0	0	0	0	0	-1	0	-2.0278	-17.891	16.968	0	0	0	1	0	0	17.47	2.0148	16.554	2
2502	25.02	0	0	0	0	0	0	0	0	0	0	0	0	0	0	0	0	0	0	0	0	0	0	0	0	0	0	0	0	0	0	1	0	0	17.883	2.027	16.961	0	0	0	0	0	0	10.996	-10.996	19.046	0	0	0	0	-1	0	-2.0278	-17.891	16.968	0	0	0	0	0	0	0	0	0	2
2503	25.03	0	0	0	0	0	0	0	0	0	0	0	0	0	0	0	0	0	0	0	0	0	0	0	0	0	0	0	0	0	0	0	0	0	0	0	0	0	0	0	0	0	0	0	0	0	0	0	0	0	-1	0	-2.0278	-17.891	16.968	0	0	0	0	0	0	0	0	0	2
2504	25.04	0	0	0	0	0	0	0	0	0	0	0	0	0	0	0	0	0	0	0	0	0	0	0	0	0	0	0	0	0	0	0	0	0	0	0	0	0	0	0	0	0	0	0	0	0	0	0	0	0	-1	0	-2.0278	-17.891	16.968	0	0	0	0	0	0	10.93	-10.93	18.931	2
2505	25.05	0	0	0	0	0	0	0	0	0	0	0	0	0	0	0	0	0	0	0	0	0	0	0	0	0	0	0	0	0	0	0	0	0	0	0	0	0	0	0	0	-1	0	-2.0279	-17.891	16.969	0	0	0	0	-1	0	-2.0278	-17.891	16.968	0	0	0	0	0	0	0	0	0	2
2506	25.06	0	0	0	0	0	0	0	0	0	0	0	0	0	0	0	0	0	0	0	0	0	0	0	0	10.989	-10.989	19.033	0	0	0	0	0	0	0	0	0	0	0	0	0	-1	0	-2.0279	-17.891	16.969	0	0	0	0	-1	0	-2.0278	-17.891	16.968	0	0	0	1	0	0	17.471	2.0135	16.556	2
2507	25.07	0	0	0	0	0	0	0	0	0	0	0	0	0	0	0	0	0	0	0	0	0	0	0	0	0	0	0	0	0	0	0	0	0	0	0	0	0	0	0	0	0	0	10.996	-10.996	19.046	0	0	0	0	-1	0	-2.0278	-17.891	16.968	0	0	0	1	0	0	17.47	2.0148	16.554	2
2508	25.08	0	0	0	0	0	0	0	0	0	0	0	0	0	0	0	0	0	0	0	0	0	0	0	0	0	0	0	0	0	0	0	0	0	0	0	0	0	0	0	0	0	0	0	0	0	0	0	0	0	0	0	0	0	0	0	0	0	0	0	0	0	0	0	2
2509	25.09	0	0	0	0	0	0	0	0	0	0	0	0	0	0	0	0	0	0	0	0	0	0	0	0	0	0	0	0	0	0	1	0	0	17.883	2.027	16.961	0	0	0	0	0	0	0	0	0	0	0	0	0	-1	0	-2.0278	-17.891	16.968	0	0	0	0	0	0	0	0	0	2
2510	25.1	0	0	0	0	0	0	0	0	0	0	0	0	0	0	0	0	0	0	0	0	0	0	0	0	0	0	0	0	0	0	0	0	0	0	0	0	0	0	0	0	0	0	0	0	0	0	0	0	0	-1	0	-2.0278	-17.891	16.968	0	0	0	0	0	0	10.93	-10.93	18.931	2
2511	25.11	0	0	0	0	0	0	0	0	0	0	0	0	0	0	0	0	0	0	0	0	0	0	0	0	10.989	-10.989	19.033	0	0	0	0	0	0	0	0	0	0	0	0	0	0	0	0	0	0	0	0	0	0	-1	0	-2.0278	-17.891	16.968	0	0	0	0	0	0	0	0	0	2
2512	25.12	0	0	0	0	0	0	0	0	0	0	0	0	0	0	0	0	0	0	0	0	0	0	0	0	0	0	0	0	0	0	0	0	0	0	0	0	0	0	0	0	-1	0	-2.0279	-17.891	16.969	0	0	0	0	-1	0	-2.0278	-17.891	16.968	0	0	0	0	0	0	0	0	0	2
2513	25.13	0	0	0	0	0	0	0	0	0	0	0	0	0	0	0	0	0	0	0	0	0	0	0	0	0	0	0	0	0	0	0	0	0	0	0	0	0	0	0	0	0	0	0	0	0	0	0	0	0	0	0	0	0	0	0	0	0	1	0	0	17.47	2.0148	16.554	2
2514	25.14	0	0	0	0	0	0	0	0	0	0	0	0	0	0	0	0	0	0	0	0	0	0	0	0	0	0	0	0	0	0	1	0	0	17.883	2.027	16.961	0	0	0	0	0	0	0	0	0	0	0	0	0	-1	0	-2.0278	-17.891	16.968	0	0	0	0	0	0	0	0	0	2
2515	25.15	0	0	0	0	0	0	0	0	0	0	0	0	0	0	0	0	0	0	0	0	0	0	0	0	0	0	0	0	0	0	0	0	0	0	0	0	0	0	0	0	0	0	0	0	0	0	0	0	0	-1	0	-2.0278	-17.891	16.968	0	0	0	0	0	0	0	0	0	2
2516	25.16	0	0	0	0	0	0	0	0	0	0	0	0	0	0	0	0	0	0	0	0	0	0	0	0	0	0	0	0	0	0	0	0	0	0	0	0	0	0	0	0	0	0	0	0	0	0	0	0	0	0	0	0	0	0	0	0	0	0	0	0	0	0	0	2
2517	25.17	0	0	0	0	0	0	0	0	0	0	0	0	0	0	0	0	0	0	0	0	0	0	0	0	0	0	0	0	0	0	1	0	0	17.883	2.027	16.961	0	0	0	0	0	0	10.996	-10.996	19.046	0	0	0	0	0	0	0	0	0	0	0	0	0	0	0	0	0	0	2
2518	25.18	0	0	0	0	0	0	0	0	0	0	0	0	0	0	0	0	0	0	0	0	0	0	0	0	0	0	0	0	0	0	0	0	0	0	0	0	0	0	0	0	-1	0	-2.0279	-17.891	16.969	0	0	0	0	0	0	0	0	0	0	0	0	0	0	0	0	0	0	2
2519	25.19	0	0	0	0	0	0	0	0	0	0	0	0	0	0	0	0	0	0	0	0	0	0	0	0	0	0	0	0	0	0	0	0	0	0	0	0	0	0	0	0	0	0	0	0	0	0	0	0	0	-1	0	-2.0278	-17.891	16.968	0	0	0	0	0	0	0	0	0	2
2520	25.2	0	0	0	0	0	0	0	0	0	0	0	0	0	0	0	0	0	0	0	0	0	0	0	0	0	0	0	0	0	0	0	0	0	0	0	0	0	0	0	0	-1	0	-2.0279	-17.891	16.969	0	0	0	0	-1	0	-2.0278	-17.891	16.968	0	0	0	0	0	0	0	0	0	2
2521	25.21	0	0	0	0	0	0	0	0	0	0	0	0	0	0	0	0	0	0	0	0	0	0	0	0	10.989	-10.989	19.033	0	0	0	1	0	0	17.883	2.027	16.961	0	0	0	0	-1	0	-2.0279	-17.891	16.969	0	0	0	0	0	0	0	0	0	0	0	0	0	0	0	0	0	0	2
2522	25.22	0	0	0	0	0	0	0	0	0	0	0	0	0	0	0	0	0	0	0	0	0	0	0	0	0	0	0	0	0	0	0	0	0	0	0	0	0	0	0	0	0	0	0	0	0	0	0	0	0	0	0	0	0	0	0	0	0	0	0	0	0	0	0	2
2523	25.23	0	0	0	0	0	0	0	0	0	0	0	0	0	0	0	0	0	0	0	0	0	0	0	0	0	0	0	0	0	0	1	0	0	17.883	2.027	16.961	0	0	0	0	-1	0	-2.0279	-17.891	16.969	0	0	0	0	-1	0	-2.0278	-17.891	16.968	0	0	0	1	0	0	17.47	2.0148	16.554	2
2524	25.24	0	0	0	0	0	0	0	0	0	0	0	0	0	0	0	0	0	0	0	0	0	0	0	0	0	0	0	0	0	0	0	0	0	0	0	0	0	0	0	0	0	0	0	0	0	0	0	0	0	-1	0	-2.0278	-17.891	16.968	0	0	0	0	0	0	0	0	0	2
2525	25.25	0	0	0	0	0	0	0	0	0	0	0	0	0	0	0	0	0	0	0	0	0	0	0	0	0	0	0	0	0	0	1	0	0	17.883	2.027	16.961	0	0	0	0	0	0	0	0	0	0	0	0	0	0	0	0	0	0	0	0	0	0	0	0	0	0	0	2
2526	25.26	0	0	0	0	0	0	0	0	0	0	0	0	0	0	0	0	0	0	0	0	0	0	0	0	0	0	0	0	0	0	0	0	0	0	0	0	0	0	0	0	0	0	0	0	0	0	0	0	0	-1	0	-2.0278	-17.891	16.968	0	0	0	1	0	0	17.471	2.0135	16.556	2
2527	25.27	0	0	0	0	0	0	0	0	0	0	0	0	0	0	0	0	0	0	0	0	0	0	0	0	0	0	0	0	0	0	1	0	0	17.883	2.027	16.961	0	0	0	0	-1	0	-2.0279	-17.891	16.969	0	0	0	0	-1	0	-2.0278	-17.891	16.968	0	0	0	0	0	0	0	0	0	2
2528	25.28	0	0	0	0	0	0	0	0	0	0	0	0	0	0	0	0	0	0	0	0	0	0	0	0	0	0	0	0	0	0	1	0	0	17.761	2.1499	16.789	0	0	0	0	0	0	0	0	0	0	0	0	0	-1	0	-2.0278	-17.891	16.968	0	0	0	0	0	0	0	0	0	0
2529	25.29	0	0	0	0	0	0	0	0	0	0	0	0	0	0	0	0	0	0	0	0	0	0	0	0	0	0	0	0	0	0	0	0	0	0	0	0	0	0	0	0	0	0	0	0	0	0	0	0	0	-1	0	-2.0278	-17.891	16.968	0	0	0	0	0	0	0	0	0	2
2530	25.3	0	0	0	0	0	0	0	0	0	0	0	0	0	0	0	0	0	0	0	0	0	0	0	0	0	0	0	0	0	0	0	0	0	0	0	0	0	0	0	0	0	0	0	0	0	0	0	0	0	-1	0	-2.0278	-17.891	16.968	0	0	0	0	0	0	0	0	0	2
2531	25.31	0	0	0	0	0	0	0	0	0	0	0	0	0	0	0	0	0	0	0	0	0	0	0	0	0	0	0	0	0	0	1	0	0	17.761	2.1499	16.789	0	0	0	0	0	0	0	0	0	0	0	0	0	0	0	0	0	0	0	0	0	1	0	0	17.47	2.0148	16.554	2
2532	25.32	0	0	0	0	0	0	0	0	0	0	0	0	0	0	0	0	0	0	0	0	0	0	0	0	0	0	0	0	0	0	0	0	0	0	0	0	0	0	0	0	0	0	0	0	0	0	0	0	0	-1	0	-2.0278	-17.891	16.968	0	0	0	0	0	0	0	0	0	2
2533	25.33	0	0	0	0	0	0	0	0	0	0	0	0	0	-1	0	-2.0372	-17.821	16.895	0	0	0	0	0	0	0	0	0	0	0	0	1	0	0	17.883	2.027	16.961	0	0	0	0	0	0	0	0	0	0	0	0	0	0	0	0	0	0	0	0	0	0	0	0	0	0	0	2
2534	25.34	0	0	0	0	0	0	0	0	0	0	0	0	0	0	0	0	0	0	0	0	0	0	0	0	0	0	0	0	0	0	0	0	0	10.991	-10.991	19.037	0	0	0	0	-1	0	-2.0279	-17.891	16.969	0	0	0	0	-1	0	-2.0278	-17.891	16.968	0	0	0	0	0	0	10.93	-10.93	18.931	2
2535	25.35	0	0	0	0	0	0	0	0	0	0	0	0	0	0	0	0	0	0	0	0	0	0	0	0	0	0	0	0	0	0	0	0	0	0	0	0	0	0	0	0	0	0	0	0	0	0	0	0	0	0	0	0	0	0	0	0	0	0	0	0	0	0	0	2
2536	25.36	0	0	0	0	0	0	0	0	0	0	0	0	0	0	0	0	0	0	0	0	0	0	0	0	10.989	-10.989	19.033	0	0	0	1	0	0	17.883	2.027	16.961	0	0	0	0	-1	0	-2.0279	-17.891	16.969	0	0	0	0	0	0	0	0	0	0	0	0	0	0	0	0	0	0	2
2537	25.37	0	0	0	0	0	0	0	0	0	0	0	0	0	0	0	0	0	0	0	0	0	0	0	0	0	0	0	0	0	0	1	0	0	17.883	2.027	16.961	0	0	0	0	0	0	0	0	0	0	0	0	0	-1	0	-2.0278	-17.891	16.968	0	0	0	0	0	0	0	0	0	2
2538	25.38	0	0	0	0	0	0	0	0	0	0	0	0	0	0	0	0	0	0	0	0	0	0	0	0	0	0	0	0	0	0	1	0	0	17.883	2.027	16.961	0	0	0	0	0	0	10.996	-10.996	19.046	0	0	0	0	0	0	0	0	0	0	0	0	0	0	0	0	0	0	2
2539	25.39	0	0	0	0	0	0	0	0	0	0	0	0	0	0	0	0	0	0	0	0	0	0	0	0	0	0	0	0	0	0	0	0	0	0	0	0	0	0	0	0	0	0	0	0	0	0	0	0	0	-1	0	-2.0278	-17.891	16.968	0	0	0	0	0	0	0	0	0	2
2540	25.4	0	0	0	0	0	0	0	0	0	0	0	0	0	0	0	0	0	0	0	0	0	0	0	0	0	0	0	0	0	0	0	0	0	0	0	0	0	0	0	0	0	0	0	0	0	0	0	0	0	-1	0	-2.0278	-17.891	16.968	0	0	0	0	0	0	0	0	0	2
2541	25.41	0	0	0	0	0	0	0	0	0	0	0	0	0	0	0	0	0	0	0	0	0	0	0	0	0	0	0	0	0	0	0	0	0	10.991	-10.991	19.037	0	0	0	0	0	0	0	0	0	0	0	0	0	-1	0	-2.0278	-17.891	16.968	0	0	0	1	0	0	17.47	2.0148	16.554	2
2542	25.42	0	0	0	0	0	0	0	0	0	0	0	0	0	0	0	0	0	0	0	0	0	0	0	0	0	0	0	0	0	0	0	0	0	0	0	0	0	0	0	0	-1	0	-2.0279	-17.891	16.969	0	0	0	0	0	0	0	0	0	0	0	0	0	0	0	0	0	0	2
2543	25.43	0	0	0	0	0	0	0	0	0	0	0	0	0	0	0	0	0	0	0	0	0	0	0	0	0	0	0	0	0	0	1	0	0	17.883	2.027	16.961	0	0	0	0	0	0	0	0	0	0	0	0	0	-1	0	-2.0278	-17.891	16.968	0	0	0	0	0	0	0	0	0	2
2544	25.44	0	0	0	0	0	0	0	0	0	0	0	0	0	0	0	0	0	0	0	0	0	0	0	0	0	0	0	0	0	0	0	0	0	10.991	-10.991	19.037	0	0	0	0	0	0	0	0	0	0	0	0	0	-1	0	-2.0278	-17.891	16.968	0	0	0	0	0	0	0	0	0	2
2545	25.45	0	0	0	0	0	0	0	0	0	0	0	0	0	0	0	0	0	0	0	0	0	0	0	0	0	0	0	0	0	0	0	0	0	0	0	0	0	0	0	0	0	0	0	0	0	0	0	0	0	-1	0	-2.0278	-17.891	16.968	0	0	0	0	0	0	0	0	0	2
2546	25.46	0	0	0	0	0	0	0	0	0	0	0	0	0	0	0	0	0	0	0	0	0	0	0	0	0	0	0	0	0	0	1	0	0	17.883	2.027	16.961	0	0	0	0	-1	0	-2.0279	-17.891	16.969	0	0	0	0	-1	0	-2.0278	-17.891	16.968	0	0	0	0	0	0	0	0	0	2
2547	25.47	0	0	0	0	0	0	0	0	0	0	0	0	0	0	0	0	0	0	0	0	0	0	0	0	0	0	0	0	0	0	0	0	0	10.991	-10.991	19.037	0	0	0	0	0	0	0	0	0	0	0	0	0	-1	0	-2.0278	-17.891	16.968	0	0	0	0	0	0	0	0	0	2
2548	25.48	0	0	0	0	0	0	0	0	0	0	0	0	0	0	0	0	0	0	0	0	0	0	0	0	0	0	0	0	0	0	1	0	0	17.883	2.027	16.961	0	0	0	0	0	0	0	0	0	0	0	0	0	-1	0	-2.0278	-17.891	16.968	0	0	0	0	0	0	0	0	0	2
2549	25.49	0	0	0	0	0	0	0	0	0	0	0	0	0	0	0	0	0	0	0	0	0	0	0	0	0	0	0	0	0	0	1	0	0	17.883	2.027	16.961	0	0	0	0	-1	0	-2.0279	-17.891	16.969	0	0	0	0	-1	0	-2.0278	-17.891	16.968	0	0	0	0	0	0	0	0	0	2
2550	25.5	0	0	0	0	0	0	0	0	0	0	0	0	0	0	0	0	0	0	0	0	0	0	0	0	0	0	0	0	0	0	0	0	0	0	0	0	0	0	0	0	0	0	0	0	0	0	0	0	0	-1	0	-2.0278	-17.891	16.968	0	0	0	0	0	0	10.93	-10.93	18.931	2
2551	25.51	0	0	0	0	0	0	0	0	0	0	0	0	0	0	0	0	0	0	0	0	0	0	0	0	0	0	0	0	0	0	0	0	0	0	0	0	0	0	0	0	-1	0	-2.0279	-17.891	16.969	0	0	0	0	-1	0	-2.0278	-17.891	16.968	0	0	0	1	0	0	17.47	2.0148	16.554	2
2552	25.52	0	0	0	0	0	0	0	0	0	0	0	0	0	0	0	0	0	0	0	0	0	0	0	0	0	0	0	0	0	0	0	0	0	10.991	-10.991	19.037	0	0	0	0	0	0	10.996	-10.996	19.046	0	0	0	0	0	0	0	0	0	0	0	0	0	0	0	0	0	0	2
2553	25.53	0	0	0	0	0	0	0	0	0	0	0	0	0	0	0	0	0	0	0	0	0	0	0	0	0	0	0	0	0	0	1	0	0	17.883	2.027	16.961	0	0	0	0	-1	0	-2.0279	-17.891	16.969	0	0	0	0	-1	0	-2.0278	-17.891	16.968	0	0	0	0	0	0	0	0	0	2
2554	25.54	0	0	0	0	0	0	0	0	0	0	0	0	0	0	0	0	0	0	0	0	0	0	0	0	0	0	0	0	0	0	0	0	0	0	0	0	0	0	0	0	0	0	10.996	-10.996	19.046	0	0	0	0	-1	0	-2.0278	-17.891	16.968	0	0	0	0	0	0	0	0	0	2
2555	25.55	0	0	0	0	0	0	0	0	0	0	0	0	0	0	0	0	0	0	0	0	0	0	0	0	0	0	0	0	0	0	0	0	0	0	0	0	0	0	0	0	-1	0	-2.0279	-17.891	16.969	0	0	0	0	-1	0	-2.0278	-17.891	16.968	0	0	0	1	0	0	17.47	2.0148	16.554	2
2556	25.56	0	0	0	0	0	0	0	0	0	0	0	0	0	0	0	0	0	0	0	0	0	0	0	0	0	0	0	0	0	0	0	0	0	0	0	0	0	0	0	0	0	0	0	0	0	0	0	0	0	0	0	0	0	0	0	0	0	0	0	0	0	0	0	2
2557	25.57	0	0	0	0	0	0	0	0	0	0	0	0	0	0	0	0	0	0	0	0	0	0	0	0	0	0	0	0	0	0	0	0	0	0	0	0	0	0	0	0	-1	0	-2.0279	-17.891	16.969	0	0	0	0	-1	0	-2.0278	-17.891	16.968	0	0	0	0	0	0	0	0	0	2
2558	25.58	0	0	0	0	0	0	0	0	0	0	0	0	0	0	0	0	0	0	0	0	0	0	0	0	0	0	0	0	0	0	0	0	0	0	0	0	0	0	0	0	0	0	0	0	0	0	0	0	0	-1	0	-2.0278	-17.891	16.968	0	0	0	0	0	0	0	0	0	2
2559	25.59	0	0	0	0	0	0	0	0	0	0	0	0	0	0	0	0	0	0	0	0	0	0	0	0	0	0	0	0	0	0	0	0	0	10.991	-10.991	19.037	0	0	0	0	0	0	0	0	0	0	0	0	0	-1	0	-2.0278	-17.891	16.968	0	0	0	0	0	0	10.93	-10.93	18.931	2
2560	25.6	0	0	0	0	0	0	0	0	0	0	0	0	0	0	0	0	0	0	0	0	0	0	0	0	10.989	-10.989	19.033	0	0	0	0	0	0	0	0	0	0	0	0	0	-1	0	-2.0279	-17.891	16.969	0	0	0	0	-1	0	-2.0278	-17.891	16.968	0	0	0	0	0	0	0	0	0	2
2561	25.61	0	0	0	0	0	0	0	0	0	0	0	0	0	0	0	0	0	0	0	0	0	0	0	0	0	0	0	0	0	0	0	0	0	0	0	0	0	0	0	0	0	0	0	0	0	0	0	0	0	-1	0	-2.0278	-17.891	16.968	0	0	0	1	0	0	17.47	2.0148	16.554	2
2562	25.62	0	0	0	0	0	0	0	0	0	0	0	0	0	0	0	0	0	0	0	0	0	0	0	0	0	0	0	0	0	0	0	0	0	0	0	0	0	0	0	0	-1	0	-2.1508	-17.769	16.797	0	0	0	0	0	0	0	0	0	0	0	0	0	0	0	0	0	0	2
2563	25.63	0	0	0	0	0	0	0	0	0	0	0	0	0	0	0	0	0	0	0	0	0	0	0	0	0	0	0	0	0	0	0	0	0	10.991	-10.991	19.037	0	0	0	0	0	0	0	0	0	0	0	0	0	-1	0	-2.0278	-17.891	16.968	0	0	0	0	0	0	0	0	0	2
2564	25.64	0	0	0	0	0	0	0	0	0	0	0	0	0	0	0	0	0	0	0	0	0	0	0	0	0	0	0	0	0	0	0	0	0	0	0	0	0	0	0	0	0	0	0	0	0	0	0	0	0	-1	0	-2.0278	-17.891	16.968	0	0	0	1	0	0	17.47	2.0148	16.554	2
2565	25.65	0	0	0	0	0	0	0	0	0	0	0	0	0	0	0	0	0	0	0	0	0	0	0	0	0	0	0	0	0	0	0	0	0	0	0	0	0	0	0	0	0	0	10.996	-10.996	19.046	0	0	0	0	-1	0	-2.0278	-17.891	16.968	0	0	0	0	0	0	0	0	0	2
2566	25.66	0	0	0	0	0	0	0	0	0	0	0	0	0	0	0	0	0	0	0	0	0	0	0	0	0	0	0	0	0	0	0	0	0	0	0	0	0	0	0	0	-1	0	-2.0279	-17.891	16.969	0	0	0	0	-1	0	-2.0278	-17.891	16.968	0	0	0	1	0	0	17.471	2.0135	16.556	2
2567	25.67	0	0	0	0	0	0	0	0	0	0	0	0	0	0	0	0	0	0	0	0	0	0	0	0	10.989	-10.989	19.033	0	0	0	0	0	0	0	0	0	0	0	0	0	-1	0	-2.0279	-17.891	16.969	0	0	0	0	-1	0	-2.0278	-17.891	16.968	0	0	0	0	0	0	0	0	0	2
2568	25.68	0	0	0	0	0	0	0	0	0	0	0	0	0	0	0	0	0	0	0	0	0	0	0	0	0	0	0	0	0	0	1	0	0	17.883	2.027	16.961	0	0	0	0	0	0	0	0	0	0	0	0	0	-1	0	-2.0278	-17.891	16.968	0	0	0	0	0	0	0	0	0	2
2569	25.69	0	0	0	0	0	0	0	0	0	0	0	0	0	0	0	0	0	0	0	0	0	0	0	0	0	0	0	0	0	0	1	0	0	17.883	2.027	16.961	0	0	0	0	0	0	0	0	0	0	0	0	0	-1	0	-2.0278	-17.891	16.968	0	0	0	0	0	0	0	0	0	2
2570	25.7	0	0	0	0	0	0	0	0	0	0	0	0	0	0	0	0	0	0	0	0	0	0	0	0	0	0	0	0	0	0	0	0	0	0	0	0	0	0	0	0	0	0	0	0	0	0	0	0	0	-1	0	-2.0278	-17.891	16.968	0	0	0	0	0	0	0	0	0	2
2571	25.71	0	0	0	0	0	0	0	0	0	0	0	0	0	0	0	0	0	0	0	0	0	0	0	0	0	0	0	0	0	0	1	0	0	17.883	2.027	16.961	0	0	0	0	0	0	0	0	0	0	0	0	0	-1	0	-2.0278	-17.891	16.968	0	0	0	1	0	0	17.47	2.0148	16.554	2
2572	25.72	0	0	0	0	0	0	0	0	0	0	0	0	0	-1	0	-2.0366	-17.816	16.89	0	0	0	0	0	0	0	0	0	0	0	0	0	0	0	0	0	0	0	0	0	0	0	0	0	0	0	0	0	0	0	-1	0	-2.0278	-17.891	16.968	0	0	0	0	0	0	0	0	0	2
2573	25.73	0	0	0	0	0	0	0	0	0	0	0	0	0	0	0	0	0	0	0	0	0	0	0	0	0	0	0	0	0	0	1	0	0	17.761	2.1499	16.789	0	0	0	0	0	0	0	0	0	0	0	0	0	-1	0	-2.0278	-17.891	16.968	0	0	0	0	0	0	0	0	0	2
2574	25.74	0	0	0	0	0	0	0	0	0	0	0	0	0	0	0	0	0	0	0	0	0	0	0	0	0	0	0	0	0	0	0	0	0	0	0	0	0	0	0	0	0	0	0	0	0	0	0	0	0	-1	0	-2.0278	-17.891	16.968	0	0	0	0	0	0	0	0	0	2
2575	25.75	0	0	0	0	0	0	0	0	0	0	0	0	0	0	0	0	0	0	0	0	0	0	0	0	0	0	0	0	0	0	0	0	0	0	0	0	0	0	0	0	0	0	10.996	-10.996	19.046	0	0	0	0	-1	0	-2.0278	-17.891	16.968	0	0	0	0	0	0	0	0	0	2
2576	25.76	0	0	0	0	0	0	0	0	0	0	0	0	0	0	0	0	0	0	0	0	0	0	0	0	0	0	0	0	0	0	0	0	0	10.991	-10.991	19.037	0	0	0	0	0	0	0	0	0	0	0	0	0	-1	0	-2.0278	-17.891	16.968	0	0	0	1	0	0	17.47	2.0148	16.554	2
2577	25.77	0	0	0	0	0	0	0	0	0	0	0	0	0	0	0	0	0	0	0	0	0	0	0	0	0	0	0	0	0	0	0	0	0	0	0	0	0	0	0	0	0	0	10.996	-10.996	19.046	0	0	0	0	-1	0	-2.0278	-17.891	16.968	0	0	0	0	0	0	0	0	0	2
2578	25.78	0	0	0	0	0	0	0	0	0	0	0	0	0	0	0	0	0	0	0	0	0	0	0	0	0	0	0	0	0	0	1	0	0	17.761	2.1499	16.789	0	0	0	0	0	0	0	0	0	0	0	0	0	-1	0	-2.0278	-17.891	16.968	0	0	0	1	0	0	17.47	2.0148	16.554	2
2579	25.79	0	0	0	0	0	0	0	0	0	0	0	0	0	0	0	0	0	0	0	0	0	0	0	0	10.989	-10.989	19.033	0	0	0	1	0	0	17.883	2.027	16.961	0	0	0	0	0	0	0	0	0	0	0	0	0	0	0	0	0	0	0	0	0	0	0	0	0	0	0	2
2580	25.8	0	0	0	0	0	0	0	0	0	0	0	0	0	0	0	0	0	0	0	0	0	0	0	0	0	0	0	0	0	0	0	0	0	0	0	0	0	0	0	0	0	0	0	0	0	0	0	0	0	-1	0	-2.0278	-17.891	16.968	0	0	0	0	0	0	0	0	0	2
2581	25.81	0	0	0	0	0	0	0	0	0	0	0	0	0	0	0	0	0	0	0	0	0	0	0	0	10.989	-10.989	19.033	0	0	0	0	0	0	10.991	-10.991	19.037	0	0	0	0	0	0	0	0	0	0	0	0	0	-1	0	-2.0278	-17.891	16.968	0	0	0	0	0	0	0	0	0	2
2582	25.82	0	0	0	0	0	0	0	0	0	0	0	0	0	0	0	0	0	0	0	0	0	0	0	0	0	0	0	0	0	0	0	0	0	0	0	0	0	0	0	0	0	0	10.996	-10.996	19.046	0	0	0	0	-1	0	-2.0278	-17.891	16.968	0	0	0	0	0	0	0	0	0	2
2583	25.83	0	0	0	0	0	0	0	0	0	0	0	0	0	0	0	0	0	0	0	0	0	0	0	0	0	0	0	0	0	0	0	0	0	0	0	0	0	0	0	0	0	0	0	0	0	0	0	0	0	-1	0	-2.0278	-17.891	16.968	0	0	0	1	0	0	17.47	2.0148	16.554	2
2584	25.84	0	0	0	0	0	0	0	0	0	0	0	0	0	0	0	0	0	0	0	0	0	0	0	0	0	0	0	0	0	0	0	0	0	0	0	0	0	0	0	0	0	0	0	0	0	0	0	0	0	-1	0	-2.0278	-17.891	16.968	0	0	0	0	0	0	0	0	0	2
2585	25.85	0	0	0	0	0	0	0	0	0	0	0	0	0	0	0	0	0	0	0	0	0	0	0	0	0	0	0	0	0	0	0	0	0	0	0	0	0	0	0	0	-1	0	-2.0279	-17.891	16.969	0	0	0	0	0	0	0	0	0	0	0	0	0	0	0	0	0	0	2
2586	25.86	0	0	0	0	0	0	0	0	0	0	0	0	0	0	0	0	0	0	0	0	0	0	0	0	0	0	0	0	0	0	1	0	0	17.883	2.027	16.961	0	0	0	0	0	0	0	0	0	0	0	0	0	0	0	0	0	0	0	0	0	0	0	0	0	0	0	2
2587	25.87	0	0	0	0	0	0	0	0	0	0	0	0	0	0	0	0	0	0	0	0	0	0	0	0	0	0	0	0	0	0	0	0	0	10.991	-10.991	19.037	0	0	0	0	0	0	0	0	0	0	0	0	0	-1	0	-2.0278	-17.891	16.968	0	0	0	0	0	0	0	0	0	2
2588	25.88	0	0	0	0	0	0	0	0	0	0	0	0	0	0	0	0	0	0	0	0	0	0	0	0	0	0	0	0	0	0	1	0	0	17.883	2.027	16.961	0	0	0	0	0	0	0	0	0	0	0	0	0	-1	0	-2.0278	-17.891	16.968	0	0	0	0	0	0	0	0	0	2
2589	25.89	0	0	0	0	0	0	0	0	0	0	0	0	0	0	0	0	0	0	0	0	0	0	0	0	0	0	0	0	0	0	0	0	0	10.991	-10.991	19.037	0	0	0	0	0	0	0	0	0	0	0	0	0	0	0	0	0	0	0	0	0	0	0	0	0	0	0	2
2590	25.9	0	0	0	0	0	0	0	0	0	0	0	0	0	0	0	0	0	0	0	0	0	0	0	0	0	0	0	0	0	0	0	0	0	0	0	0	0	0	0	0	0	0	0	0	0	0	0	0	0	-1	0	-2.0278	-17.891	16.968	0	0	0	1	0	0	17.47	2.0148	16.554	2
2591	25.91	0	0	0	0	0	0	10.917	-10.917	18.908	0	0	0	0	0	0	0	0	0	0	0	0	0	0	0	10.989	-10.989	19.033	0	0	0	1	0	0	17.883	2.027	16.961	0	0	0	0	0	0	0	0	0	0	0	0	0	-1	0	-2.0278	-17.891	16.968	0	0	0	1	0	0	17.47	2.0148	16.554	2
2592	25.92	0	0	0	0	0	0	0	0	0	0	0	0	0	0	0	0	0	0	0	0	0	0	0	0	0	0	0	0	0	0	0	0	0	0	0	0	0	0	0	0	0	0	0	0	0	0	0	0	0	-1	0	-2.0278	-17.891	16.968	0	0	0	0	0	0	0	0	0	2
2593	25.93	0	0	0	0	0	0	0	0	0	0	0	0	0	0	0	0	0	0	0	0	0	0	0	0	10.989	-10.989	19.033	0	0	0	0	0	0	0	0	0	0	0	0	0	0	0	0	0	0	0	0	0	0	-1	0	-2.0278	-17.891	16.968	0	0	0	0	0	0	0	0	0	-2
2594	25.94	0	0	0	0	0	0	0	0	0	0	0	0	0	0	0	0	0	0	0	0	0	0	0	0	0	0	0	0	0	0	0	0	0	0	0	0	0	0	0	0	0	0	0	0	0	0	0	0	0	0	0	0	0	0	0	0	0	1	0	0	17.47	2.0148	16.554	2
2595	25.95	0	0	0	0	0	0	0	0	0	0	0	0	0	0	0	0	0	0	0	0	0	0	0	0	0	0	0	0	0	0	0	0	0	0	0	0	0	0	0	0	-1	0	-2.1508	-17.769	16.797	0	0	0	0	-1	0	-2.0278	-17.891	16.968	0	0	0	0	0	0	0	0	0	2
2596	25.96	0	0	0	0	0	0	0	0	0	0	0	0	0	0	0	0	0	0	0	0	0	0	0	0	0	0	0	0	0	0	0	0	0	0	0	0	0	0	0	0	0	0	0	0	0	0	0	0	0	-1	0	-2.0278	-17.891	16.968	0	0	0	0	0	0	0	0	0	2
2597	25.97	0	0	0	0	0	0	0	0	0	0	0	0	0	0	0	0	0	0	0	0	0	0	0	0	0	0	0	0	0	0	0	0	0	0	0	0	0	0	0	0	0	0	0	0	0	0	0	0	0	-1	0	-2.0278	-17.891	16.968	0	0	0	0	0	0	0	0	0	2
2598	25.98	0	0	0	0	0	0	10.917	-10.917	18.908	0	0	0	0	0	0	0	0	0	0	0	0	0	0	0	10.989	-10.989	19.033	0	0	0	0	0	0	0	0	0	0	0	0	0	0	0	0	0	0	0	0	0	0	-1	0	-2.0278	-17.891	16.968	0	0	0	0	0	0	0	0	0	2
2599	25.99	0	0	0	0	0	0	0	0	0	0	0	0	0	0	0	0	0	0	0	0	0	0	0	0	0	0	0	0	0	0	0	0	0	0	0	0	0	0	0	0	0	0	0	0	0	0	0	0	0	-1	0	-2.0278	-17.891	16.968	0	0	0	0	0	0	0	0	0	2
2600	26	0	0	0	0	0	0	10.917	-10.917	18.908	0	0	0	0	0	0	0	0	0	0	0	0	0	0	0	0	0	0	0	0	0	0	0	0	0	0	0	0	0	0	0	-1	0	-2.1508	-17.769	16.797	0	0	0	0	-1	0	-2.0278	-17.891	16.968	0	0	0	0	0	0	0	0	0	2
2601	26.01	0	0	0	0	0	0	0	0	0	0	0	0	0	0	0	0	0	0	0	0	0	0	0	0	0	0	0	0	0	0	1	0	0	17.883	2.027	16.961	0	0	0	0	0	0	0	0	0	0	0	0	0	-1	0	-2.0278	-17.891	16.968	0	0	0	1	0	0	17.47	2.0148	16.554	2
2602	26.02	0	0	0	0	0	0	0	0	0	0	0	0	0	0	0	0	0	0	0	0	0	0	0	0	0	0	0	0	0	0	0	0	0	0	0	0	0	0	0	0	0	0	0	0	0	0	0	0	0	-1	0	-2.0278	-17.891	16.968	0	0	0	0	0	0	0	0	0	2
2603	26.03	0	0	0	0	0	0	0	0	0	0	0	0	0	0	0	0	0	0	0	0	0	0	0	0	0	0	0	0	0	0	0	0	0	0	0	0	0	0	0	0	0	0	0	0	0	0	0	0	0	0	0	0	0	0	0	0	0	1	0	0	17.47	2.0148	16.554	2
2604	26.04	0	0	0	0	0	0	0	0	0	0	0	0	0	0	0	0	0	0	0	0	0	0	0	0	0	0	0	0	0	0	0	0	0	0	0	0	0	0	0	0	0	0	0	0	0	0	0	0	0	0	0	0	0	0	0	0	0	0	0	0	10.93	-10.93	18.931	2
2605	26.05	0	0	0	0	0	0	0	0	0	0	0	0	0	0	0	0	0	0	0	0	0	0	0	0	0	0	0	0	0	0	0	0	0	0	0	0	0	0	0	0	0	0	0	0	0	0	0	0	0	-1	0	-2.0278	-17.891	16.968	0	0	0	0	0	0	0	0	0	2
2606	26.06	0	0	0	0	0	0	10.917	-10.917	18.908	0	0	0	0	-1	0	-2.0372	-17.821	16.895	0	0	0	0	0	0	0	0	0	0	0	0	0	0	0	0	0	0	0	0	0	0	0	0	0	0	0	0	0	0	0	0	0	0	0	0	0	0	0	0	0	0	0	0	0	2
2607	26.07	0	0	0	0	0	0	0	0	0	0	0	0	0	0	0	0	0	0	0	0	0	0	0	0	0	0	0	0	0	0	0	0	0	0	0	0	0	0	0	0	0	0	0	0	0	0	0	0	0	0	0	0	0	0	0	0	0	0	0	0	0	0	0	2
2608	26.08	0	0	0	0	0	0	0	0	0	0	0	0	0	0	0	0	0	0	0	0	0	0	0	0	0	0	0	0	0	0	0	0	0	0	0	0	0	0	0	0	0	0	0	0	0	0	0	0	0	-1	0	-2.0278	-17.891	16.968	0	0	0	0	0	0	0	0	0	2
2609	26.09	0	0	0	0	0	0	0	0	0	0	0	0	0	0	0	0	0	0	0	0	0	0	0	0	0	0	0	0	0	0	0	0	0	0	0	0	0	0	0	0	0	0	0	0	0	0	0	0	0	0	0	0	0	0	0	0	0	1	0	0	17.471	2.0135	16.556	2
2610	26.1	0	0	0	0	0	0	0	0	0	0	0	0	0	0	0	0	0	0	0	0	0	0	0	0	0	0	0	0	0	0	0	0	0	0	0	0	0	0	0	0	-1	0	-2.0279	-17.891	16.969	0	0	0	0	-1	0	-2.0278	-17.891	16.968	0	0	0	0	0	0	0	0	0	2
2611	26.11	0	0	0	0	0	0	0	0	0	0	0	0	0	0	0	0	0	0	0	0	0	0	0	0	0	0	0	0	0	0	0	0	0	0	0	0	0	0	0	0	0	0	0	0	0	0	0	0	0	-1	0	-2.0278	-17.891	16.968	0	0	0	0	0	0	0	0	0	2
2612	26.12	0	0	0	0	0	0	0	0	0	0	0	0	0	0	0	0	0	0	0	0	0	0	0	0	0	0	0	0	0	0	0	0	0	0	0	0	0	0	0	0	-1	0	-2.1508	-17.769	16.797	0	0	0	0	-1	0	-2.0278	-17.891	16.968	0	0	0	0	0	0	0	0	0	2
2613	26.13	0	0	0	0	0	0	0	0	0	0	0	0	0	0	0	0	0	0	0	0	0	0	0	0	0	0	0	0	0	0	0	0	0	0	0	0	0	0	0	0	0	0	0	0	0	0	0	0	0	0	0	0	0	0	0	0	0	0	0	0	0	0	0	2
2614	26.14	0	0	0	0	0	0	0	0	0	0	0	0	0	0	0	0	0	0	0	0	0	0	0	0	0	0	0	0	0	0	1	0	0	17.883	2.027	16.961	0	0	0	0	0	0	0	0	0	0	0	0	0	-1	0	-2.0278	-17.891	16.968	0	0	0	0	0	0	0	0	0	2
2615	26.15	0	0	0	0	0	0	0	0	0	0	0	0	0	0	0	0	0	0	0	0	0	0	0	0	0	0	0	0	0	0	0	0	0	0	0	0	0	0	0	0	0	0	0	0	0	0	0	0	0	-1	0	-2.0278	-17.891	16.968	0	0	0	0	0	0	0	0	0	2
2616	26.16	0	0	0	0	0	0	0	0	0	0	0	0	0	0	0	0	0	0	0	0	0	0	0	0	0	0	0	0	0	0	1	0	0	17.883	2.027	16.961	0	0	0	0	0	0	0	0	0	0	0	0	0	0	0	0	0	0	0	0	0	0	0	0	0	0	0	2
2617	26.17	0	0	0	0	0	0	0	0	0	0	0	0	0	0	0	0	0	0	0	0	0	0	0	0	0	0	0	0	0	0	0	0	0	0	0	0	0	0	0	0	0	0	0	0	0	0	0	0	0	0	0	0	0	0	0	0	0	0	0	0	0	0	0	0
2618	26.18	0	0	0	0	0	0	0	0	0	0	0	0	0	0	0	0	0	0	0	0	0	0	0	0	0	0	0	0	0	0	0	0	0	0	0	0	0	0	0	0	0	0	10.996	-10.996	19.046	0	0	0	0	0	0	0	0	0	0	0	0	0	0	0	0	0	0	2
2619	26.19	0	0	0	0	0	0	0	0	0	0	0	0	0	0	0	0	0	0	0	0	0	0	0	0	0	0	0	0	0	0	1	0	0	17.883	2.027	16.961	0	0	0	0	0	0	0	0	0	0	0	0	0	-1	0	-2.0278	-17.891	16.968	0	0	0	1	0	0	17.47	2.0148	16.554	2
2620	26.2	0	0	0	0	0	0	0	0	0	0	0	0	0	0	0	0	0	0	0	0	0	0	0	0	0	0	0	0	0	0	0	0	0	0	0	0	0	0	0	0	0	0	0	0	0	0	0	0	0	-1	0	-2.0278	-17.891	16.968	0	0	0	0	0	0	0	0	0	2
2621	26.21	0	0	0	0	0	0	0	0	0	0	0	0	0	0	0	0	0	0	0	0	0	0	0	0	0	0	0	0	0	0	0	0	0	0	0	0	0	0	0	0	0	0	0	0	0	0	0	0	0	-1	0	-2.0278	-17.891	16.968	0	0	0	1	0	0	17.47	2.0148	16.554	2
2622	26.22	0	0	0	0	0	0	0	0	0	0	0	0	0	0	0	0	0	0	0	0	0	0	0	0	0	0	0	0	0	0	0	0	0	0	0	0	0	0	0	0	0	0	0	0	0	0	0	0	0	-1	0	-2.0278	-17.891	16.968	0	0	0	0	0	0	0	0	0	2
2623	26.23	0	0	0	0	0	0	0	0	0	0	0	0	0	0	0	0	0	0	0	0	0	0	0	0	0	0	0	0	0	0	1	0	0	17.883	2.027	16.961	0	0	0	0	0	0	10.996	-10.996	19.046	0	0	0	0	0	0	0	0	0	0	0	0	0	0	0	0	0	0	0
2624	26.24	0	0	0	0	0	0	0	0	0	0	0	0	0	0	0	0	0	0	0	0	0	0	0	0	0	0	0	0	0	0	0	0	0	0	0	0	0	0	0	0	0	0	0	0	0	0	0	0	0	-1	0	-2.0278	-17.891	16.968	0	0	0	1	0	0	17.47	2.0148	16.554	2
2625	26.25	0	0	0	0	0	0	0	0	0	0	0	0	0	0	0	0	0	0	0	0	0	0	0	0	0	0	0	0	0	0	1	0	0	17.883	2.027	16.961	0	0	0	0	-1	0	-2.0279	-17.891	16.969	0	0	0	0	-1	0	-2.0278	-17.891	16.968	0	0	0	0	0	0	0	0	0	2
2626	26.26	0	0	0	0	0	0	0	0	0	0	0	0	0	0	0	0	0	0	0	0	0	0	0	0	0	0	0	0	0	0	1	0	0	17.883	2.027	16.961	0	0	0	0	0	0	0	0	0	0	0	0	0	-1	0	-2.0278	-17.891	16.968	0	0	0	1	0	0	17.47	2.0148	16.554	2
2627	26.27	0	0	0	0	0	0	0	0	0	0	0	0	0	0	0	0	0	0	0	0	0	0	0	0	0	0	0	0	0	0	0	0	0	0	0	0	0	0	0	0	-1	0	-2.0279	-17.891	16.969	0	0	0	0	-1	0	-2.0278	-17.891	16.968	0	0	0	0	0	0	0	0	0	2
2628	26.28	0	0	0	0	0	0	0	0	0	0	0	0	0	0	0	0	0	0	0	0	0	0	0	0	0	0	0	0	0	0	0	0	0	10.991	-10.991	19.037	0	0	0	0	0	0	0	0	0	0	0	0	0	-1	0	-2.0278	-17.891	16.968	0	0	0	1	0	0	17.47	2.0148	16.554	0
2629	26.29	0	0	0	0	0	0	10.917	-10.917	18.908	0	0	0	0	0	0	0	0	0	0	0	0	0	0	0	0	0	0	0	0	0	0	0	0	0	0	0	0	0	0	0	0	0	0	0	0	0	0	0	0	-1	0	-2.0278	-17.891	16.968	0	0	0	0	0	0	0	0	0	2
2630	26.3	0	0	0	0	0	0	0	0	0	0	0	0	0	0	0	0	0	0	0	0	0	0	0	0	0	0	0	0	0	0	0	0	0	0	0	0	0	0	0	0	0	0	10.996	-10.996	19.046	0	0	0	0	0	0	0	0	0	0	0	0	0	0	0	0	0	0	2
2631	26.31	0	0	0	0	0	0	10.917	-10.917	18.908	0	0	0	0	0	0	0	0	0	0	0	0	0	0	0	10.989	-10.989	19.033	0	0	0	1	0	0	17.883	2.027	16.961	0	0	0	0	0	0	0	0	0	0	0	0	0	-1	0	-2.0278	-17.891	16.968	0	0	0	0	0	0	0	0	0	2
2632	26.32	0	0	0	0	0	0	0	0	0	0	0	0	0	0	0	0	0	0	0	0	0	0	0	0	0	0	0	0	0	0	0	0	0	0	0	0	0	0	0	0	0	0	10.996	-10.996	19.046	0	0	0	0	0	0	0	0	0	0	0	0	0	0	0	0	0	0	2
2633	26.33	0	0	0	0	0	0	0	0	0	0	0	0	0	0	0	0	0	0	0	0	0	0	0	0	0	0	0	0	0	0	0	0	0	0	0	0	0	0	0	0	0	0	0	0	0	0	0	0	0	-1	0	-2.0278	-17.891	16.968	0	0	0	0	0	0	0	0	0	2
2634	26.34	0	0	0	0	0	0	0	0	0	0	0	0	0	0	0	0	0	0	0	0	0	0	0	0	0	0	0	0	0	0	0	0	0	0	0	0	0	0	0	0	0	0	0	0	0	0	0	0	0	-1	0	-2.0278	-17.891	16.968	0	0	0	0	0	0	0	0	0	2
2635	26.35	0	0	0	0	0	0	0	0	0	0	0	0	0	0	0	0	0	0	0	0	0	0	0	0	0	0	0	0	0	0	0	0	0	0	0	0	0	0	0	0	0	0	0	0	0	0	0	0	0	0	0	0	0	0	0	0	0	0	0	0	0	0	0	2
2636	26.36	0	0	0	0	0	0	0	0	0	0	0	0	0	0	0	0	0	0	0	0	0	0	0	0	10.989	-10.989	19.033	0	0	0	0	0	0	0	0	0	0	0	0	0	0	0	0	0	0	0	0	0	0	-1	0	-2.0278	-17.891	16.968	0	0	0	0	0	0	0	0	0	2
2637	26.37	0	0	0	0	0	0	0	0	0	0	0	0	0	0	0	0	0	0	0	0	0	0	0	0	0	0	0	0	0	0	0	0	0	0	0	0	0	0	0	0	0	0	10.996	-10.996	19.046	0	0	0	0	-1	0	-2.0278	-17.891	16.968	0	0	0	0	0	0	0	0	0	2
2638	26.38	0	0	0	0	0	0	10.917	-10.917	18.908	0	0	0	0	0	0	0	0	0	0	0	0	0	0	0	0	0	0	0	0	0	0	0	0	0	0	0	0	0	0	0	0	0	0	0	0	0	0	0	0	0	0	0	0	0	0	0	0	0	0	0	0	0	0	2
2639	26.39	0	0	0	0	0	0	0	0	0	0	0	0	0	0	0	0	0	0	0	0	0	0	0	0	10.989	-10.989	19.033	0	0	0	0	0	0	0	0	0	0	0	0	0	0	0	0	0	0	0	0	0	0	-1	0	-2.0278	-17.891	16.968	0	0	0	0	0	0	0	0	0	2
2640	26.4	0	0	0	0	0	0	0	0	0	0	0	0	0	-1	0	-2.0372	-17.821	16.895	0	0	0	0	0	0	0	0	0	0	0	0	0	0	0	0	0	0	0	0	0	0	0	0	10.996	-10.996	19.046	0	0	0	0	-1	0	-2.0278	-17.891	16.968	0	0	0	1	0	0	17.47	2.0148	16.554	2
2641	26.41	0	0	0	0	0	0	0	0	0	0	0	0	0	0	0	0	0	0	0	0	0	0	0	0	10.989	-10.989	19.033	0	0	0	1	0	0	17.883	2.027	16.961	0	0	0	0	0	0	0	0	0	0	0	0	0	-1	0	-2.0278	-17.891	16.968	0	0	0	0	0	0	0	0	0	2
2642	26.42	0	0	0	0	0	0	0	0	0	0	0	0	0	0	0	0	0	0	0	0	0	0	0	0	0	0	0	0	0	0	0	0	0	0	0	0	0	0	0	0	0	0	10.996	-10.996	19.046	0	0	0	0	-1	0	-2.0278	-17.891	16.968	0	0	0	0	0	0	0	0	0	2
2643	26.43	0	0	0	0	0	0	0	0	0	0	0	0	0	0	0	0	0	0	0	0	0	0	0	0	0	0	0	0	0	0	0	0	0	0	0	0	0	0	0	0	0	0	0	0	0	0	0	0	0	-1	0	-2.0278	-17.891	16.968	0	0	0	0	0	0	0	0	0	2
2644	26.44	0	0	0	0	0	0	0	0	0	0	0	0	0	0	0	0	0	0	0	0	0	0	0	0	0	0	0	0	0	0	1	0	0	17.761	2.1499	16.789	0	0	0	0	-1	0	-2.0279	-17.891	16.969	0	0	0	0	-1	0	-2.0278	-17.891	16.968	0	0	0	0	0	0	0	0	0	2
2645	26.45	0	0	0	0	0	0	0	0	0	0	0	0	0	-1	0	-2.0372	-17.821	16.895	0	0	0	0	0	0	0	0	0	0	0	0	0	0	0	0	0	0	0	0	0	0	0	0	0	0	0	0	0	0	0	0	0	0	0	0	0	0	0	0	0	0	0	0	0	2
2646	26.46	0	0	0	0	0	0	0	0	0	0	0	0	0	0	0	0	0	0	0	0	0	0	0	0	0	0	0	0	0	0	0	0	0	0	0	0	0	0	0	0	-1	0	-2.0279	-17.891	16.969	0	0	0	0	-1	0	-2.0278	-17.891	16.968	0	0	0	0	0	0	0	0	0	2
2647	26.47	0	0	0	0	0	0	10.917	-10.917	18.908	0	0	0	0	0	0	0	0	0	0	0	0	0	0	0	0	0	0	0	0	0	0	0	0	0	0	0	0	0	0	0	0	0	0	0	0	0	0	0	0	-1	0	-2.0278	-17.891	16.968	0	0	0	0	0	0	0	0	0	2
2648	26.48	0	0	0	0	0	0	0	0	0	0	0	0	0	0	0	0	0	0	0	0	0	0	0	0	0	0	0	0	0	0	0	0	0	0	0	0	0	0	0	0	0	0	0	0	0	0	0	0	0	0	0	0	0	0	0	0	0	0	0	0	0	0	0	2
2649	26.49	0	0	0	0	0	0	0	0	0	0	0	0	0	0	0	0	0	0	0	0	0	0	0	0	0	0	0	0	0	0	0	0	0	0	0	0	0	0	0	0	0	0	0	0	0	0	0	0	0	-1	0	-2.0278	-17.891	16.968	0	0	0	0	0	0	0	0	0	2
2650	26.5	0	0	0	0	0	0	0	0	0	0	0	0	0	0	0	0	0	0	0	0	0	0	0	0	0	0	0	0	0	0	0	0	0	0	0	0	0	0	0	0	0	0	0	0	0	0	0	0	0	0	0	0	0	0	0	0	0	0	0	0	0	0	0	2
2651	26.51	0	0	0	0	0	0	0	0	0	0	0	0	0	0	0	0	0	0	0	0	0	0	0	0	0	0	0	0	0	0	0	0	0	0	0	0	0	0	0	0	0	0	0	0	0	0	0	0	0	-1	0	-2.0278	-17.891	16.968	0	0	0	0	0	0	0	0	0	2
2652	26.52	0	0	0	0	0	0	0	0	0	0	0	0	0	0	0	0	0	0	0	0	0	0	0	0	0	0	0	0	0	0	0	0	0	0	0	0	0	0	0	0	0	0	0	0	0	0	0	0	0	-1	0	-2.0278	-17.891	16.968	0	0	0	0	0	0	10.93	-10.93	18.931	2
2653	26.53	0	0	0	0	0	0	0	0	0	0	0	0	0	0	0	0	0	0	0	0	0	0	0	0	0	0	0	0	0	0	0	0	0	0	0	0	0	0	0	0	0	0	0	0	0	0	0	0	0	-1	0	-2.0278	-17.891	16.968	0	0	0	1	0	0	17.47	2.0148	16.554	2
2654	26.54	0	0	0	0	0	0	0	0	0	0	0	0	0	0	0	0	0	0	0	0	0	0	0	0	0	0	0	0	0	0	0	0	0	0	0	0	0	0	0	0	0	0	0	0	0	0	0	0	0	-1	0	-2.0278	-17.891	16.968	0	0	0	0	0	0	0	0	0	2
2655	26.55	0	0	0	0	0	0	0	0	0	0	0	0	0	0	0	0	0	0	0	0	0	0	0	0	0	0	0	0	0	0	0	0	0	0	0	0	0	0	0	0	0	0	10.996	-10.996	19.046	0	0	0	0	-1	0	-2.0278	-17.891	16.968	0	0	0	0	0	0	0	0	0	2
2656	26.56	0	0	0	0	0	0	0	0	0	0	0	0	0	0	0	0	0	0	0	0	0	0	0	0	0	0	0	0	0	0	1	0	0	17.883	2.027	16.961	0	0	0	0	0	0	0	0	0	0	0	0	0	0	0	0	0	0	0	0	0	0	0	0	0	0	0	2
2657	26.57	0	0	0	0	0	0	0	0	0	0	0	0	0	0	0	0	0	0	0	0	0	0	0	0	0	0	0	0	0	0	0	0	0	0	0	0	0	0	0	0	0	0	10.996	-10.996	19.046	0	0	0	0	-1	0	-2.0278	-17.891	16.968	0	0	0	0	0	0	0	0	0	0
2658	26.58	0	0	0	0	0	0	0	0	0	0	0	0	0	0	0	0	0	0	0	0	0	0	0	0	0	0	0	0	0	0	0	0	0	10.991	-10.991	19.037	0	0	0	0	-1	0	-2.1508	-17.769	16.797	0	0	0	0	-1	0	-2.0278	-17.891	16.968	0	0	0	0	0	0	0	0	0	2
2659	26.59	0	0	0	0	0	0	0	0	0	0	0	0	0	0	0	0	0	0	0	0	0	0	0	0	0	0	0	0	0	0	0	0	0	0	0	0	0	0	0	0	0	0	0	0	0	0	0	0	0	-1	0	-2.0278	-17.891	16.968	0	0	0	0	0	0	0	0	0	2
2660	26.6	0	0	0	0	0	0	0	0	0	0	0	0	0	0	0	0	0	0	0	0	0	0	0	0	0	0	0	0	0	0	1	0	0	17.883	2.027	16.961	0	0	0	0	0	0	0	0	0	0	0	0	0	-1	0	-2.0278	-17.891	16.968	0	0	0	0	0	0	0	0	0	2
2661	26.61	0	0	0	0	0	0	0	0	0	0	0	0	0	0	0	0	0	0	0	0	0	0	0	0	0	0	0	0	0	0	0	0	0	10.991	-10.991	19.037	0	0	0	0	0	0	10.996	-10.996	19.046	0	0	0	0	-1	0	-2.0278	-17.891	16.968	0	0	0	1	0	0	17.47	2.0148	16.554	2
2662	26.62	0	0	0	0	0	0	0	0	0	0	0	0	0	0	0	0	0	0	0	0	0	0	0	0	0	0	0	0	0	0	1	0	0	17.883	2.027	16.961	0	0	0	0	-1	0	-2.0279	-17.891	16.969	0	0	0	0	-1	0	-2.0278	-17.891	16.968	0	0	0	0	0	0	0	0	0	2
2663	26.63	0	0	0	0	0	0	0	0	0	0	0	0	0	0	0	0	0	0	0	0	0	0	0	0	0	0	0	0	0	0	1	0	0	17.883	2.027	16.961	0	0	0	0	0	0	10.996	-10.996	19.046	0	0	0	0	-1	0	-2.0278	-17.891	16.968	0	0	0	0	0	0	0	0	0	2
2664	26.64	0	0	0	0	0	0	0	0	0	0	0	0	0	0	0	0	0	0	0	0	0	0	0	0	0	0	0	0	0	0	0	0	0	0	0	0	0	0	0	0	-1	0	-2.0279	-17.891	16.969	0	0	0	0	-1	0	-2.0278	-17.891	16.968	0	0	0	0	0	0	0	0	0	2
2665	26.65	0	0	0	0	0	0	0	0	0	0	0	0	0	0	0	0	0	0	0	0	0	0	0	0	0	0	0	0	0	0	0	0	0	0	0	0	0	0	0	0	0	0	0	0	0	0	0	0	0	-1	0	-2.0278	-17.891	16.968	0	0	0	0	0	0	0	0	0	2
2666	26.66	0	0	0	0	0	0	10.917	-10.917	18.908	0	0	0	0	0	0	0	0	0	0	0	0	0	0	0	0	0	0	0	0	0	1	0	0	17.883	2.027	16.961	0	0	0	0	0	0	0	0	0	0	0	0	0	-1	0	-2.0278	-17.891	16.968	0	0	0	0	0	0	10.93	-10.93	18.931	2
2667	26.67	0	0	0	0	0	0	0	0	0	0	0	0	0	0	0	0	0	0	0	0	0	0	0	0	0	0	0	0	0	0	0	0	0	0	0	0	0	0	0	0	0	0	0	0	0	0	0	0	0	-1	0	-2.0278	-17.891	16.968	0	0	0	0	0	0	0	0	0	2
2668	26.68	0	0	0	0	0	0	0	0	0	0	0	0	0	0	0	0	0	0	0	0	0	0	0	0	0	0	0	0	0	0	1	0	0	17.883	2.027	16.961	0	0	0	0	0	0	0	0	0	0	0	0	0	-1	0	-2.0278	-17.891	16.968	0	0	0	0	0	0	0	0	0	2
2669	26.69	0	0	0	0	0	0	10.917	-10.917	18.908	0	0	0	0	0	0	0	0	0	0	0	0	0	0	0	0	0	0	0	0	0	0	0	0	0	0	0	0	0	0	0	0	0	10.996	-10.996	19.046	0	0	0	0	-1	0	-2.0278	-17.891	16.968	0	0	0	0	0	0	0	0	0	2
2670	26.7	0	0	0	0	0	0	0	0	0	0	0	0	0	0	0	0	0	0	0	0	0	0	0	0	0	0	0	0	0	0	0	0	0	0	0	0	0	0	0	0	0	0	10.996	-10.996	19.046	0	0	0	0	0	0	0	0	0	0	0	0	0	0	0	0	0	0	2
2671	26.71	0	0	0	0	0	0	0	0	0	0	0	0	0	0	0	0	0	0	0	0	0	0	0	0	0	0	0	0	0	0	0	0	0	0	0	0	0	0	0	0	0	0	0	0	0	0	0	0	0	0	0	0	0	0	0	0	0	0	0	0	0	0	0	0
2672	26.72	0	0	0	0	0	0	0	0	0	0	0	0	0	0	0	0	0	0	0	0	0	0	0	0	0	0	0	0	0	0	0	0	0	0	0	0	0	0	0	0	0	0	10.996	-10.996	19.046	0	0	0	0	-1	0	-2.0278	-17.891	16.968	0	0	0	0	0	0	0	0	0	2
2673	26.73	0	0	0	0	0	0	0	0	0	0	0	0	0	-1	0	-2.0372	-17.821	16.895	0	0	0	0	0	0	0	0	0	0	0	0	0	0	0	0	0	0	0	0	0	0	0	0	0	0	0	0	0	0	0	-1	0	-2.0278	-17.891	16.968	0	0	0	0	0	0	0	0	0	2
2674	26.74	0	0	0	0	0	0	0	0	0	0	0	0	0	0	0	0	0	0	0	0	0	0	0	0	0	0	0	0	0	0	0	0	0	0	0	0	0	0	0	0	0	0	0	0	0	0	0	0	0	-1	0	-2.0278	-17.891	16.968	0	0	0	1	0	0	17.47	2.0148	16.554	2
2675	26.75	0	0	0	0	0	0	0	0	0	0	0	0	0	0	0	0	0	0	0	0	0	0	0	0	0	0	0	0	0	0	0	0	0	0	0	0	0	0	0	0	-1	0	-2.1508	-17.769	16.797	0	0	0	0	0	0	0	0	0	0	0	0	0	0	0	0	0	0	2
2676	26.76	0	0	0	0	0	0	0	0	0	0	0	0	0	0	0	0	0	0	0	0	0	0	0	0	0	0	0	0	0	0	0	0	0	0	0	0	0	0	0	0	0	0	0	0	0	0	0	0	0	0	0	0	0	0	0	0	0	0	0	0	0	0	0	2
2677	26.77	0	0	0	0	0	0	10.917	-10.917	18.908	0	0	0	0	0	0	0	0	0	0	0	0	0	0	0	0	0	0	0	0	0	1	0	0	17.883	2.027	16.961	0	0	0	0	0	0	10.996	-10.996	19.046	0	0	0	0	-1	0	-2.0278	-17.891	16.968	0	0	0	0	0	0	0	0	0	2
2678	26.78	0	0	0	0	0	0	0	0	0	0	0	0	0	0	0	0	0	0	0	0	0	0	0	0	0	0	0	0	0	0	0	0	0	0	0	0	0	0	0	0	0	0	10.996	-10.996	19.046	0	0	0	0	-1	0	-2.0278	-17.891	16.968	0	0	0	0	0	0	0	0	0	2
2679	26.79	0	0	0	0	0	0	0	0	0	0	0	0	0	0	0	0	0	0	0	0	0	0	0	0	0	0	0	0	0	0	1	0	0	17.883	2.027	16.961	0	0	0	0	0	0	0	0	0	0	0	0	0	0	0	0	0	0	0	0	0	0	0	0	0	0	0	2
2680	26.8	0	0	0	0	0	0	0	0	0	0	0	0	0	0	0	0	0	0	0	0	0	0	0	0	0	0	0	0	0	0	0	0	0	0	0	0	0	0	0	0	0	0	10.996	-10.996	19.046	0	0	0	0	-1	0	-2.0278	-17.891	16.968	0	0	0	0	0	0	0	0	0	2
2681	26.81	0	0	0	0	0	0	0	0	0	0	0	0	0	0	0	0	0	0	0	0	0	0	0	0	0	0	0	0	0	0	0	0	0	0	0	0	0	0	0	0	0	0	0	0	0	0	0	0	0	0	0	0	0	0	0	0	0	1	0	0	17.47	2.0148	16.554	2
2682	26.82	0	0	0	0	0	0	0	0	0	0	0	0	0	0	0	0	0	0	0	0	0	0	0	0	0	0	0	0	0	0	0	0	0	0	0	0	0	0	0	0	0	0	10.996	-10.996	19.046	0	0	0	0	-1	0	-2.0278	-17.891	16.968	0	0	0	0	0	0	0	0	0	2
2683	26.83	0	0	0	0	0	0	0	0	0	0	0	0	0	0	0	0	0	0	0	0	0	0	0	0	0	0	0	0	0	0	0	0	0	0	0	0	0	0	0	0	0	0	0	0	0	0	0	0	0	0	0	0	0	0	0	0	0	0	0	0	0	0	0	2
2684	26.84	0	0	0	0	0	0	10.917	-10.917	18.908	0	0	0	0	0	0	0	0	0	0	0	0	0	0	0	0	0	0	0	0	0	0	0	0	0	0	0	0	0	0	0	0	0	0	0	0	0	0	0	0	-1	0	-2.0278	-17.891	16.968	0	0	0	0	0	0	0	0	0	2
2685	26.85	0	0	0	0	0	0	0	0	0	0	0	0	0	0	0	0	0	0	0	0	0	0	0	0	0	0	0	0	0	0	0	0	0	0	0	0	0	0	0	0	0	0	10.996	-10.996	19.046	0	0	0	0	-1	0	-2.0278	-17.891	16.968	0	0	0	1	0	0	17.47	2.0148	16.554	2
2686	26.86	0	0	0	0	0	0	10.917	-10.917	18.908	0	0	0	0	0	0	0	0	0	0	0	0	0	0	0	0	0	0	0	0	0	0	0	0	0	0	0	0	0	0	0	0	0	0	0	0	0	0	0	0	0	0	0	0	0	0	0	0	0	0	0	0	0	0	2
2687	26.87	0	0	0	0	0	0	0	0	0	0	0	0	0	0	0	0	0	0	0	0	0	0	0	0	0	0	0	0	0	0	0	0	0	0	0	0	0	0	0	0	0	0	10.996	-10.996	19.046	0	0	0	0	-1	0	-2.0278	-17.891	16.968	0	0	0	0	0	0	0	0	0	2
2688	26.88	0	0	0	0	0	0	0	0	0	0	0	0	0	0	0	0	0	0	0	0	0	0	0	0	0	0	0	0	0	0	0	0	0	0	0	0	0	0	0	0	0	0	0	0	0	0	0	0	0	-1	0	-2.0278	-17.891	16.968	0	0	0	1	0	0	17.47	2.0148	16.554	2
2689	26.89	0	0	0	0	0	0	0	0	0	0	0	0	0	0	0	0	0	0	0	0	0	0	0	0	0	0	0	0	0	0	1	0	0	17.883	2.027	16.961	0	0	0	0	0	0	10.996	-10.996	19.046	0	0	0	0	-1	0	-2.0278	-17.891	16.968	0	0	0	0	0	0	0	0	0	2
2690	26.9	0	0	0	0	0	0	0	0	0	0	0	0	0	0	0	0	0	0	0	0	0	0	0	0	0	0	0	0	0	0	0	0	0	0	0	0	0	0	0	0	0	0	0	0	0	0	0	0	0	-1	0	-2.0278	-17.891	16.968	0	0	0	0	0	0	0	0	0	2
2691	26.91	0	0	0	0	0	0	0	0	0	0	0	0	0	0	0	0	0	0	0	0	0	0	0	0	0	0	0	0	0	0	0	0	0	0	0	0	0	0	0	0	0	0	0	0	0	0	0	0	0	0	0	0	0	0	0	0	0	1	0	0	17.47	2.0148	16.554	2
2692	26.92	0	0	0	0	0	0	0	0	0	0	0	0	0	0	0	0	0	0	0	0	0	0	0	0	0	0	0	0	0	0	0	0	0	0	0	0	0	0	0	0	0	0	0	0	0	0	0	0	0	-1	0	-2.0278	-17.891	16.968	0	0	0	0	0	0	0	0	0	2
2693	26.93	0	0	0	0	0	0	0	0	0	0	0	0	0	0	0	0	0	0	0	0	0	0	0	0	0	0	0	0	0	0	1	0	0	17.883	2.027	16.961	0	0	0	0	0	0	0	0	0	0	0	0	0	0	0	0	0	0	0	0	0	1	0	0	17.47	2.0148	16.554	0
2694	26.94	0	0	0	0	0	0	0	0	0	0	0	0	0	0	0	0	0	0	0	0	0	0	0	0	0	0	0	0	0	0	0	0	0	0	0	0	0	0	0	0	0	0	0	0	0	0	0	0	0	-1	0	-2.0278	-17.891	16.968	0	0	0	0	0	0	0	0	0	2
2695	26.95	0	0	0	0	0	0	0	0	0	0	0	0	0	0	0	0	0	0	0	0	0	0	0	0	0	0	0	0	0	0	0	0	0	0	0	0	0	0	0	0	0	0	0	0	0	0	0	0	0	-1	0	-2.0278	-17.891	16.968	0	0	0	0	0	0	0	0	0	2
2696	26.96	0	0	0	0	0	0	0	0	0	0	0	0	0	0	0	0	0	0	0	0	0	0	0	0	0	0	0	0	0	0	0	0	0	0	0	0	0	0	0	0	0	0	0	0	0	0	0	0	0	0	0	0	0	0	0	0	0	1	0	0	17.47	2.0148	16.554	2
2697	26.97	0	0	0	0	0	0	0	0	0	0	0	0	0	0	0	0	0	0	0	0	0	0	0	0	0	0	0	0	0	0	0	-1	0	-2.0265	-17.879	16.957	0	0	0	0	0	0	0	0	0	0	0	0	0	-1	0	-2.0278	-17.891	16.968	0	0	0	0	0	0	0	0	0	2
2698	26.98	0	0	0	0	0	0	0	0	0	0	0	0	0	0	0	0	0	0	0	0	0	0	0	0	0	0	0	0	0	0	1	0	0	17.883	2.027	16.961	0	0	0	0	0	0	0	0	0	0	0	0	0	-1	0	-2.0278	-17.891	16.968	0	0	0	0	0	0	0	0	0	2
2699	26.99	0	0	0	0	0	0	0	0	0	0	0	0	0	0	0	0	0	0	0	0	0	0	0	0	0	0	0	0	0	0	1	0	0	17.883	2.027	16.961	0	0	0	0	0	0	10.996	-10.996	19.046	0	0	0	0	-1	0	-2.0278	-17.891	16.968	0	0	0	0	0	0	0	0	0	0
2700	27	0	0	0	0	0	0	0	0	0	0	0	0	0	0	0	0	0	0	0	0	0	0	0	0	0	0	0	0	0	0	0	0	0	0	0	0	0	0	0	0	0	0	0	0	0	0	0	0	0	-1	0	-2.0278	-17.891	16.968	0	0	0	0	0	0	0	0	0	2
2701	27.01	0	0	0	0	0	0	10.917	-10.917	18.908	0	0	0	0	0	0	0	0	0	0	0	0	0	0	0	0	0	0	0	0	0	1	0	0	17.883	2.027	16.961	0	0	0	0	0	0	0	0	0	0	0	0	0	-1	0	-2.0278	-17.891	16.968	0	0	0	0	0	0	0	0	0	2
2702	27.02	0	0	0	0	0	0	0	0	0	0	0	0	0	0	0	0	0	0	0	0	0	0	0	0	0	0	0	0	0	0	0	0	0	0	0	0	0	0	0	0	0	0	10.996	-10.996	19.046	0	0	0	0	0	0	0	0	0	0	0	0	0	0	0	0	0	0	2
2703	27.03	0	0	0	0	0	0	0	0	0	0	0	0	0	0	0	0	0	0	0	0	0	0	0	0	0	0	0	0	0	0	0	0	0	0	0	0	0	0	0	0	0	0	0	0	0	0	0	0	0	-1	0	-2.0278	-17.891	16.968	0	0	0	1	0	0	17.47	2.0148	16.554	2
2704	27.04	0	0	0	0	0	0	0	0	0	0	0	0	0	0	0	0	0	0	0	0	0	0	0	0	0	0	0	0	0	0	0	0	0	0	0	0	0	0	0	0	0	0	0	0	0	0	0	0	0	-1	0	-2.0278	-17.891	16.968	0	0	0	0	0	0	0	0	0	2
2705	27.05	0	0	0	0	0	0	0	0	0	0	0	0	0	0	0	0	0	0	0	0	0	0	0	0	0	0	0	0	0	0	1	0	0	17.883	2.027	16.961	0	0	0	0	0	0	10.996	-10.996	19.046	0	0	0	0	-1	0	-2.0278	-17.891	16.968	0	0	0	0	0	0	0	0	0	2
2706	27.06	0	0	0	0	0	0	0	0	0	0	0	0	0	0	0	0	0	0	0	0	0	0	0	0	0	0	0	0	0	0	1	0	0	17.883	2.027	16.961	0	0	0	0	0	0	0	0	0	0	0	0	0	-1	0	-2.0278	-17.891	16.968	0	0	0	0	0	0	0	0	0	2
2707	27.07	0	0	0	0	0	0	0	0	0	0	0	0	0	0	0	0	0	0	0	0	0	0	0	0	0	0	0	0	0	0	0	0	0	0	0	0	0	0	0	0	0	0	10.996	-10.996	19.046	0	0	0	0	0	0	0	0	0	0	0	0	0	0	0	0	0	0	2
2708	27.08	0	0	0	0	0	0	0	0	0	0	0	0	0	0	0	0	0	0	0	0	0	0	0	0	0	0	0	0	0	0	0	0	0	0	0	0	0	0	0	0	0	0	0	0	0	0	0	0	0	-1	0	-2.0278	-17.891	16.968	0	0	0	0	0	0	0	0	0	2
2709	27.09	0	0	0	0	0	0	0	0	0	0	0	0	0	0	0	0	0	0	0	0	0	0	0	0	0	0	0	0	0	0	1	0	0	17.883	2.027	16.961	0	0	0	0	0	0	0	0	0	0	0	0	0	-1	0	-2.0278	-17.891	16.968	0	0	0	0	0	0	0	0	0	2
2710	27.1	0	0	0	0	0	0	0	0	0	0	0	0	0	0	0	0	0	0	0	0	0	0	0	0	0	0	0	0	0	0	0	0	0	0	0	0	0	0	0	0	-1	0	-2.0279	-17.891	16.969	0	0	0	0	0	0	0	0	0	0	0	0	0	0	0	0	0	0	2
2711	27.11	0	0	0	0	0	0	0	0	0	0	0	0	0	0	0	0	0	0	0	0	0	0	0	0	0	0	0	0	0	0	0	0	0	0	0	0	0	0	0	0	0	0	0	0	0	0	0	0	0	-1	0	-2.0278	-17.891	16.968	0	0	0	1	0	0	17.47	2.0148	16.554	2
2712	27.12	0	0	0	0	0	0	0	0	0	0	0	0	0	0	0	0	0	0	0	0	0	0	0	0	0	0	0	0	0	0	0	0	0	0	0	0	0	0	0	0	0	0	10.996	-10.996	19.046	0	0	0	0	0	0	0	0	0	0	0	0	0	0	0	0	0	0	2
2713	27.13	0	0	0	0	0	0	10.917	-10.917	18.908	0	0	0	0	0	0	0	0	0	0	0	0	0	0	0	0	0	0	0	0	0	0	0	0	0	0	0	0	0	0	0	0	0	10.996	-10.996	19.046	0	0	0	0	0	0	0	0	0	0	0	0	1	0	0	17.47	2.0148	16.554	0
2714	27.14	0	0	0	0	0	0	0	0	0	0	0	0	0	0	0	0	0	0	0	0	0	0	0	0	0	0	0	0	0	0	0	0	0	0	0	0	0	0	0	0	0	0	0	0	0	0	0	0	0	-1	0	-2.0278	-17.891	16.968	0	0	0	1	0	0	17.47	2.0148	16.554	2
2715	27.15	0	0	0	0	0	0	0	0	0	0	0	0	0	0	0	0	0	0	0	0	0	0	0	0	0	0	0	0	0	0	0	0	0	0	0	0	0	0	0	0	0	0	0	0	0	0	0	0	0	-1	0	-2.0278	-17.891	16.968	0	0	0	0	0	0	0	0	0	2
2716	27.16	0	0	0	0	0	0	0	0	0	0	0	0	0	0	0	0	0	0	0	0	0	0	0	0	0	0	0	0	0	0	0	0	0	0	0	0	0	0	0	0	0	0	0	0	0	0	0	0	1	-1	0	7.5503	-27.469	31.921	0	0	0	1	0	0	17.47	2.0148	16.554	2
2717	27.17	0	0	0	0	0	0	0	0	0	0	0	0	0	0	0	0	0	0	0	0	0	0	0	0	0	0	0	0	0	0	0	-1	0	-2.0265	-17.879	16.957	0	0	0	0	0	0	0	0	0	0	0	0	0	-1	0	-2.0278	-17.891	16.968	0	0	0	0	0	0	0	0	0	0
2718	27.18	0	0	0	0	0	0	10.917	-10.917	18.908	0	0	0	0	0	0	0	0	0	0	0	0	0	0	0	0	0	0	0	0	0	0	0	0	0	0	0	0	0	0	0	0	0	0	0	0	0	0	0	0	-1	0	-2.0278	-17.891	16.968	0	0	0	1	0	0	17.47	2.0148	16.554	2
2719	27.19	0	0	0	0	0	0	0	0	0	0	0	0	0	0	0	0	0	0	0	0	0	0	0	0	0	0	0	0	0	0	0	0	0	0	0	0	0	0	0	0	0	0	10.996	-10.996	19.046	0	0	0	0	-1	0	-2.0278	-17.891	16.968	0	0	0	0	0	0	0	0	0	2
2720	27.2	0	0	0	0	0	0	0	0	0	0	0	0	0	0	0	0	0	0	0	0	0	0	0	0	0	0	0	0	0	0	0	0	0	0	0	0	0	0	0	0	0	0	10.996	-10.996	19.046	0	0	0	0	0	0	0	0	0	0	0	0	0	0	0	0	0	0	2
2721	27.21	0	0	0	0	0	0	0	0	0	0	0	0	0	0	0	0	0	0	0	0	0	0	0	0	0	0	0	0	0	0	0	0	0	0	0	0	0	0	0	0	0	0	0	0	0	0	0	0	0	-1	0	-2.0278	-17.891	16.968	0	0	0	1	0	0	17.47	2.0148	16.554	0
2722	27.22	0	0	0	0	0	0	0	0	0	0	0	0	0	0	0	0	0	0	0	0	0	0	0	0	0	0	0	0	0	0	0	0	0	0	0	0	0	0	0	0	0	0	0	0	0	0	0	0	0	0	0	0	0	0	0	0	0	0	0	0	0	0	0	0
2723	27.23	0	0	0	0	0	0	0	0	0	0	0	0	0	0	0	0	0	0	0	0	0	0	0	0	0	0	0	0	0	0	0	0	0	0	0	0	0	0	0	0	0	0	0	0	0	0	0	0	0	0	0	0	0	0	0	0	0	0	0	0	0	0	0	0
2724	27.24	0	0	0	0	0	0	0	0	0	0	0	0	0	0	0	0	0	0	0	0	0	0	0	0	0	0	0	0	0	0	0	0	0	0	0	0	0	0	0	0	0	0	0	0	0	0	0	0	0	-1	0	-2.0278	-17.891	16.968	0	0	0	0	0	0	0	0	0	2
2725	27.25	0	0	0	0	0	0	0	0	0	0	0	0	0	0	0	0	0	0	0	0	0	0	0	0	0	0	0	0	0	0	0	0	0	0	0	0	0	0	0	0	0	0	10.996	-10.996	19.046	0	0	0	0	-1	0	-2.0278	-17.891	16.968	0	0	0	1	0	0	17.47	2.0148	16.554	2
2726	27.26	0	0	0	0	0	0	0	0	0	0	0	0	0	0	0	0	0	0	0	0	0	0	0	0	0	0	0	0	0	0	1	0	0	17.883	2.027	16.961	0	0	0	0	0	0	10.996	-10.996	19.046	0	0	0	0	-1	0	-2.0278	-17.891	16.968	0	0	0	0	0	0	0	0	0	2
2727	27.27	0	0	0	0	0	0	0	0	0	0	0	0	0	0	0	0	0	0	0	0	0	0	0	0	0	0	0	0	0	0	0	0	0	0	0	0	0	0	0	0	0	0	10.996	-10.996	19.046	0	0	0	0	-1	0	-2.0278	-17.891	16.968	0	0	0	0	0	0	0	0	0	2
2728	27.28	0	0	0	0	0	0	0	0	0	0	0	0	0	0	0	0	0	0	0	0	0	0	0	0	0	0	0	0	0	0	0	0	0	0	0	0	0	0	0	0	0	0	10.996	-10.996	19.046	0	0	0	0	-1	0	-2.0278	-17.891	16.968	0	0	0	0	0	0	0	0	0	2
2729	27.29	0	0	0	0	0	0	0	0	0	0	0	0	0	0	0	0	0	0	0	0	0	0	0	0	0	0	0	0	0	0	0	0	0	0	0	0	0	0	0	0	0	0	0	0	0	0	0	0	0	-1	0	-2.0278	-17.891	16.968	0	0	0	0	0	0	0	0	0	2
2730	27.3	0	0	0	0	0	0	0	0	0	0	0	0	0	0	0	0	0	0	0	0	0	0	0	0	0	0	0	0	0	0	0	0	0	0	0	0	0	0	0	0	0	0	10.996	-10.996	19.046	0	0	0	0	-1	0	-2.0278	-17.891	16.968	0	0	0	0	0	0	0	0	0	2
2731	27.31	0	0	0	0	0	0	0	0	0	0	0	0	0	0	0	0	0	0	0	0	0	0	0	0	0	0	0	0	0	0	0	-1	0	-2.0265	-17.879	16.957	0	0	0	0	0	0	0	0	0	0	0	0	0	-1	0	-2.0278	-17.891	16.968	0	0	0	0	0	0	0	0	0	2
2732	27.32	0	0	0	0	0	0	0	0	0	0	0	0	0	0	0	0	0	0	0	0	0	0	0	0	0	0	0	0	0	0	0	0	0	0	0	0	0	0	0	0	0	0	10.996	-10.996	19.046	0	0	0	0	-1	0	-2.0278	-17.891	16.968	0	0	0	0	0	0	0	0	0	2
2733	27.33	0	0	0	0	0	0	10.917	-10.917	18.908	0	0	0	0	0	0	0	0	0	0	0	0	0	0	0	10.989	-10.989	19.033	0	0	0	1	0	0	17.883	2.027	16.961	0	0	0	0	0	0	0	0	0	0	0	0	0	-1	0	-2.0278	-17.891	16.968	0	0	0	1	0	0	17.47	2.0148	16.554	2
2734	27.34	0	0	0	0	0	0	0	0	0	0	0	0	0	0	0	0	0	0	0	0	0	0	0	0	0	0	0	0	0	0	0	0	0	0	0	0	0	0	0	0	-1	0	-2.1508	-17.769	16.797	0	0	0	0	-1	0	-2.0278	-17.891	16.968	0	0	0	0	0	0	0	0	0	2
2735	27.35	0	0	0	0	0	0	0	0	0	0	0	0	0	0	0	0	0	0	0	0	0	0	0	0	0	0	0	0	0	0	1	0	0	17.883	2.027	16.961	0	0	0	0	0	0	0	0	0	0	0	0	0	-1	0	-2.0278	-17.891	16.968	0	0	0	0	0	0	0	0	0	2
2736	27.36	0	0	0	0	0	0	0	0	0	0	0	0	0	0	0	0	0	0	0	0	0	0	0	0	10.989	-10.989	19.033	0	0	0	0	0	0	0	0	0	0	0	0	0	0	0	0	0	0	0	0	0	0	-1	0	-2.0278	-17.891	16.968	0	0	0	0	0	0	0	0	0	2
2737	27.37	0	0	0	0	0	0	0	0	0	0	0	0	0	0	0	0	0	0	0	0	0	0	0	0	0	0	0	0	0	0	0	0	0	0	0	0	0	0	0	0	0	0	0	0	0	0	0	0	0	-1	0	-2.0278	-17.891	16.968	0	0	0	0	0	0	0	0	0	2
2738	27.38	0	0	0	0	0	0	0	0	0	0	0	0	0	0	0	0	0	0	0	0	0	0	0	0	0	0	0	0	0	0	0	0	0	0	0	0	0	0	0	0	0	0	0	0	0	0	0	0	0	0	0	0	0	0	0	0	0	0	0	0	0	0	0	2
2739	27.39	0	0	0	0	0	0	10.917	-10.917	18.908	0	0	0	0	0	0	0	0	0	0	0	0	0	0	0	0	0	0	0	0	0	0	0	0	0	0	0	0	0	0	0	0	0	10.996	-10.996	19.046	0	0	0	0	-1	0	-2.0278	-17.891	16.968	0	0	0	0	0	0	0	0	0	2
2740	27.4	0	0	0	0	0	0	0	0	0	0	0	0	0	0	0	0	0	0	0	0	0	0	0	0	0	0	0	0	0	0	0	0	0	0	0	0	0	0	0	0	0	0	0	0	0	0	0	0	0	-1	0	-2.0278	-17.891	16.968	0	0	0	0	0	0	0	0	0	2
2741	27.41	0	0	0	0	0	0	10.917	-10.917	18.908	0	0	0	0	0	0	0	0	0	0	0	0	0	0	0	0	0	0	0	0	0	0	0	0	0	0	0	0	0	0	0	0	0	0	0	0	0	0	0	0	-1	0	-2.0278	-17.891	16.968	0	0	0	0	0	0	0	0	0	2
2742	27.42	0	0	0	0	0	0	0	0	0	0	0	0	0	0	0	0	0	0	0	0	0	0	0	0	0	0	0	0	0	0	0	0	0	0	0	0	0	0	0	0	0	0	10.996	-10.996	19.046	0	0	0	0	0	0	0	0	0	0	0	0	0	0	0	0	0	0	2
2743	27.43	0	0	0	0	0	0	0	0	0	0	0	0	0	0	0	0	0	0	0	0	0	0	0	0	0	0	0	0	0	0	1	0	0	17.883	2.027	16.961	0	0	0	0	0	0	0	0	0	0	0	0	0	-1	0	-2.0278	-17.891	16.968	0	0	0	0	0	0	0	0	0	2
2744	27.44	0	0	0	0	0	0	0	0	0	0	0	0	0	0	0	0	0	0	0	0	0	0	0	0	0	0	0	0	0	0	0	0	0	0	0	0	0	0	0	0	0	0	0	0	0	0	0	0	0	-1	0	-2.0278	-17.891	16.968	0	0	0	0	0	0	0	0	0	2
2745	27.45	0	0	0	0	0	0	0	0	0	0	0	0	0	0	0	0	0	0	0	0	0	0	0	0	0	0	0	0	0	0	0	0	0	0	0	0	0	0	0	0	0	0	0	0	0	0	0	0	0	-1	0	-2.0278	-17.891	16.968	0	0	0	0	0	0	0	0	0	2
2746	27.46	0	0	0	0	0	0	0	0	0	0	0	0	0	0	0	0	0	0	0	0	0	0	0	0	0	0	0	0	0	0	0	0	0	0	0	0	0	0	0	0	0	0	0	0	0	0	0	0	0	-1	0	-2.0278	-17.891	16.968	0	0	0	0	0	0	10.93	-10.93	18.931	2
2747	27.47	0	0	0	0	0	0	10.917	-10.917	18.908	0	0	0	0	0	0	0	0	0	0	0	0	0	0	0	0	0	0	0	0	0	0	0	0	0	0	0	0	0	0	0	0	0	0	0	0	0	0	0	0	-1	0	-2.0278	-17.891	16.968	0	0	0	0	0	0	0	0	0	2
2748	27.48	0	0	0	0	0	0	10.917	-10.917	18.908	0	0	0	0	0	0	0	0	0	0	0	0	0	0	0	0	0	0	0	0	0	0	0	0	0	0	0	0	0	0	0	0	0	0	0	0	0	0	0	0	0	0	0	0	0	0	0	0	1	0	0	17.471	2.0135	16.556	2
2749	27.49	0	0	0	0	0	0	10.917	-10.917	18.908	0	0	0	0	0	0	0	0	0	0	0	0	0	0	0	0	0	0	0	0	0	0	0	0	0	0	0	0	0	0	0	0	0	0	0	0	0	0	0	0	-1	0	-2.0278	-17.891	16.968	0	0	0	0	0	0	0	0	0	2
2750	27.5	0	0	0	0	0	0	10.917	-10.917	18.908	0	0	0	0	0	0	0	0	0	0	0	0	0	0	0	0	0	0	0	0	0	0	0	0	0	0	0	0	0	0	0	0	0	0	0	0	0	0	0	0	-1	0	-2.0278	-17.891	16.968	0	0	0	0	0	0	0	0	0	2
2751	27.51	0	0	0	0	0	0	0	0	0	0	0	0	0	0	0	0	0	0	0	0	0	0	0	0	0	0	0	0	0	0	0	-1	0	-2.0265	-17.879	16.957	0	0	0	0	0	0	0	0	0	0	0	0	0	-1	0	-2.0278	-17.891	16.968	0	0	0	1	0	0	17.47	2.0148	16.554	2
2752	27.52	0	0	0	0	0	0	0	0	0	0	0	0	0	0	0	0	0	0	0	0	0	0	0	0	0	0	0	0	0	0	0	0	0	0	0	0	0	0	0	0	0	0	10.996	-10.996	19.046	0	0	0	0	-1	0	-2.0278	-17.891	16.968	0	0	0	0	0	0	0	0	0	2
2753	27.53	0	0	0	0	0	0	0	0	0	0	0	0	0	0	0	0	0	0	0	0	0	0	0	0	0	0	0	0	0	0	0	0	0	0	0	0	0	0	0	0	0	0	0	0	0	0	0	0	0	0	0	0	0	0	0	0	0	0	0	0	0	0	0	2
2754	27.54	0	0	0	0	0	0	0	0	0	0	0	0	0	0	0	0	0	0	0	0	0	0	0	0	0	0	0	0	0	0	0	0	0	0	0	0	0	0	0	0	0	0	10.996	-10.996	19.046	0	0	0	0	-1	0	-2.0278	-17.891	16.968	0	0	0	0	0	0	0	0	0	2
2755	27.55	0	0	0	0	0	0	0	0	0	0	0	0	0	0	0	0	0	0	0	0	0	0	0	0	0	0	0	0	0	0	0	0	0	0	0	0	0	0	0	0	0	0	0	0	0	0	0	0	0	0	0	0	0	0	0	0	0	0	0	0	0	0	0	2
2756	27.56	0	0	0	0	0	0	0	0	0	0	0	0	0	0	0	0	0	0	0	0	0	0	0	0	10.989	-10.989	19.033	0	0	0	0	0	0	0	0	0	0	0	0	0	0	0	10.996	-10.996	19.046	0	0	0	0	-1	0	-2.0278	-17.891	16.968	0	0	0	0	0	0	0	0	0	2
2757	27.57	0	0	0	0	0	0	0	0	0	0	0	0	0	0	0	0	0	0	0	0	0	0	0	0	0	0	0	0	0	0	0	0	0	0	0	0	0	0	0	0	0	0	10.996	-10.996	19.046	0	0	0	0	-1	0	-2.0278	-17.891	16.968	0	0	0	0	0	0	0	0	0	2
2758	27.58	0	0	0	0	0	0	0	0	0	0	0	0	0	0	0	0	0	0	0	0	0	0	0	0	0	0	0	0	0	0	0	0	0	0	0	0	0	0	0	0	0	0	0	0	0	0	0	0	0	-1	0	-2.0278	-17.891	16.968	0	0	0	0	0	0	0	0	0	2
2759	27.59	0	0	0	0	0	0	0	0	0	0	0	0	0	0	0	0	0	0	0	0	0	0	0	0	0	0	0	0	0	0	0	0	0	0	0	0	0	0	0	0	0	0	10.996	-10.996	19.046	0	0	0	0	-1	0	-2.0278	-17.891	16.968	0	0	0	0	0	0	0	0	0	2
2760	27.6	0	0	0	0	0	0	0	0	0	0	0	0	0	-1	0	-2.0372	-17.821	16.895	0	0	0	0	0	0	0	0	0	0	0	0	0	0	0	0	0	0	0	0	0	0	0	0	10.996	-10.996	19.046	0	0	0	0	0	0	0	0	0	0	0	0	1	0	0	17.47	2.0148	16.554	2
2761	27.61	0	0	0	0	0	0	0	0	0	0	0	0	0	0	0	0	0	0	0	0	0	0	0	0	0	0	0	0	0	0	0	0	0	0	0	0	0	0	0	0	0	0	0	0	0	0	0	0	0	-1	0	-2.0278	-17.891	16.968	0	0	0	1	0	0	17.47	2.0148	16.554	2
2762	27.62	0	0	0	0	0	0	0	0	0	0	0	0	0	0	0	0	0	0	0	0	0	0	0	0	0	0	0	0	0	0	0	0	0	0	0	0	0	0	0	0	0	0	10.996	-10.996	19.046	0	0	0	0	-1	0	-2.0278	-17.891	16.968	0	0	0	0	0	0	0	0	0	0
2763	27.63	0	0	0	0	0	0	0	0	0	0	0	0	0	0	0	0	0	0	0	0	0	0	0	0	0	0	0	0	0	0	1	0	0	17.883	2.027	16.961	0	0	0	0	0	0	10.996	-10.996	19.046	0	0	0	0	-1	0	-2.0278	-17.891	16.968	0	0	0	1	0	0	17.47	2.0148	16.554	0
2764	27.64	0	0	0	0	0	0	0	0	0	0	0	0	0	0	0	0	0	0	0	0	0	0	0	0	0	0	0	0	0	0	1	0	0	17.883	2.027	16.961	0	0	0	0	0	0	0	0	0	0	0	0	0	-1	0	-2.0278	-17.891	16.968	0	0	0	0	0	0	0	0	0	2
2765	27.65	0	0	0	0	0	0	0	0	0	0	0	0	0	0	0	0	0	0	0	0	0	0	0	0	0	0	0	0	0	0	0	0	0	0	0	0	0	0	0	0	0	0	0	0	0	0	0	0	0	-1	0	-2.0278	-17.891	16.968	0	0	0	1	0	0	17.47	2.0148	16.554	0
2766	27.66	0	0	0	0	0	0	0	0	0	0	0	0	0	0	0	0	0	0	0	0	0	0	0	0	0	0	0	0	0	0	0	0	0	0	0	0	0	0	0	0	0	0	0	0	0	0	0	0	0	0	0	0	0	0	0	0	0	1	0	0	17.47	2.0148	16.554	2
2767	27.67	0	0	0	0	0	0	0	0	0	0	0	0	0	0	0	0	0	0	0	0	0	0	0	0	0	0	0	0	0	0	0	0	0	0	0	0	0	0	0	0	0	0	10.996	-10.996	19.046	0	0	0	0	-1	0	-2.0278	-17.891	16.968	0	0	0	0	0	0	0	0	0	2
2768	27.68	0	0	0	0	0	0	0	0	0	0	0	0	0	0	0	0	0	0	0	0	0	0	0	0	0	0	0	0	0	0	0	0	0	0	0	0	0	0	0	0	0	0	0	0	0	0	0	0	0	-1	0	-2.0278	-17.891	16.968	0	0	0	1	0	0	17.47	2.0148	16.554	0
2769	27.69	0	0	0	0	0	0	0	0	0	0	0	0	0	0	0	0	0	0	0	0	0	0	0	0	0	0	0	0	0	0	0	0	0	0	0	0	0	0	0	0	0	0	0	0	0	0	0	0	0	-1	0	-2.0278	-17.891	16.968	0	0	0	0	0	0	0	0	0	2
2770	27.7	0	0	0	0	0	0	0	0	0	0	0	0	0	0	0	0	0	0	0	0	0	0	0	0	0	0	0	0	0	0	1	0	0	17.883	2.027	16.961	0	0	0	0	0	0	0	0	0	0	0	0	0	-1	0	-2.0278	-17.891	16.968	0	0	0	0	0	0	0	0	0	2
2771	27.71	0	0	0	0	0	0	0	0	0	0	0	0	0	0	0	0	0	0	0	0	0	0	0	0	0	0	0	0	0	0	0	0	0	0	0	0	0	0	0	0	0	0	10.996	-10.996	19.046	0	0	0	0	-1	0	-2.0278	-17.891	16.968	0	0	0	0	0	0	0	0	0	2
2772	27.72	0	0	0	0	0	0	0	0	0	0	0	0	0	0	0	0	0	0	0	0	0	0	-1	0	-2.0266	-17.88	16.957	0	0	0	0	0	0	0	0	0	0	0	0	0	0	0	0	0	0	0	0	0	0	-1	0	-2.0278	-17.891	16.968	0	0	0	0	0	0	0	0	0	2
2773	27.73	0	0	0	0	0	0	0	0	0	0	0	0	0	0	0	0	0	0	0	0	0	0	0	0	0	0	0	0	0	0	1	0	0	17.883	2.027	16.961	0	0	0	0	0	0	0	0	0	0	0	0	0	-1	0	-2.0278	-17.891	16.968	0	0	0	0	0	0	0	0	0	2
2774	27.74	0	0	0	0	0	0	10.917	-10.917	18.908	0	0	0	0	0	0	0	0	0	0	0	0	0	0	0	0	0	0	0	0	0	0	0	0	0	0	0	0	0	0	0	0	0	0	0	0	0	0	0	0	-1	0	-2.0278	-17.891	16.968	0	0	0	1	0	0	17.471	2.0135	16.556	2
2775	27.75	0	0	0	0	0	0	0	0	0	0	0	0	0	0	0	0	0	0	0	0	0	0	0	0	0	0	0	0	0	0	0	0	0	0	0	0	0	0	0	0	0	0	0	0	0	0	0	0	0	-1	0	-2.0278	-17.891	16.968	0	0	0	0	0	0	0	0	0	2
2776	27.76	0	0	0	0	0	0	0	0	0	0	0	0	0	0	0	0	0	0	0	0	0	0	0	0	0	0	0	0	0	0	1	0	0	17.761	2.1499	16.789	0	0	0	0	0	0	0	0	0	0	0	0	0	-1	0	-2.0278	-17.891	16.968	0	0	0	1	0	0	17.47	2.0148	16.554	2
2777	27.77	0	0	0	0	0	0	0	0	0	0	0	0	0	0	0	0	0	0	0	0	0	0	0	0	0	0	0	0	0	0	0	0	0	0	0	0	0	0	0	0	-1	0	-2.1508	-17.769	16.797	0	0	0	0	-1	0	-2.0278	-17.891	16.968	0	0	0	1	0	0	17.47	2.0148	16.554	2
2778	27.78	0	0	0	0	0	0	0	0	0	0	0	0	0	0	0	0	0	0	0	0	0	0	0	0	0	0	0	0	0	0	0	0	0	0	0	0	0	0	0	0	0	0	0	0	0	0	0	0	0	-1	0	-2.0278	-17.891	16.968	0	0	0	0	0	0	0	0	0	2
2779	27.79	0	0	0	0	0	0	0	0	0	0	0	0	0	0	0	0	0	0	0	0	0	0	0	0	0	0	0	0	0	0	0	0	0	0	0	0	0	0	0	0	0	0	0	0	0	0	0	0	0	-1	0	-2.0278	-17.891	16.968	0	0	0	0	0	0	0	0	0	2
2780	27.8	0	0	0	0	0	0	0	0	0	0	0	0	0	0	0	0	0	0	0	0	0	0	0	0	0	0	0	0	0	0	0	-1	0	-2.0265	-17.879	16.957	0	0	0	0	0	0	0	0	0	0	0	0	0	-1	0	-2.0278	-17.891	16.968	0	0	0	0	0	0	0	0	0	2
2781	27.81	0	0	0	0	0	0	0	0	0	0	0	0	0	0	0	0	0	0	0	0	0	0	0	0	0	0	0	0	0	0	1	0	0	17.883	2.027	16.961	0	0	0	0	0	0	0	0	0	0	0	0	0	-1	0	-2.0278	-17.891	16.968	0	0	0	1	0	0	17.47	2.0148	16.554	2
2782	27.82	0	0	0	0	0	0	0	0	0	0	0	0	0	0	0	0	0	0	0	0	0	0	0	0	0	0	0	0	0	0	1	0	0	17.883	2.027	16.961	0	0	0	0	0	0	10.996	-10.996	19.046	0	0	0	0	-1	0	-2.0278	-17.891	16.968	0	0	0	0	0	0	0	0	0	2
2783	27.83	0	0	0	0	0	0	0	0	0	0	0	0	0	0	0	0	0	0	0	0	0	0	0	0	0	0	0	0	0	0	0	0	0	11.258	-11.253	19.496	0	0	0	0	0	0	10.996	-10.996	19.046	0	0	0	0	-1	0	-2.0278	-17.891	16.968	0	0	0	1	0	0	17.47	2.0148	16.554	2
2784	27.84	0	0	0	0	0	0	0	0	0	0	0	0	0	0	0	0	0	0	0	0	0	0	0	0	0	0	0	0	0	0	0	0	0	0	0	0	0	0	0	0	0	0	10.996	-10.996	19.046	0	0	0	0	-1	0	-2.0278	-17.891	16.968	0	0	0	0	0	0	0	0	0	2
2785	27.85	0	0	0	0	0	0	0	0	0	0	0	0	0	0	0	0	0	0	0	0	0	0	0	0	0	0	0	0	0	0	0	0	0	0	0	0	0	0	0	0	0	0	0	0	0	0	0	0	0	-1	0	-2.0278	-17.891	16.968	0	0	0	0	0	0	0	0	0	0
2786	27.86	0	0	0	0	0	0	0	0	0	0	0	0	0	0	0	0	0	0	0	0	0	0	0	0	0	0	0	0	0	0	1	0	0	17.883	2.027	16.961	0	0	0	0	0	0	0	0	0	0	0	0	0	-1	0	-2.0278	-17.891	16.968	0	0	0	0	0	0	0	0	0	2
2787	27.87	0	0	0	0	0	0	0	0	0	0	0	0	0	0	0	0	0	0	0	0	0	0	0	0	0	0	0	0	0	0	1	0	0	17.883	2.027	16.961	0	0	0	0	0	0	10.996	-10.996	19.046	0	0	0	0	-1	0	-2.0278	-17.891	16.968	0	0	0	1	0	0	17.47	2.0148	16.554	2
2788	27.88	0	0	0	0	0	0	0	0	0	0	0	0	0	0	0	0	0	0	0	0	0	0	0	0	0	0	0	0	0	0	1	0	0	17.883	2.027	16.961	0	0	0	0	0	0	0	0	0	0	0	0	0	-1	0	-2.0278	-17.891	16.968	0	0	0	0	0	0	0	0	0	2
2789	27.89	0	0	0	0	0	0	0	0	0	0	0	0	0	0	0	0	0	0	0	0	0	0	0	0	0	0	0	0	0	0	0	0	0	0	0	0	0	0	0	0	0	0	0	0	0	0	0	0	0	-1	0	-2.0278	-17.891	16.968	0	0	0	0	0	0	0	0	0	2
2790	27.9	0	0	0	0	0	0	0	0	0	0	0	0	0	0	0	0	0	0	0	0	0	0	0	0	0	0	0	0	0	0	0	0	0	0	0	0	0	0	0	0	0	0	0	0	0	0	0	0	0	-1	0	-2.0278	-17.891	16.968	0	0	0	0	0	0	0	0	0	2
2791	27.91	0	0	0	0	0	0	0	0	0	0	0	0	0	0	0	0	0	0	0	0	0	0	0	0	0	0	0	0	0	0	1	0	0	17.883	2.027	16.961	0	0	0	0	0	0	0	0	0	0	0	0	0	0	0	0	0	0	0	0	0	1	0	0	17.47	2.0148	16.554	2
2792	27.92	0	0	0	0	0	0	0	0	0	0	0	0	0	0	0	0	0	0	0	0	0	0	0	0	0	0	0	0	0	0	0	0	0	0	0	0	0	0	0	0	0	0	0	0	0	0	0	0	0	-1	0	-2.0278	-17.891	16.968	0	0	0	0	0	0	0	0	0	2
2793	27.93	0	0	0	0	0	0	10.917	-10.917	18.908	0	0	0	0	0	0	0	0	0	0	0	0	0	0	0	0	0	0	0	0	0	1	0	0	17.883	2.027	16.961	0	0	0	0	0	0	10.996	-10.996	19.046	0	0	0	0	-1	0	-2.0278	-17.891	16.968	0	0	0	0	0	0	10.93	-10.93	18.931	2
2794	27.94	0	0	0	0	0	0	0	0	0	0	0	0	0	0	0	0	0	0	0	0	0	0	0	0	0	0	0	0	0	0	0	0	0	0	0	0	0	0	0	0	0	0	0	0	0	0	0	0	0	-1	0	-2.0278	-17.891	16.968	0	0	0	0	0	0	0	0	0	2
2795	27.95	0	0	0	0	0	0	0	0	0	0	0	0	0	0	0	0	0	0	0	0	0	0	0	0	0	0	0	0	0	0	0	0	0	0	0	0	0	0	0	0	0	0	0	0	0	0	0	0	0	-1	0	-2.0278	-17.891	16.968	0	0	0	1	0	0	17.47	2.0148	16.554	2
2796	27.96	0	0	0	0	0	0	0	0	0	0	0	0	0	0	0	0	0	0	0	0	0	0	0	0	0	0	0	0	0	0	1	0	0	17.883	2.027	16.961	0	0	0	0	-1	0	-2.0279	-17.891	16.969	0	0	0	0	-1	0	-2.0278	-17.891	16.968	0	0	0	1	0	0	17.47	2.0148	16.554	2
2797	27.97	0	0	0	0	0	0	0	0	0	0	0	0	0	0	0	0	0	0	0	0	0	0	0	0	0	0	0	0	0	0	0	0	0	0	0	0	0	0	0	0	0	0	10.996	-10.996	19.046	0	0	0	0	-1	0	-2.0278	-17.891	16.968	0	0	0	0	0	0	0	0	0	2
2798	27.98	0	0	0	0	0	0	10.917	-10.917	18.908	0	0	0	0	0	0	0	0	0	0	0	0	0	0	0	0	0	0	0	0	0	1	0	0	17.883	2.027	16.961	0	0	0	0	0	0	0	0	0	0	0	0	0	-1	0	-2.0278	-17.891	16.968	0	0	0	1	0	0	17.47	2.0148	16.554	2
2799	27.99	0	0	0	0	0	0	0	0	0	0	0	0	0	0	0	0	0	0	0	0	0	0	0	0	0	0	0	0	0	0	0	0	0	0	0	0	0	0	0	0	0	0	0	0	0	0	0	0	0	-1	0	-2.0278	-17.891	16.968	0	0	0	1	0	0	17.47	2.0148	16.554	2
2800	28	0	0	0	0	0	0	0	0	0	0	0	0	0	0	0	0	0	0	0	0	0	0	0	0	0	0	0	0	0	0	0	0	0	0	0	0	0	0	0	0	0	0	0	0	0	0	0	0	0	-1	0	-2.0278	-17.891	16.968	0	0	0	0	0	0	0	0	0	2
2801	28.01	0	0	0	0	0	0	0	0	0	0	0	0	0	0	0	0	0	0	0	0	0	0	0	0	0	0	0	0	0	0	0	0	0	0	0	0	0	0	0	0	0	0	0	0	0	0	0	0	0	-1	0	-2.0278	-17.891	16.968	0	0	0	0	0	0	0	0	0	2
2802	28.02	0	0	0	0	0	0	0	0	0	0	0	0	0	0	0	0	0	0	0	0	0	0	0	0	0	0	0	0	0	0	0	0	0	0	0	0	0	0	0	0	0	0	10.996	-10.996	19.046	0	0	0	0	-1	0	-2.0278	-17.891	16.968	0	0	0	0	0	0	0	0	0	2
2803	28.03	0	0	0	0	0	0	10.917	-10.917	18.908	0	0	0	0	0	0	0	0	0	0	0	0	0	0	0	0	0	0	0	0	0	0	0	0	0	0	0	0	0	0	0	0	0	0	0	0	0	0	0	0	-1	0	-2.0278	-17.891	16.968	0	0	0	1	0	0	17.47	2.0148	16.554	2
2804	28.04	0	0	0	0	0	0	0	0	0	0	0	0	0	0	0	0	0	0	0	0	0	0	0	0	0	0	0	0	0	0	1	0	0	17.883	2.027	16.961	0	0	0	0	0	0	0	0	0	0	0	0	0	-1	0	-2.0278	-17.891	16.968	0	0	0	0	0	0	0	0	0	2
2805	28.05	0	0	0	0	0	0	0	0	0	0	0	0	0	0	0	0	0	0	0	0	0	0	0	0	0	0	0	0	0	0	0	0	0	0	0	0	0	0	0	0	0	0	10.996	-10.996	19.046	0	0	0	0	-1	0	-2.0278	-17.891	16.968	0	0	0	1	0	0	17.47	2.0148	16.554	2
2806	28.06	0	0	0	0	0	0	0	0	0	0	0	0	0	0	0	0	0	0	0	0	0	0	0	0	0	0	0	0	0	0	0	0	0	0	0	0	0	0	0	0	0	0	0	0	0	0	0	0	0	-1	0	-2.0278	-17.891	16.968	0	0	0	1	0	0	17.47	2.0148	16.554	2
2807	28.07	0	0	0	0	0	0	0	0	0	0	0	0	0	0	0	0	0	0	0	0	0	0	0	0	0	0	0	0	0	0	0	0	0	0	0	0	0	0	0	0	0	0	10.996	-10.996	19.046	0	0	0	0	-1	0	-2.0278	-17.891	16.968	0	0	0	0	0	0	0	0	0	2
2808	28.08	0	0	0	0	0	0	10.917	-10.917	18.908	0	0	0	0	0	0	0	0	0	0	0	0	0	0	0	0	0	0	0	0	0	1	0	0	17.883	2.027	16.961	0	0	0	0	0	0	10.996	-10.996	19.046	0	0	0	0	-1	0	-2.0278	-17.891	16.968	0	0	0	1	0	0	17.47	2.0148	16.554	0
2809	28.09	0	0	0	0	0	0	0	0	0	0	0	0	0	0	0	0	0	0	0	0	0	0	0	0	0	0	0	0	0	0	0	0	0	0	0	0	0	0	0	0	0	0	10.996	-10.996	19.046	0	0	0	0	0	0	0	0	0	0	0	0	1	0	0	17.47	2.0148	16.554	2
2810	28.1	0	0	0	0	0	0	0	0	0	0	0	0	0	0	0	0	0	0	0	0	0	0	0	0	0	0	0	0	0	0	0	0	0	0	0	0	0	0	0	0	0	0	10.996	-10.996	19.046	0	0	0	0	-1	0	-2.0278	-17.891	16.968	0	0	0	0	0	0	0	0	0	2
2811	28.11	0	0	0	0	0	0	0	0	0	0	0	0	0	0	0	0	0	0	0	0	0	0	0	0	0	0	0	0	0	0	0	0	0	0	0	0	0	0	0	0	0	0	0	0	0	0	0	0	0	-1	0	-2.0278	-17.891	16.968	0	0	0	1	0	0	17.471	2.0135	16.556	2
2812	28.12	0	0	0	0	0	0	0	0	0	0	0	0	0	0	0	0	0	0	0	0	0	0	0	0	0	0	0	0	0	0	0	0	0	0	0	0	0	0	0	0	0	0	0	0	0	0	0	0	0	-1	0	-2.0278	-17.891	16.968	0	0	0	0	0	0	0	0	0	2
2813	28.13	0	0	0	0	0	0	0	0	0	0	0	0	0	0	0	0	0	0	0	0	0	0	0	0	0	0	0	0	0	0	1	0	0	17.883	2.027	16.961	0	0	0	0	0	0	0	0	0	0	0	0	0	-1	0	-2.0278	-17.891	16.968	0	0	0	0	0	0	0	0	0	2
2814	28.14	0	0	0	0	0	0	0	0	0	0	0	0	0	0	0	0	0	0	0	0	0	0	0	0	0	0	0	0	0	0	0	0	0	0	0	0	0	0	0	0	0	0	10.996	-10.996	19.046	0	0	0	0	-1	0	-2.0278	-17.891	16.968	0	0	0	0	0	0	0	0	0	2
2815	28.15	0	0	0	0	0	0	0	0	0	0	0	0	0	0	0	0	0	0	0	0	0	0	0	0	0	0	0	0	0	0	0	0	0	0	0	0	0	0	0	0	0	0	10.996	-10.996	19.046	0	0	0	0	-1	0	-2.0278	-17.891	16.968	0	0	0	0	0	0	0	0	0	2
2816	28.16	0	0	0	0	0	0	0	0	0	0	0	0	0	0	0	0	0	0	0	0	0	0	0	0	0	0	0	0	0	0	1	0	0	17.883	2.027	16.961	0	0	0	0	0	0	0	0	0	0	0	0	0	-1	0	-2.0278	-17.891	16.968	0	0	0	1	0	0	17.471	2.0135	16.556	2
2817	28.17	0	0	0	0	0	0	0	0	0	0	0	0	0	0	0	0	0	0	0	0	0	0	0	0	0	0	0	0	0	0	0	0	0	0	0	0	0	0	0	0	0	0	10.996	-10.996	19.046	0	0	0	0	-1	0	-2.0278	-17.891	16.968	0	0	0	0	0	0	0	0	0	2
2818	28.18	0	0	0	0	0	0	0	0	0	0	0	0	0	0	0	0	0	0	0	0	0	0	0	0	0	0	0	0	0	0	0	0	0	0	0	0	0	0	0	0	0	0	10.996	-10.996	19.046	0	0	0	0	-1	0	-2.0278	-17.891	16.968	0	0	0	0	0	0	0	0	0	2
2819	28.19	0	0	0	0	0	0	10.917	-10.917	18.908	0	0	0	0	0	0	0	0	0	0	0	0	0	0	0	0	0	0	0	0	0	1	0	0	17.883	2.027	16.961	0	0	0	0	0	0	0	0	0	0	0	0	0	-1	0	-2.0278	-17.891	16.968	0	0	0	0	0	0	0	0	0	2
2820	28.2	0	0	0	0	0	0	0	0	0	0	0	0	0	0	0	0	0	0	0	0	0	0	0	0	0	0	0	0	0	0	0	-1	0	-2.0265	-17.879	16.957	0	0	0	0	0	0	10.996	-10.996	19.046	0	0	0	0	-1	0	-2.0278	-17.891	16.968	0	0	0	0	0	0	0	0	0	2
2821	28.21	0	0	0	0	0	0	0	0	0	0	0	0	0	0	0	0	0	0	0	0	0	0	0	0	0	0	0	0	0	0	0	0	0	0	0	0	0	0	0	0	0	0	0	0	0	0	0	0	0	-1	0	-2.0278	-17.891	16.968	0	0	0	1	0	0	17.47	2.0148	16.554	2
2822	28.22	0	0	0	0	0	0	0	0	0	0	0	0	0	0	0	0	0	0	0	0	0	0	0	0	0	0	0	0	0	0	0	0	0	0	0	0	0	0	0	0	0	0	10.996	-10.996	19.046	0	0	0	0	-1	0	-2.0278	-17.891	16.968	0	0	0	0	0	0	0	0	0	2
2823	28.23	0	0	0	0	0	0	0	0	0	0	0	0	0	0	0	0	0	0	0	0	0	0	0	0	0	0	0	0	0	0	0	0	0	11.258	-11.253	19.496	0	0	0	0	0	0	0	0	0	0	0	0	0	-1	0	-2.0278	-17.891	16.968	0	0	0	1	0	0	17.47	2.0148	16.554	2
2824	28.24	0	0	0	0	0	0	0	0	0	0	0	0	0	0	0	0	0	0	0	0	0	0	0	0	0	0	0	0	0	0	0	0	0	10.991	-10.991	19.037	0	0	0	0	0	0	0	0	0	0	0	0	0	-1	0	-2.0278	-17.891	16.968	0	0	0	0	0	0	0	0	0	2
2825	28.25	0	0	0	0	0	0	0	0	0	0	0	0	0	0	0	0	0	0	0	0	0	0	0	0	0	0	0	0	0	0	1	0	0	17.883	2.027	16.961	0	0	0	0	0	0	10.996	-10.996	19.046	0	0	0	0	-1	0	-2.0278	-17.891	16.968	0	0	0	0	0	0	0	0	0	2
2826	28.26	0	0	0	0	0	0	0	0	0	0	0	0	0	0	0	0	0	0	0	0	0	0	0	0	0	0	0	0	0	0	0	0	0	0	0	0	0	0	0	0	0	0	0	0	0	0	0	0	0	-1	0	-2.0278	-17.891	16.968	0	0	0	0	0	0	0	0	0	2
2827	28.27	0	0	0	0	0	0	0	0	0	0	0	0	0	0	0	0	0	0	0	0	0	0	0	0	0	0	0	0	0	0	0	0	0	0	0	0	0	0	0	0	0	0	10.996	-10.996	19.046	0	0	0	0	-1	0	-2.0278	-17.891	16.968	0	0	0	0	0	0	0	0	0	2
2828	28.28	0	0	0	0	0	0	0	0	0	0	0	0	0	0	0	0	0	0	0	0	0	0	0	0	10.989	-10.989	19.033	0	0	0	0	0	0	0	0	0	0	0	0	0	0	0	0	0	0	0	0	0	0	-1	0	-2.0278	-17.891	16.968	0	0	0	0	0	0	0	0	0	2
2829	28.29	0	0	0	0	0	0	0	0	0	0	0	0	0	0	0	0	0	0	0	0	0	0	0	0	0	0	0	0	0	0	0	0	0	0	0	0	0	0	0	0	0	0	10.996	-10.996	19.046	0	0	0	0	-1	0	-2.0278	-17.891	16.968	0	0	0	0	0	0	0	0	0	2
2830	28.3	0	0	0	0	0	0	0	0	0	0	0	0	0	0	0	0	0	0	0	0	0	0	0	0	0	0	0	0	0	0	0	0	0	0	0	0	0	0	0	0	0	0	0	0	0	0	0	0	0	-1	0	-2.0278	-17.891	16.968	0	0	0	0	0	0	0	0	0	2
2831	28.31	0	0	0	0	0	0	0	0	0	0	0	0	0	0	0	0	0	0	0	0	0	0	0	0	0	0	0	0	0	0	0	0	0	0	0	0	0	0	0	0	0	0	0	0	0	0	0	0	0	-1	0	-2.0278	-17.891	16.968	0	0	0	1	0	0	17.47	2.0148	16.554	2
2832	28.32	0	0	0	0	0	0	0	0	0	0	0	0	0	0	0	0	0	0	0	0	0	0	0	0	0	0	0	0	0	0	0	0	0	0	0	0	0	0	0	0	0	0	10.996	-10.996	19.046	0	0	0	0	-1	0	-2.0278	-17.891	16.968	0	0	0	0	0	0	0	0	0	2
2833	28.33	0	0	0	0	0	0	0	0	0	0	0	0	0	0	0	0	0	0	0	0	0	0	0	0	0	0	0	0	0	0	0	0	0	11.258	-11.253	19.496	0	0	0	0	0	0	0	0	0	0	0	0	0	-1	0	-2.0278	-17.891	16.968	0	0	0	0	0	0	0	0	0	2
2834	28.34	0	0	0	0	0	0	0	0	0	0	0	0	0	0	0	0	0	0	0	0	0	0	0	0	0	0	0	0	0	0	0	0	0	0	0	0	0	0	0	0	0	0	10.996	-10.996	19.046	0	0	0	0	-1	0	-2.0278	-17.891	16.968	0	0	0	0	0	0	0	0	0	2
2835	28.35	0	0	0	0	0	0	0	0	0	0	0	0	0	0	0	0	0	0	0	0	0	0	0	0	0	0	0	0	0	0	0	0	0	0	0	0	0	0	0	0	0	0	10.996	-10.996	19.046	0	0	0	0	-1	0	-2.0278	-17.891	16.968	0	0	0	0	0	0	0	0	0	2
2836	28.36	0	0	0	0	0	0	0	0	0	0	0	0	0	0	0	0	0	0	0	0	0	0	0	0	0	0	0	0	0	0	0	0	0	0	0	0	0	0	0	0	0	0	0	0	0	0	0	0	0	-1	0	-2.0278	-17.891	16.968	0	0	0	0	0	0	0	0	0	2
2837	28.37	0	0	0	0	0	0	0	0	0	0	0	0	0	0	0	0	0	0	0	0	0	0	0	0	0	0	0	0	0	0	0	0	0	0	0	0	0	0	0	0	0	0	10.996	-10.996	19.046	0	0	0	0	-1	0	-2.0278	-17.891	16.968	0	0	0	0	0	0	0	0	0	2
2838	28.38	0	0	0	0	0	0	0	0	0	0	0	0	0	0	0	0	0	0	0	0	0	0	0	0	0	0	0	0	0	0	0	0	0	0	0	0	0	0	0	0	0	0	10.996	-10.996	19.046	0	0	0	0	-1	0	-2.0278	-17.891	16.968	0	0	0	0	0	0	0	0	0	2
2839	28.39	0	0	0	0	0	0	0	0	0	0	0	0	0	0	0	0	0	0	0	0	0	0	0	0	0	0	0	0	0	0	0	0	0	0	0	0	0	0	0	0	0	0	0	0	0	0	0	0	0	-1	0	-2.0278	-17.891	16.968	0	0	0	1	0	0	17.471	2.0135	16.556	2
2840	28.4	0	0	0	0	0	0	0	0	0	0	0	0	0	0	0	0	0	0	0	0	0	0	0	0	0	0	0	0	0	0	0	0	0	0	0	0	0	0	0	0	0	0	10.996	-10.996	19.046	0	0	0	0	-1	0	-2.0278	-17.891	16.968	0	0	0	0	0	0	10.93	-10.93	18.931	2
2841	28.41	0	0	0	0	0	0	0	0	0	0	0	0	0	0	0	0	0	0	0	0	0	0	0	0	0	0	0	0	0	0	0	0	0	0	0	0	0	0	0	0	0	0	0	0	0	0	0	0	0	-1	0	-2.0278	-17.891	16.968	0	0	0	1	0	0	17.47	2.0148	16.554	2
2842	28.42	0	0	0	0	0	0	0	0	0	0	0	0	0	0	0	0	0	0	0	0	0	0	0	0	0	0	0	0	0	0	0	0	0	0	0	0	0	0	0	0	0	0	10.996	-10.996	19.046	0	0	0	0	-1	0	-2.0278	-17.891	16.968	0	0	0	0	0	0	0	0	0	2
2843	28.43	0	0	0	0	0	0	0	0	0	0	0	0	0	0	0	0	0	0	0	0	0	0	0	0	0	0	0	0	0	0	1	0	0	17.883	2.027	16.961	0	0	0	0	0	0	0	0	0	0	0	0	0	-1	0	-2.0278	-17.891	16.968	0	0	0	0	0	0	0	0	0	2
2844	28.44	0	0	0	0	0	0	0	0	0	0	0	0	0	0	0	0	0	0	0	0	0	0	0	0	0	0	0	0	0	0	0	0	0	0	0	0	0	0	0	0	0	0	10.996	-10.996	19.046	0	0	0	0	-1	0	-2.0278	-17.891	16.968	0	0	0	1	0	0	17.47	2.0148	16.554	2
2845	28.45	0	0	0	0	0	0	0	0	0	0	0	0	0	-1	0	-2.0372	-17.821	16.895	0	0	0	0	0	0	0	0	0	0	0	0	1	0	0	17.883	2.027	16.961	0	0	0	0	0	0	0	0	0	0	0	0	0	-1	0	-2.0278	-17.891	16.968	0	0	0	0	0	0	0	0	0	2
2846	28.46	0	0	0	0	0	0	0	0	0	0	0	0	0	0	0	0	0	0	0	0	0	0	0	0	0	0	0	0	0	0	1	0	0	17.883	2.027	16.961	0	0	0	0	0	0	10.996	-10.996	19.046	0	0	0	0	-1	0	-2.0278	-17.891	16.968	0	0	0	1	0	0	17.47	2.0148	16.554	2
2847	28.47	0	0	0	0	0	0	0	0	0	0	0	0	0	0	0	0	0	0	0	0	0	0	0	0	0	0	0	0	0	0	0	0	0	0	0	0	0	0	0	0	0	0	0	0	0	0	0	0	0	-1	0	-2.0278	-17.891	16.968	0	0	0	0	0	0	0	0	0	2
2848	28.48	0	0	0	0	0	0	0	0	0	0	0	0	0	0	0	0	0	0	0	0	0	0	0	0	0	0	0	0	0	0	0	0	0	0	0	0	0	0	0	0	0	0	0	0	0	0	0	0	0	-1	0	-2.0278	-17.891	16.968	0	0	0	0	0	0	0	0	0	2
2849	28.49	0	0	0	0	0	0	0	0	0	0	0	0	0	0	0	0	0	0	0	0	0	0	0	0	0	0	0	0	0	0	0	0	0	0	0	0	0	0	0	0	0	0	10.996	-10.996	19.046	0	0	0	0	-1	0	-2.0278	-17.891	16.968	0	0	0	0	0	0	0	0	0	0
2850	28.5	0	0	0	0	0	0	0	0	0	0	0	0	0	0	0	0	0	0	0	0	0	0	0	0	0	0	0	0	0	0	0	0	0	0	0	0	0	0	0	0	0	0	10.996	-10.996	19.046	0	0	0	0	-1	0	-2.0278	-17.891	16.968	0	0	0	0	0	0	0	0	0	2
2851	28.51	0	0	0	0	0	0	0	0	0	0	0	0	0	0	0	0	0	0	0	0	0	0	0	0	0	0	0	0	0	0	0	0	0	0	0	0	0	0	0	0	0	0	0	0	0	0	0	0	0	-1	0	-2.0278	-17.891	16.968	0	0	0	0	0	0	10.93	-10.93	18.931	2
2852	28.52	0	0	0	0	0	0	0	0	0	0	0	0	0	0	0	0	0	0	0	0	0	0	0	0	0	0	0	0	0	0	0	0	0	0	0	0	0	0	0	0	-1	0	-2.1508	-17.769	16.797	0	0	0	0	-1	0	-2.0278	-17.891	16.968	0	0	0	0	0	0	10.93	-10.93	18.931	2
2853	28.53	0	0	0	0	0	0	0	0	0	0	0	0	0	0	0	0	0	0	0	0	0	0	0	0	0	0	0	0	0	0	0	0	0	0	0	0	0	0	0	0	0	0	0	0	0	0	0	0	0	0	0	0	0	0	0	0	0	0	0	0	0	0	0	2
2854	28.54	0	0	0	0	0	0	0	0	0	0	0	0	0	0	0	0	0	0	0	0	0	0	0	0	0	0	0	0	0	0	1	0	0	17.883	2.027	16.961	0	0	0	0	0	0	10.996	-10.996	19.046	0	0	0	0	-1	0	-2.0278	-17.891	16.968	0	0	0	0	0	0	0	0	0	2
2855	28.55	0	0	0	0	0	0	0	0	0	0	0	0	0	0	0	0	0	0	0	0	0	0	0	0	0	0	0	0	0	0	0	0	0	0	0	0	0	0	0	0	0	0	0	0	0	0	0	0	0	-1	0	-2.0278	-17.891	16.968	0	0	0	0	0	0	0	0	0	2
2856	28.56	0	0	0	0	0	0	0	0	0	0	0	0	0	0	0	0	0	0	0	0	0	0	0	0	0	0	0	0	0	0	0	0	0	0	0	0	0	0	0	0	0	0	0	0	0	0	0	0	0	-1	0	-2.0278	-17.891	16.968	0	0	0	0	0	0	0	0	0	2
2857	28.57	0	0	0	0	0	0	0	0	0	0	0	0	0	0	0	0	0	0	0	0	0	0	0	0	0	0	0	0	0	0	0	0	0	0	0	0	0	0	0	0	0	0	10.996	-10.996	19.046	0	0	0	0	-1	0	-2.0278	-17.891	16.968	0	0	0	0	0	0	0	0	0	2
2858	28.58	0	0	0	0	0	0	0	0	0	0	0	0	0	0	0	0	0	0	0	0	0	0	0	0	10.989	-10.989	19.033	0	0	0	0	0	0	0	0	0	0	0	0	0	0	0	0	0	0	0	0	0	0	-1	0	-2.0278	-17.891	16.968	0	0	0	1	0	0	17.47	2.0148	16.554	2
2859	28.59	0	0	0	0	0	0	0	0	0	0	0	0	0	0	0	0	0	0	0	0	0	0	0	0	0	0	0	0	0	0	0	0	0	0	0	0	0	0	0	0	0	0	0	0	0	0	0	0	0	-1	0	-2.0278	-17.891	16.968	0	0	0	0	0	0	0	0	0	2
2860	28.6	0	0	0	0	0	0	10.917	-10.917	18.908	0	0	0	0	0	0	0	0	0	0	0	0	0	0	0	0	0	0	0	0	0	0	0	0	0	0	0	0	0	0	0	0	0	0	0	0	0	0	0	0	-1	0	-2.0278	-17.891	16.968	0	0	0	0	0	0	0	0	0	2
2861	28.61	0	0	0	0	0	0	0	0	0	0	0	0	0	0	0	0	0	0	0	0	0	0	0	0	0	0	0	0	0	0	0	0	0	0	0	0	0	0	0	0	0	0	0	0	0	0	0	0	0	-1	0	-2.0278	-17.891	16.968	0	0	0	0	0	0	10.93	-10.93	18.931	2
2862	28.62	0	0	0	0	0	0	0	0	0	0	0	0	0	0	0	0	0	0	0	0	0	0	0	0	0	0	0	0	0	0	0	0	0	0	0	0	0	0	0	0	0	0	10.996	-10.996	19.046	0	0	0	0	-1	0	-2.0278	-17.891	16.968	0	0	0	0	0	0	0	0	0	2
2863	28.63	0	0	0	0	0	0	0	0	0	0	0	0	0	0	0	0	0	0	0	0	0	0	0	0	0	0	0	0	0	0	1	0	0	17.883	2.027	16.961	0	0	0	0	0	0	0	0	0	0	0	0	0	-1	0	-2.0278	-17.891	16.968	0	0	0	0	0	0	0	0	0	2
2864	28.64	0	0	0	0	0	0	0	0	0	0	0	0	0	0	0	0	0	0	0	0	0	0	0	0	10.989	-10.989	19.033	0	0	0	0	0	0	0	0	0	0	0	0	0	0	0	0	0	0	0	0	0	0	0	0	0	0	0	0	0	0	0	0	0	0	0	0	2
2865	28.65	0	0	0	0	0	0	0	0	0	0	0	0	0	0	0	0	0	0	0	0	0	0	0	0	0	0	0	0	0	0	0	0	0	0	0	0	0	0	0	0	0	0	0	0	0	0	0	0	0	-1	0	-2.0278	-17.891	16.968	0	0	0	0	0	0	0	0	0	2
2866	28.66	0	0	0	0	0	0	0	0	0	0	0	0	0	0	0	0	0	0	0	0	0	0	0	0	0	0	0	0	0	0	1	0	0	17.883	2.027	16.961	0	0	0	0	0	0	0	0	0	0	0	0	0	0	0	0	0	0	0	0	0	0	0	0	0	0	0	2
2867	28.67	0	0	0	0	0	0	0	0	0	0	0	0	0	0	0	0	0	0	0	0	0	0	0	0	10.989	-10.989	19.033	0	0	0	0	0	0	0	0	0	0	0	0	0	0	0	0	0	0	0	0	0	0	-1	0	-2.0278	-17.891	16.968	0	0	0	0	0	0	0	0	0	2
2868	28.68	0	0	0	0	0	0	0	0	0	0	0	0	0	0	0	0	0	0	0	0	0	0	0	0	0	0	0	0	0	0	0	0	0	0	0	0	0	0	0	0	0	0	0	0	0	0	0	0	0	0	0	0	0	0	0	0	0	0	0	0	0	0	0	2
2869	28.69	0	0	0	0	0	0	0	0	0	0	0	0	0	0	0	0	0	0	0	0	0	0	0	0	0	0	0	0	0	0	0	0	0	0	0	0	0	0	0	0	0	0	0	0	0	0	0	0	0	0	0	0	0	0	0	0	0	0	0	0	0	0	0	2
2870	28.7	0	0	0	0	0	0	0	0	0	0	0	0	0	0	0	0	0	0	0	0	0	0	0	0	0	0	0	0	0	0	0	0	0	0	0	0	0	0	0	0	0	0	0	0	0	0	0	0	0	-1	0	-2.0278	-17.891	16.968	0	0	0	0	0	0	0	0	0	2
2871	28.71	0	0	0	0	0	0	0	0	0	0	0	0	0	0	0	0	0	0	0	0	0	0	0	0	0	0	0	0	0	0	0	0	0	0	0	0	0	0	0	0	0	0	0	0	0	0	0	0	0	0	0	0	0	0	0	0	0	0	0	0	0	0	0	2
2872	28.72	0	0	0	0	0	0	0	0	0	0	0	0	0	0	0	0	0	0	0	0	0	0	0	0	0	0	0	0	0	0	0	0	0	0	0	0	0	0	0	0	0	0	10.996	-10.996	19.046	0	0	0	0	-1	0	-2.0278	-17.891	16.968	0	0	0	0	0	0	0	0	0	2
2873	28.73	0	0	0	0	0	0	0	0	0	0	0	0	0	0	0	0	0	0	0	0	0	0	0	0	0	0	0	0	0	0	0	0	0	0	0	0	0	0	0	0	0	0	0	0	0	0	0	0	0	-1	0	-2.0278	-17.891	16.968	0	0	0	1	0	0	17.47	2.0148	16.554	2
2874	28.74	0	0	0	0	0	0	0	0	0	0	0	0	0	0	0	0	0	0	0	0	0	0	0	0	0	0	0	0	0	0	0	0	0	0	0	0	0	0	0	0	0	0	0	0	0	0	0	0	0	-1	0	-2.0278	-17.891	16.968	0	0	0	0	0	0	0	0	0	2
2875	28.75	0	0	0	0	0	0	0	0	0	0	0	0	0	0	0	0	0	0	0	0	0	0	0	0	0	0	0	0	0	0	0	0	0	0	0	0	0	0	0	0	0	0	0	0	0	0	0	0	0	-1	0	-2.0278	-17.891	16.968	0	0	0	1	0	0	17.47	2.0148	16.554	0
2876	28.76	0	0	0	0	0	0	0	0	0	0	0	0	0	0	0	0	0	0	0	0	0	0	0	0	0	0	0	0	0	0	0	0	0	0	0	0	0	0	0	0	0	0	0	0	0	0	0	0	0	-1	0	-2.0278	-17.891	16.968	0	0	0	1	0	0	17.47	2.0148	16.554	2
2877	28.77	0	0	0	0	0	0	0	0	0	0	0	0	0	0	0	0	0	0	0	0	0	0	0	0	0	0	0	0	0	0	0	0	0	0	0	0	0	0	0	0	-1	0	-2.0279	-17.891	16.969	0	0	0	0	-1	0	-2.0278	-17.891	16.968	0	0	0	0	0	0	0	0	0	2
2878	28.78	0	0	0	0	0	0	0	0	0	0	0	0	0	0	0	0	0	0	0	0	0	0	0	0	0	0	0	0	0	0	0	0	0	0	0	0	0	0	0	0	0	0	0	0	0	0	0	0	0	-1	0	-2.0278	-17.891	16.968	0	0	0	0	0	0	0	0	0	0
2879	28.79	0	0	0	0	0	0	0	0	0	0	0	0	0	0	0	0	0	0	0	0	0	0	0	0	0	0	0	0	0	0	0	0	0	10.991	-10.991	19.037	0	0	0	0	0	0	0	0	0	0	0	0	0	0	0	0	0	0	0	0	0	0	0	0	0	0	0	2
2880	28.8	0	0	0	0	0	0	0	0	0	0	0	0	0	0	0	0	0	0	0	0	0	0	0	0	0	0	0	0	0	0	0	0	0	0	0	0	0	0	0	0	0	0	0	0	0	0	0	0	0	-1	0	-2.0278	-17.891	16.968	0	0	0	0	0	0	0	0	0	2
2881	28.81	0	0	0	0	0	0	0	0	0	0	0	0	0	0	0	0	0	0	0	0	0	0	0	0	0	0	0	0	0	0	0	0	0	0	0	0	0	0	0	0	0	0	0	0	0	0	0	0	0	0	0	0	0	0	0	0	0	0	0	0	0	0	0	2
2882	28.82	0	0	0	0	0	0	0	0	0	0	0	0	0	-1	0	-2.0372	-17.821	16.895	0	0	0	0	0	0	0	0	0	0	0	0	0	0	0	0	0	0	0	0	0	0	0	0	10.996	-10.996	19.046	0	0	0	0	0	0	0	0	0	0	0	0	0	0	0	0	0	0	2
2883	28.83	0	0	0	0	0	0	0	0	0	0	0	0	0	0	0	0	0	0	0	0	0	0	0	0	0	0	0	0	0	0	0	0	0	0	0	0	0	0	0	0	0	0	0	0	0	0	0	0	0	-1	0	-2.0278	-17.891	16.968	0	0	0	1	0	0	17.47	2.0148	16.554	0
2884	28.84	0	0	0	0	0	0	0	0	0	0	0	0	0	0	0	0	0	0	0	0	0	0	0	0	0	0	0	0	0	0	0	0	0	0	0	0	0	0	0	0	0	0	0	0	0	0	0	0	0	0	0	0	0	0	0	0	0	0	0	0	0	0	0	2
2885	28.85	0	0	0	0	0	0	0	0	0	0	0	0	0	0	0	0	0	0	0	0	0	0	0	0	0	0	0	0	0	0	0	0	0	0	0	0	0	0	0	0	0	0	0	0	0	0	0	0	0	-1	0	-2.0278	-17.891	16.968	0	0	0	0	0	0	0	0	0	2
2886	28.86	0	0	0	0	0	0	0	0	0	0	0	0	0	0	0	0	0	0	0	0	0	0	0	0	0	0	0	0	0	0	1	0	0	17.883	2.027	16.961	0	0	0	0	0	0	0	0	0	0	0	0	0	0	0	0	0	0	0	0	0	1	0	0	17.47	2.0148	16.554	2
2887	28.87	0	0	0	0	0	0	0	0	0	0	0	0	0	0	0	0	0	0	0	0	0	0	0	0	0	0	0	0	0	0	0	0	0	0	0	0	0	0	0	0	0	0	0	0	0	0	0	0	0	0	0	0	0	0	0	0	0	0	0	0	0	0	0	2
2888	28.88	0	0	0	0	0	0	0	0	0	0	0	0	0	0	0	0	0	0	0	0	0	0	0	0	0	0	0	0	0	0	0	0	0	0	0	0	0	0	0	0	0	0	0	0	0	0	0	0	0	0	0	0	0	0	0	0	0	1	0	0	17.47	2.0148	16.554	2
2889	28.89	0	0	0	0	0	0	0	0	0	0	0	0	0	0	0	0	0	0	0	0	0	0	0	0	0	0	0	0	0	0	0	0	0	0	0	0	0	0	0	0	0	0	10.996	-10.996	19.046	0	0	0	0	-1	0	-2.0278	-17.891	16.968	0	0	0	0	0	0	0	0	0	2
2890	28.9	0	0	0	0	0	0	0	0	0	0	0	0	0	0	0	0	0	0	0	0	0	0	0	0	0	0	0	0	0	0	0	0	0	0	0	0	0	0	0	0	-1	0	-2.0279	-17.891	16.969	0	0	0	0	-1	0	-2.0278	-17.891	16.968	0	0	0	0	0	0	0	0	0	2
2891	28.91	0	0	0	0	0	0	0	0	0	0	0	0	0	0	0	0	0	0	0	0	0	0	0	0	0	0	0	0	0	0	0	0	0	0	0	0	0	0	0	0	0	0	0	0	0	0	0	0	0	0	0	0	0	0	0	0	0	1	0	0	17.471	2.0135	16.556	2
2892	28.92	0	0	0	0	0	0	0	0	0	0	0	0	0	0	0	0	0	0	0	0	0	0	0	0	0	0	0	0	0	0	0	-1	0	-2.0265	-17.879	16.957	0	0	0	0	0	0	0	0	0	0	0	0	0	-1	0	-2.0278	-17.891	16.968	0	0	0	0	0	0	0	0	0	2
2893	28.93	0	0	0	0	0	0	0	0	0	0	0	0	0	0	0	0	0	0	0	0	0	0	0	0	0	0	0	0	0	0	0	0	0	0	0	0	0	0	0	0	0	0	0	0	0	0	0	0	0	-1	0	-2.0278	-17.891	16.968	0	0	0	0	0	0	0	0	0	2
2894	28.94	0	0	0	0	0	0	0	0	0	0	0	0	0	0	0	0	0	0	0	0	0	0	0	0	0	0	0	0	0	0	0	0	0	0	0	0	0	0	0	0	0	0	0	0	0	0	0	0	0	-1	0	-2.0278	-17.891	16.968	0	0	0	0	0	0	0	0	0	2
2895	28.95	0	0	0	0	0	0	0	0	0	0	0	0	0	0	0	0	0	0	0	0	0	0	0	0	10.989	-10.989	19.033	0	0	0	0	0	0	0	0	0	0	0	0	0	-1	0	-2.0279	-17.891	16.969	0	0	0	0	-1	0	-2.0278	-17.891	16.968	0	0	0	0	0	0	0	0	0	2
2896	28.96	0	0	0	0	0	0	0	0	0	0	0	0	0	0	0	0	0	0	0	0	0	0	0	0	0	0	0	0	0	0	0	0	0	0	0	0	0	0	0	0	0	0	0	0	0	0	0	0	0	-1	0	-2.0278	-17.891	16.968	0	0	0	0	0	0	0	0	0	2
2897	28.97	0	0	0	0	0	0	0	0	0	0	0	0	0	0	0	0	0	0	0	0	0	0	0	0	0	0	0	0	0	0	0	0	0	0	0	0	0	0	0	0	-1	0	-2.0279	-17.891	16.969	0	0	0	0	-1	0	-2.0278	-17.891	16.968	0	0	0	0	0	0	0	0	0	2
2898	28.98	0	0	0	0	0	0	0	0	0	0	0	0	0	0	0	0	0	0	0	0	0	0	0	0	0	0	0	0	0	0	0	0	0	0	0	0	0	0	0	0	0	0	0	0	0	0	0	0	0	-1	0	-2.0278	-17.891	16.968	0	0	0	0	0	0	0	0	0	2
2899	28.99	0	0	0	0	0	0	0	0	0	0	0	0	0	0	0	0	0	0	0	0	0	0	0	0	0	0	0	0	0	0	0	0	0	0	0	0	0	0	0	0	0	0	0	0	0	0	0	0	0	0	0	0	0	0	0	0	0	1	0	0	17.47	2.0148	16.554	2
2900	29	0	0	0	0	0	0	0	0	0	0	0	0	0	0	0	0	0	0	0	0	0	0	0	0	10.989	-10.989	19.033	0	0	0	0	0	0	0	0	0	0	0	0	0	0	0	0	0	0	0	0	0	0	-1	0	-2.0278	-17.891	16.968	0	0	0	0	0	0	0	0	0	2
2901	29.01	0	0	0	0	0	0	0	0	0	0	0	0	0	0	0	0	0	0	0	0	0	0	0	0	0	0	0	0	0	0	1	0	0	17.761	2.1499	16.789	0	0	0	0	0	0	0	0	0	0	0	0	0	0	0	0	0	0	0	0	0	0	0	0	0	0	0	2
2902	29.02	0	0	0	0	0	0	0	0	0	0	0	0	0	0	0	0	0	0	0	0	0	0	0	0	0	0	0	0	0	0	0	0	0	0	0	0	0	0	0	0	-1	0	-2.1508	-17.769	16.797	0	0	0	0	-1	0	-2.0278	-17.891	16.968	0	0	0	0	0	0	0	0	0	2
2903	29.03	0	0	0	0	0	0	0	0	0	0	0	0	0	0	0	0	0	0	0	0	0	0	0	0	0	0	0	0	0	0	1	0	0	17.883	2.027	16.961	0	0	0	0	0	0	0	0	0	0	0	0	0	-1	0	-2.0278	-17.891	16.968	0	0	0	1	0	0	17.47	2.0148	16.554	2
2904	29.04	0	0	0	0	0	0	0	0	0	0	0	0	0	0	0	0	0	0	0	0	0	0	0	0	10.989	-10.989	19.033	0	0	0	0	0	0	0	0	0	0	0	0	0	0	0	0	0	0	0	0	0	0	-1	0	-2.0278	-17.891	16.968	0	0	0	0	0	0	0	0	0	2
2905	29.05	0	0	0	0	0	0	0	0	0	0	0	0	0	0	0	0	0	0	0	0	0	0	0	0	0	0	0	0	0	0	0	0	0	0	0	0	0	0	0	0	0	0	0	0	0	0	0	0	0	-1	0	-2.0278	-17.891	16.968	0	0	0	1	0	0	17.47	2.0148	16.554	2
2906	29.06	0	0	0	0	0	0	0	0	0	0	0	0	0	0	0	0	0	0	0	0	0	0	0	0	0	0	0	0	0	0	1	0	0	17.883	2.027	16.961	0	0	0	0	0	0	0	0	0	0	0	0	0	0	0	0	0	0	0	0	0	1	0	0	17.47	2.0148	16.554	2
2907	29.07	0	0	0	0	0	0	0	0	0	0	0	0	0	0	0	0	0	0	0	0	0	0	0	0	0	0	0	0	0	0	0	0	0	0	0	0	0	0	0	0	0	0	0	0	0	0	0	0	0	-1	0	-2.0278	-17.891	16.968	0	0	0	0	0	0	0	0	0	2
2908	29.08	0	0	0	0	0	0	0	0	0	0	0	0	0	0	0	0	0	0	0	0	0	0	0	0	0	0	0	0	0	0	0	0	0	0	0	0	0	0	0	0	0	0	10.996	-10.996	19.046	0	0	0	0	0	0	0	0	0	0	0	0	1	0	0	17.471	2.0135	16.556	2
2909	29.09	0	0	0	0	0	0	0	0	0	0	0	0	0	-1	0	-2.0366	-17.816	16.89	0	0	0	0	0	0	0	0	0	0	0	0	1	0	0	17.883	2.027	16.961	0	0	0	0	0	0	0	0	0	0	0	0	0	0	0	10.994	-10.994	19.042	0	0	0	0	0	0	0	0	0	2
2910	29.1	0	0	0	0	0	0	0	0	0	0	0	0	0	0	0	0	0	0	0	0	0	0	0	0	0	0	0	0	0	0	0	0	0	0	0	0	0	0	0	0	0	0	10.996	-10.996	19.046	0	0	0	0	-1	0	-2.0278	-17.891	16.968	0	0	0	0	0	0	0	0	0	2
2911	29.11	0	0	0	0	0	0	0	0	0	0	0	0	0	0	0	0	0	0	0	0	0	0	0	0	0	0	0	0	0	0	0	0	0	0	0	0	0	0	0	0	0	0	0	0	0	0	0	0	0	0	0	0	0	0	0	0	0	0	0	0	0	0	0	2
2912	29.12	0	0	0	0	0	0	0	0	0	0	0	0	0	0	0	0	0	0	0	0	0	0	0	0	0	0	0	0	0	0	0	0	0	0	0	0	0	0	0	0	0	0	10.996	-10.996	19.046	0	0	0	0	0	0	0	0	0	0	0	0	0	0	0	0	0	0	2
2913	29.13	0	0	0	0	0	0	0	0	0	0	0	0	0	0	0	0	0	0	0	0	0	0	0	0	0	0	0	0	0	0	1	0	0	17.883	2.027	16.961	0	0	0	0	0	0	0	0	0	0	0	0	0	-1	0	-2.0278	-17.891	16.968	0	0	0	0	0	0	0	0	0	0
2914	29.14	0	0	0	0	0	0	0	0	0	0	0	0	0	0	0	0	0	0	0	0	0	0	0	0	10.989	-10.989	19.033	0	0	0	0	0	0	0	0	0	0	0	0	0	0	0	0	0	0	0	0	0	0	0	0	0	0	0	0	0	0	0	0	0	0	0	0	2
2915	29.15	0	0	0	0	0	0	0	0	0	0	0	0	0	0	0	0	0	0	0	0	0	0	0	0	0	0	0	0	0	0	1	0	0	17.883	2.027	16.961	0	0	0	0	0	0	0	0	0	0	0	0	0	-1	0	-2.0278	-17.891	16.968	0	0	0	0	0	0	0	0	0	2
2916	29.16	0	0	0	0	0	0	0	0	0	0	0	0	0	0	0	0	0	0	0	0	0	0	0	0	0	0	0	0	0	0	0	0	0	0	0	0	0	0	0	0	0	0	0	0	0	0	0	0	0	0	0	0	0	0	0	0	0	1	0	0	17.47	2.0148	16.554	2
2917	29.17	0	0	0	0	0	0	0	0	0	0	0	0	0	-1	0	-2.0366	-17.816	16.89	0	0	0	0	0	0	0	0	0	0	0	0	0	0	0	0	0	0	0	0	0	0	-1	0	-2.1508	-17.769	16.797	0	0	0	0	-1	0	-2.0278	-17.891	16.968	0	0	0	0	0	0	0	0	0	2
2918	29.18	0	0	0	0	0	0	0	0	0	0	0	0	0	0	0	0	0	0	0	0	0	0	0	0	10.989	-10.989	19.033	0	0	0	0	0	0	0	0	0	0	0	0	0	0	0	0	0	0	0	0	0	0	0	0	0	0	0	0	0	0	0	0	0	10.93	-10.93	18.931	0
2919	29.19	0	0	0	0	0	0	0	0	0	0	0	0	0	0	0	0	0	0	0	0	0	0	0	0	0	0	0	0	0	0	0	0	0	0	0	0	0	0	0	0	0	0	0	0	0	0	0	0	0	-1	0	-2.0278	-17.891	16.968	0	0	0	0	0	0	0	0	0	2
2920	29.2	0	0	0	0	0	0	0	0	0	0	0	0	0	0	0	0	0	0	0	0	0	0	0	0	0	0	0	0	0	0	0	0	0	0	0	0	0	0	0	0	-1	0	-2.1508	-17.769	16.797	0	0	0	0	-1	0	-2.0278	-17.891	16.968	0	0	0	0	0	0	0	0	0	2
2921	29.21	0	0	0	0	0	0	0	0	0	0	0	0	0	0	0	0	0	0	0	0	0	0	0	0	10.989	-10.989	19.033	0	0	0	0	0	0	0	0	0	0	0	0	0	0	0	0	0	0	0	0	0	0	0	0	0	0	0	0	0	0	0	0	0	0	0	0	2
2922	29.22	0	0	0	0	0	0	0	0	0	0	0	0	0	0	0	0	0	0	0	0	0	0	0	0	0	0	0	0	0	0	0	0	0	0	0	0	0	0	0	0	0	0	10.996	-10.996	19.046	0	0	0	0	-1	0	-2.0278	-17.891	16.968	0	0	0	0	0	0	0	0	0	2
2923	29.23	0	0	0	0	0	0	0	0	0	0	0	0	0	0	0	0	0	0	0	0	0	0	0	0	0	0	0	0	0	0	0	0	0	0	0	0	0	0	0	0	0	0	0	0	0	0	0	0	0	0	0	0	0	0	0	0	0	0	0	0	0	0	0	2
2924	29.24	0	0	0	0	0	0	0	0	0	0	0	0	0	0	0	0	0	0	0	0	0	0	0	0	0	0	0	0	0	0	0	0	0	0	0	0	0	0	0	0	0	0	10.996	-10.996	19.046	0	0	0	0	-1	0	-2.0278	-17.891	16.968	0	0	0	0	0	0	0	0	0	2
2925	29.25	0	0	0	0	0	0	0	0	0	0	0	0	0	0	0	0	0	0	0	0	0	0	0	0	0	0	0	0	0	0	1	0	0	17.883	2.027	16.961	0	0	0	0	0	0	0	0	0	0	0	0	0	0	0	0	0	0	0	0	0	0	0	0	0	0	0	2
2926	29.26	0	0	0	0	0	0	0	0	0	0	0	0	0	0	0	0	0	0	0	0	0	0	0	0	0	0	0	0	0	0	1	0	0	17.761	2.1499	16.789	0	0	0	0	0	0	0	0	0	0	0	0	0	-1	0	-2.0278	-17.891	16.968	0	0	0	0	0	0	0	0	0	2
2927	29.27	0	0	0	0	0	0	0	0	0	0	0	0	0	0	0	0	0	0	0	0	0	0	0	0	0	0	0	0	0	0	0	0	0	0	0	0	0	0	0	0	0	0	0	0	0	0	0	0	0	-1	0	-2.0278	-17.891	16.968	0	0	0	0	0	0	0	0	0	2
2928	29.28	0	0	0	0	0	0	0	0	0	0	0	0	0	0	0	0	0	0	0	0	0	0	0	0	0	0	0	0	0	0	0	0	0	0	0	0	0	0	0	0	0	0	0	0	0	0	0	0	0	0	0	0	0	0	0	0	0	1	0	0	17.47	2.0148	16.554	2
2929	29.29	0	0	0	0	0	0	0	0	0	0	0	0	0	0	0	0	0	0	0	0	0	0	0	0	0	0	0	0	0	0	0	0	0	0	0	0	0	0	0	0	0	0	0	0	0	0	0	0	0	0	0	0	0	0	0	0	0	1	0	0	17.47	2.0148	16.554	2
2930	29.3	0	0	0	0	0	0	0	0	0	0	0	0	0	0	0	0	0	0	0	0	0	0	0	0	0	0	0	0	0	0	1	0	0	17.883	2.027	16.961	0	0	0	0	0	0	0	0	0	0	0	0	0	-1	0	-2.0278	-17.891	16.968	0	0	0	0	0	0	0	0	0	2
2931	29.31	0	0	0	0	0	0	0	0	0	0	0	0	0	0	0	0	0	0	0	0	0	0	0	0	0	0	0	0	0	0	0	0	0	10.991	-10.991	19.037	0	0	0	0	0	0	0	0	0	0	0	0	0	0	0	0	0	0	0	0	0	0	0	0	0	0	0	2
2932	29.32	0	0	0	0	0	0	0	0	0	0	0	0	0	0	0	0	0	0	0	0	0	0	0	0	0	0	0	0	0	0	0	0	0	10.991	-10.991	19.037	0	0	0	0	0	0	0	0	0	0	0	0	0	0	0	0	0	0	0	0	0	0	0	0	0	0	0	2
2933	29.33	0	0	0	0	0	0	0	0	0	0	0	0	0	0	0	0	0	0	0	0	0	0	0	0	0	0	0	0	0	0	0	0	0	0	0	0	0	0	0	0	0	0	10.996	-10.996	19.046	0	0	0	0	0	0	0	0	0	0	0	0	0	0	0	0	0	0	2
2934	29.34	0	0	0	0	0	0	0	0	0	0	0	0	0	0	0	0	0	0	0	0	0	0	0	0	0	0	0	0	0	0	0	0	0	0	0	0	0	0	0	0	0	0	10.996	-10.996	19.046	0	0	0	0	0	0	0	0	0	0	0	0	0	0	0	0	0	0	2
2935	29.35	0	0	0	0	0	0	0	0	0	0	0	0	0	0	0	0	0	0	0	0	0	0	0	0	0	0	0	0	0	0	0	0	0	0	0	0	0	0	0	0	-1	0	-2.0279	-17.891	16.969	0	0	0	0	-1	0	-2.0278	-17.891	16.968	0	0	0	0	0	0	0	0	0	0
2936	29.36	0	0	0	0	0	0	0	0	0	0	0	0	0	0	0	0	0	0	0	0	0	0	0	0	0	0	0	0	0	0	0	0	0	0	0	0	0	0	0	0	0	0	0	0	0	0	0	0	0	-1	0	-2.0278	-17.891	16.968	0	0	0	0	0	0	0	0	0	2
2937	29.37	0	0	0	0	0	0	0	0	0	0	0	0	0	0	0	0	0	0	0	0	0	0	0	0	10.989	-10.989	19.033	0	0	0	0	0	0	0	0	0	0	0	0	0	0	0	0	0	0	0	0	0	0	0	0	0	0	0	0	0	0	0	0	0	0	0	0	2
2938	29.38	0	0	0	0	0	0	0	0	0	0	0	0	0	0	0	0	0	0	0	0	0	0	0	0	0	0	0	0	0	0	0	0	0	0	0	0	0	0	0	0	0	0	0	0	0	0	0	0	0	-1	0	-2.0278	-17.891	16.968	0	0	0	0	0	0	0	0	0	2
2939	29.39	0	0	0	0	0	0	0	0	0	0	0	0	0	0	0	0	0	0	0	0	0	0	0	0	0	0	0	0	0	0	0	0	0	0	0	0	0	0	0	0	0	0	10.996	-10.996	19.046	0	0	0	0	-1	0	-2.0278	-17.891	16.968	0	0	0	0	0	0	0	0	0	2
2940	29.4	0	0	0	0	0	0	0	0	0	0	0	0	0	0	0	0	0	0	0	0	0	0	0	0	0	0	0	0	0	0	0	0	0	0	0	0	0	0	0	0	0	0	0	0	0	0	0	0	0	-1	0	-2.0278	-17.891	16.968	0	0	0	0	0	0	0	0	0	2
2941	29.41	0	0	0	0	0	0	0	0	0	0	0	0	0	0	0	0	0	0	0	0	0	0	0	0	0	0	0	0	0	0	0	0	0	0	0	0	0	0	0	0	0	0	0	0	0	0	0	0	0	0	0	0	0	0	0	0	0	1	0	0	17.47	2.0148	16.554	2
2942	29.42	0	0	0	0	0	0	0	0	0	0	0	0	0	0	0	0	0	0	0	0	0	0	0	0	0	0	0	0	0	0	0	0	0	0	0	0	0	0	0	0	0	0	0	0	0	0	0	0	0	0	0	0	0	0	0	0	0	0	0	0	0	0	0	2
2943	29.43	0	0	0	0	0	0	0	0	0	0	0	0	0	0	0	0	0	0	0	0	0	0	0	0	10.989	-10.989	19.033	0	0	0	0	0	0	0	0	0	0	0	0	0	0	0	0	0	0	0	0	0	0	-1	0	-2.0278	-17.891	16.968	0	0	0	0	0	0	0	0	0	2
2944	29.44	0	0	0	0	0	0	0	0	0	0	0	0	0	0	0	0	0	0	0	0	0	0	-1	0	-2.0266	-17.88	16.957	0	0	0	0	0	0	0	0	0	0	0	0	0	0	0	0	0	0	0	0	0	0	-1	0	-2.0278	-17.891	16.968	0	0	0	0	0	0	0	0	0	2
2945	29.45	0	0	0	0	0	0	0	0	0	0	0	0	0	0	0	0	0	0	0	0	0	0	0	0	0	0	0	0	0	0	0	0	0	0	0	0	0	0	0	0	0	0	0	0	0	0	0	0	0	-1	0	-2.0278	-17.891	16.968	0	0	0	0	0	0	0	0	0	2
2946	29.46	0	0	0	0	0	0	0	0	0	0	0	0	0	0	0	0	0	0	0	0	0	0	0	0	0	0	0	0	0	0	0	0	0	0	0	0	0	0	0	0	0	0	0	0	0	0	0	0	0	0	0	0	0	0	0	0	0	1	0	0	17.47	2.0148	16.554	2
2947	29.47	0	0	0	0	0	0	0	0	0	0	0	0	0	-1	0	-2.0372	-17.821	16.895	0	0	0	0	0	0	0	0	0	0	0	0	0	0	0	0	0	0	0	0	0	0	0	0	0	0	0	0	0	0	0	-1	0	-2.0278	-17.891	16.968	0	0	0	0	0	0	0	0	0	2
2948	29.48	0	0	0	0	0	0	0	0	0	0	0	0	0	0	0	0	0	0	0	0	0	0	0	0	0	0	0	0	0	0	0	0	0	0	0	0	0	0	0	0	-1	0	-2.0279	-17.891	16.969	0	0	0	0	0	0	0	0	0	0	0	0	0	0	0	0	0	0	2
2949	29.49	0	0	0	0	0	0	0	0	0	0	0	0	0	0	0	0	0	0	0	0	0	0	0	0	0	0	0	0	0	0	0	0	0	0	0	0	0	0	0	0	0	0	0	0	0	0	0	0	0	-1	0	-2.0278	-17.891	16.968	0	0	0	0	0	0	0	0	0	2
2950	29.5	0	0	0	0	0	0	0	0	0	0	0	0	0	0	0	0	0	0	0	0	0	0	0	0	0	0	0	0	0	0	0	0	0	0	0	0	0	0	0	0	-1	0	-2.0279	-17.891	16.969	0	0	0	0	0	0	0	0	0	0	0	0	0	0	0	0	0	0	2
2951	29.51	0	0	0	0	0	0	10.917	-10.917	18.908	0	0	0	0	0	0	0	0	0	0	0	0	0	0	0	0	0	0	0	0	0	0	0	0	0	0	0	0	0	0	0	0	0	0	0	0	0	0	0	0	0	0	0	0	0	0	0	0	0	0	0	0	0	0	2
2952	29.52	0	0	0	0	0	0	0	0	0	0	0	0	0	0	0	0	0	0	0	0	0	0	0	0	0	0	0	0	0	0	0	0	0	0	0	0	0	0	0	0	-1	0	-2.0279	-17.891	16.969	0	0	0	0	0	0	0	0	0	0	0	0	0	0	0	0	0	0	2
2953	29.53	0	0	0	0	0	0	0	0	0	0	0	0	0	0	0	0	0	0	0	0	0	0	0	0	0	0	0	0	0	0	1	0	0	17.883	2.027	16.961	0	0	0	0	0	0	10.996	-10.996	19.046	0	0	0	0	-1	0	-2.0278	-17.891	16.968	0	0	0	0	0	0	0	0	0	2
2954	29.54	0	0	0	0	0	0	0	0	0	0	0	0	0	0	0	0	0	0	0	0	0	0	0	0	0	0	0	0	0	0	0	0	0	0	0	0	0	0	0	0	0	0	0	0	0	0	0	0	0	0	0	0	0	0	0	0	0	1	0	0	17.47	2.0148	16.554	2
2955	29.55	0	0	0	0	0	0	0	0	0	0	0	0	0	0	0	0	0	0	0	0	0	0	0	0	10.989	-10.989	19.033	0	0	0	1	0	0	17.883	2.027	16.961	0	0	0	0	-1	0	-2.1508	-17.769	16.797	0	0	0	0	-1	0	-2.0278	-17.891	16.968	0	0	0	0	0	0	0	0	0	2
2956	29.56	0	0	0	0	0	0	0	0	0	0	0	0	0	0	0	0	0	0	0	0	0	0	0	0	0	0	0	0	0	0	1	0	0	17.883	2.027	16.961	0	0	0	0	0	0	0	0	0	0	0	0	0	-1	0	-2.0278	-17.891	16.968	0	0	0	0	0	0	0	0	0	2
2957	29.57	0	0	0	0	0	0	0	0	0	0	0	0	0	-1	0	-2.0366	-17.816	16.89	0	0	0	0	0	0	0	0	0	0	0	0	0	0	0	0	0	0	0	0	0	0	0	0	0	0	0	0	0	0	0	-1	0	-2.0278	-17.891	16.968	0	0	0	1	0	0	17.47	2.0148	16.554	2
2958	29.58	0	0	0	0	0	0	0	0	0	0	0	0	0	0	0	0	0	0	0	0	0	0	0	0	10.989	-10.989	19.033	0	0	0	1	0	0	17.883	2.027	16.961	0	0	0	0	0	0	0	0	0	0	0	0	0	-1	0	-2.0278	-17.891	16.968	0	0	0	0	0	0	0	0	0	2
2959	29.59	0	0	0	0	0	0	0	0	0	0	0	0	0	0	0	0	0	0	0	0	0	0	0	0	0	0	0	0	0	0	1	0	0	17.883	2.027	16.961	0	0	0	0	0	0	10.996	-10.996	19.046	0	0	0	0	-1	0	-2.0278	-17.891	16.968	0	0	0	0	0	0	0	0	0	2
2960	29.6	0	0	0	0	0	0	0	0	0	0	0	0	0	0	0	0	0	0	0	0	0	0	0	0	0	0	0	0	0	0	0	0	0	0	0	0	0	0	0	0	-1	0	-2.0279	-17.891	16.969	0	0	0	0	-1	0	-2.0278	-17.891	16.968	0	0	0	0	0	0	0	0	0	2
2961	29.61	0	0	0	0	0	0	0	0	0	0	0	0	0	0	0	0	0	0	0	0	0	0	0	0	0	0	0	0	0	0	0	0	0	0	0	0	0	0	0	0	0	0	0	0	0	0	0	0	0	-1	0	-2.0278	-17.891	16.968	0	0	0	1	0	0	17.47	2.0148	16.554	2
2962	29.62	0	0	0	0	0	0	0	0	0	0	0	0	0	0	0	0	0	0	0	0	0	0	0	0	0	0	0	0	0	0	0	0	0	0	0	0	0	0	0	0	-1	0	-2.0279	-17.891	16.969	0	0	0	0	-1	0	-2.0278	-17.891	16.968	0	0	0	0	0	0	0	0	0	2
2963	29.63	0	0	0	0	0	0	0	0	0	0	0	0	0	0	0	0	0	0	0	0	0	0	0	0	0	0	0	0	0	0	1	0	0	17.761	2.1499	16.789	0	0	0	0	0	0	0	0	0	0	0	0	0	-1	0	-2.0278	-17.891	16.968	0	0	0	1	0	0	17.47	2.0148	16.554	2
2964	29.64	0	0	0	0	0	0	0	0	0	0	0	0	0	0	0	0	0	0	0	0	0	0	0	0	0	0	0	0	0	0	0	0	0	0	0	0	0	0	0	0	0	0	10.996	-10.996	19.046	0	0	0	0	0	0	0	0	0	0	0	0	0	0	0	0	0	0	2
2965	29.65	0	0	0	0	0	0	0	0	0	0	0	0	0	0	0	0	0	0	0	0	0	0	0	0	0	0	0	0	0	0	0	0	0	0	0	0	0	0	0	0	0	0	0	0	0	0	0	0	0	-1	0	-2.0278	-17.891	16.968	0	0	0	0	0	0	0	0	0	2
2966	29.66	0	0	0	0	0	0	0	0	0	0	0	0	0	0	0	0	0	0	0	0	0	0	0	0	0	0	0	0	0	0	0	0	0	0	0	0	0	0	0	0	0	0	0	0	0	0	0	0	0	-1	0	-2.0278	-17.891	16.968	0	0	0	0	0	0	0	0	0	2
2967	29.67	0	0	0	0	0	0	0	0	0	0	0	0	0	0	0	0	0	0	0	0	0	0	0	0	0	0	0	0	0	0	0	0	0	0	0	0	0	0	0	0	0	0	0	0	0	0	0	0	0	0	0	0	0	0	0	0	0	0	0	0	0	0	0	2
2968	29.68	0	0	0	0	0	0	0	0	0	0	0	0	0	0	0	0	0	0	0	0	0	0	0	0	0	0	0	0	0	0	0	0	0	10.991	-10.991	19.037	0	0	0	0	0	0	0	0	0	0	0	0	0	-1	0	-2.0278	-17.891	16.968	0	0	0	1	0	0	17.47	2.0148	16.554	2
2969	29.69	0	0	0	0	0	0	0	0	0	0	0	0	0	0	0	0	0	0	0	0	0	0	0	0	0	0	0	0	0	0	0	0	0	0	0	0	0	0	0	0	0	0	0	0	0	0	0	0	0	0	0	0	0	0	0	0	0	1	0	0	17.47	2.0148	16.554	2
2970	29.7	0	0	0	0	0	0	0	0	0	0	0	0	0	0	0	0	0	0	0	0	0	0	0	0	0	0	0	0	0	0	0	0	0	0	0	0	0	0	0	0	0	0	10.996	-10.996	19.046	0	0	0	0	-1	0	-2.0278	-17.891	16.968	0	0	0	0	0	0	0	0	0	2
2971	29.71	0	0	0	0	0	0	0	0	0	0	0	0	0	0	0	0	0	0	0	0	0	0	0	0	0	0	0	0	0	0	0	0	0	0	0	0	0	0	0	0	0	0	10.996	-10.996	19.046	0	0	0	0	0	0	0	0	0	0	0	0	0	0	0	0	0	0	2
2972	29.72	0	0	0	0	0	0	0	0	0	0	0	0	0	0	0	0	0	0	0	0	0	0	0	0	0	0	0	0	0	0	0	0	0	0	0	0	0	0	0	0	0	0	10.996	-10.996	19.046	0	0	0	0	-1	0	-2.0278	-17.891	16.968	0	0	0	1	0	0	17.47	2.0148	16.554	2
2973	29.73	0	0	0	0	0	0	0	0	0	0	0	0	0	0	0	0	0	0	0	0	0	0	0	0	0	0	0	0	0	0	1	0	0	17.761	2.1499	16.789	0	0	0	0	0	0	0	0	0	0	0	0	0	0	0	0	0	0	0	0	0	0	0	0	0	0	0	2
2974	29.74	0	0	0	0	0	0	0	0	0	0	0	0	0	0	0	0	0	0	0	0	0	0	0	0	0	0	0	0	0	0	0	0	0	0	0	0	0	0	0	0	0	0	0	0	0	0	0	0	0	0	0	0	0	0	0	0	0	0	0	0	0	0	0	2
2975	29.75	0	0	0	0	0	0	10.917	-10.917	18.908	0	0	0	0	0	0	0	0	0	0	0	0	0	0	0	0	0	0	0	0	0	1	0	0	17.883	2.027	16.961	0	0	0	0	0	0	10.996	-10.996	19.046	0	0	0	0	0	0	0	0	0	0	0	0	0	0	0	0	0	0	2
2976	29.76	0	0	0	0	0	0	0	0	0	0	0	0	0	0	0	0	0	0	0	0	0	0	0	0	0	0	0	0	0	0	1	0	0	17.883	2.027	16.961	0	0	0	0	0	0	10.996	-10.996	19.046	0	0	0	0	0	0	0	0	0	0	0	0	1	0	0	17.47	2.0148	16.554	2
2977	29.77	0	0	0	0	0	0	0	0	0	0	0	0	0	0	0	0	0	0	0	0	0	0	0	0	0	0	0	0	0	0	0	0	0	0	0	0	0	0	0	0	0	0	0	0	0	0	0	0	0	-1	0	-2.0278	-17.891	16.968	0	0	0	0	0	0	0	0	0	0
2978	29.78	0	0	0	0	0	0	0	0	0	0	0	0	0	0	0	0	0	0	0	0	0	0	0	0	0	0	0	0	0	0	1	-1	0	7.5496	-27.455	31.907	0	0	0	0	0	0	0	0	0	0	0	0	0	-1	0	-2.0278	-17.891	16.968	0	0	0	1	0	0	17.47	2.0148	16.554	2
2979	29.79	0	0	0	0	0	0	0	0	0	0	0	0	0	0	0	0	0	0	0	0	0	0	0	0	0	0	0	0	0	0	0	0	0	0	0	0	0	0	0	0	0	0	10.996	-10.996	19.046	0	0	0	0	-1	0	-2.0278	-17.891	16.968	0	0	0	1	0	0	17.47	2.0148	16.554	2
2980	29.8	0	0	0	0	0	0	0	0	0	0	0	0	0	0	0	0	0	0	0	0	0	0	0	0	0	0	0	0	0	0	0	0	0	0	0	0	0	0	0	0	0	0	10.996	-10.996	19.046	0	0	0	0	0	0	0	0	0	0	0	0	1	0	0	17.47	2.0148	16.554	2
2981	29.81	0	0	0	0	0	0	0	0	0	0	0	0	0	0	0	0	0	0	0	0	0	0	0	0	0	0	0	0	0	0	0	0	0	0	0	0	0	0	0	0	0	0	10.996	-10.996	19.046	0	0	0	0	-1	0	-2.0278	-17.891	16.968	0	0	0	0	0	0	0	0	0	2
2982	29.82	0	0	0	0	0	0	0	0	0	0	0	0	0	0	0	0	0	0	0	0	0	0	0	0	0	0	0	0	0	0	1	0	0	17.883	2.027	16.961	0	0	0	0	0	0	0	0	0	0	0	0	0	-1	0	-2.0278	-17.891	16.968	0	0	0	0	0	0	0	0	0	2
2983	29.83	0	0	0	0	0	0	0	0	0	0	0	0	0	0	0	0	0	0	0	0	0	0	0	0	0	0	0	0	0	0	0	0	0	0	0	0	0	0	0	0	0	0	0	0	0	0	0	0	0	-1	0	-2.0278	-17.891	16.968	0	0	0	0	0	0	0	0	0	2
2984	29.84	0	0	0	0	0	0	0	0	0	0	0	0	0	0	0	0	0	0	0	0	0	0	0	0	0	0	0	0	0	0	0	0	0	0	0	0	0	0	0	0	0	0	0	0	0	0	0	0	0	0	0	0	0	0	0	0	0	0	0	0	0	0	0	2
2985	29.85	0	0	0	0	0	0	0	0	0	0	0	0	0	0	0	0	0	0	0	0	0	0	0	0	0	0	0	0	0	0	0	0	0	0	0	0	0	0	0	0	0	0	0	0	0	0	0	0	0	0	0	0	0	0	0	0	0	0	0	0	0	0	0	2
2986	29.86	0	0	0	0	0	0	0	0	0	0	0	0	0	0	0	0	0	0	0	0	0	0	0	0	0	0	0	0	0	0	0	0	0	0	0	0	0	0	0	0	0	0	0	0	0	0	0	0	0	0	0	0	0	0	0	0	0	0	0	0	0	0	0	2
2987	29.87	0	0	0	0	-1	0	-2.0364	-17.814	16.888	0	0	0	0	0	0	0	0	0	0	0	0	0	0	0	0	0	0	0	0	0	0	0	0	10.991	-10.991	19.037	0	0	0	0	0	0	0	0	0	0	0	0	0	-1	0	-2.0278	-17.891	16.968	0	0	0	0	0	0	0	0	0	2
2988	29.88	0	0	0	0	0	0	0	0	0	0	0	0	0	0	0	0	0	0	0	0	0	0	0	0	0	0	0	0	0	0	1	0	0	17.883	2.027	16.961	0	0	0	0	0	0	0	0	0	0	0	0	0	-1	0	-2.0278	-17.891	16.968	0	0	0	0	0	0	0	0	0	2
2989	29.89	0	0	0	0	0	0	0	0	0	0	0	0	0	0	0	0	0	0	0	0	0	0	0	0	0	0	0	0	0	0	0	0	0	0	0	0	0	0	0	0	0	0	10.996	-10.996	19.046	0	0	0	0	0	0	0	0	0	0	0	0	0	0	0	0	0	0	2
2990	29.9	0	0	0	0	0	0	0	0	0	0	0	0	0	0	0	0	0	0	0	0	0	0	0	0	0	0	0	0	0	0	0	0	0	0	0	0	0	0	0	0	0	0	0	0	0	0	0	0	0	-1	0	-2.0278	-17.891	16.968	0	0	0	0	0	0	10.93	-10.93	18.931	2
2991	29.91	0	0	0	0	0	0	0	0	0	0	0	0	0	0	0	0	0	0	0	0	0	0	0	0	0	0	0	0	0	0	1	0	0	17.883	2.027	16.961	0	0	0	0	0	0	10.996	-10.996	19.046	0	0	0	0	-1	0	-2.0278	-17.891	16.968	0	0	0	0	0	0	0	0	0	2
2992	29.92	0	0	0	0	0	0	0	0	0	0	0	0	0	0	0	0	0	0	0	0	0	0	0	0	0	0	0	0	0	0	0	0	0	0	0	0	0	0	0	0	0	0	0	0	0	0	0	0	0	-1	0	-2.0278	-17.891	16.968	0	0	0	1	0	0	17.47	2.0148	16.554	2
2993	29.93	0	0	0	0	0	0	0	0	0	0	0	0	0	0	0	0	0	0	0	0	0	0	0	0	0	0	0	0	0	0	0	0	0	0	0	0	0	0	0	0	0	0	0	0	0	0	0	0	0	0	0	0	0	0	0	0	0	0	0	0	0	0	0	2
2994	29.94	0	0	0	0	0	0	0	0	0	0	0	0	0	0	0	0	0	0	0	0	0	0	0	0	0	0	0	0	0	0	1	0	0	17.883	2.027	16.961	0	0	0	0	0	0	10.996	-10.996	19.046	0	0	0	0	-1	0	-2.0278	-17.891	16.968	0	0	0	0	0	0	0	0	0	2
2995	29.95	0	0	0	0	0	0	0	0	0	0	0	0	0	0	0	0	0	0	0	0	0	0	0	0	0	0	0	0	0	0	0	0	0	0	0	0	0	0	0	0	0	0	0	0	0	0	0	0	0	-1	0	-2.0278	-17.891	16.968	0	0	0	0	0	0	0	0	0	2
2996	29.96	0	0	0	0	0	0	0	0	0	0	0	0	0	0	0	0	0	0	0	0	0	0	0	0	0	0	0	0	0	0	0	0	0	0	0	0	0	0	0	0	0	0	0	0	0	0	0	0	0	0	0	0	0	0	0	0	0	0	0	0	0	0	0	2
2997	29.97	0	0	0	0	0	0	0	0	0	0	0	0	0	0	0	0	0	0	0	0	0	0	0	0	0	0	0	0	0	0	0	0	0	0	0	0	0	0	0	0	0	0	0	0	0	0	0	0	0	0	0	0	0	0	0	0	0	0	0	0	0	0	0	2
2998	29.98	0	0	0	0	0	0	0	0	0	0	0	0	0	0	0	0	0	0	0	0	0	0	0	0	0	0	0	0	0	0	0	0	0	0	0	0	0	0	0	0	0	0	0	0	0	0	0	0	0	0	0	0	0	0	0	0	0	0	0	0	0	0	0	2
2999	29.99	0	0	0	0	0	0	0	0	0	0	0	0	0	0	0	0	0	0	0	0	0	0	0	0	0	0	0	0	0	0	0	0	0	0	0	0	0	0	0	0	0	0	0	0	0	0	0	0	0	-1	0	-2.0278	-17.891	16.968	0	0	0	0	0	0	0	0	0	2
3000	30	0	0	0	0	0	0	0	0	0	0	0	0	0	0	0	0	0	0	0	0	0	0	0	0	0	0	0	0	0	0	0	0	0	0	0	0	0	0	0	0	0	0	0	0	0	0	0	0	0	-1	0	-2.0278	-17.891	16.968	0	0	0	0	0	0	0	0	0	2
3001	30.01	0	0	0	0	0	0	0	0	0	0	0	0	0	0	0	0	0	0	0	0	0	0	0	0	0	0	0	0	0	0	1	0	0	17.883	2.027	16.961	0	0	0	0	-1	0	-2.0279	-17.891	16.969	0	0	0	0	-1	0	-2.0278	-17.891	16.968	0	0	0	0	0	0	0	0	0	0
3002	30.02	0	0	0	0	0	0	0	0	0	0	0	0	0	0	0	0	0	0	0	0	0	0	0	0	0	0	0	0	0	0	0	0	0	0	0	0	0	0	0	0	-1	0	-2.0279	-17.891	16.969	0	0	0	0	-1	0	-2.0278	-17.891	16.968	0	0	0	0	0	0	0	0	0	2
3003	30.03	0	0	0	0	0	0	0	0	0	0	0	0	0	0	0	0	0	0	0	0	0	0	0	0	0	0	0	0	0	0	0	0	0	0	0	0	0	0	0	0	0	0	0	0	0	0	0	0	0	-1	0	-2.0278	-17.891	16.968	0	0	0	0	0	0	0	0	0	2
3004	30.04	0	0	0	0	0	0	0	0	0	0	0	0	0	0	0	0	0	0	0	0	0	0	0	0	0	0	0	0	0	0	0	0	0	0	0	0	0	0	0	0	0	0	0	0	0	0	0	0	0	0	0	0	0	0	0	0	0	0	0	0	0	0	0	2
3005	30.05	0	0	0	0	0	0	0	0	0	0	0	0	0	0	0	0	0	0	0	0	0	0	0	0	0	0	0	0	0	0	0	0	0	0	0	0	0	0	0	0	-1	0	-2.0279	-17.891	16.969	0	0	0	0	-1	0	-2.0278	-17.891	16.968	0	0	0	0	0	0	0	0	0	2
3006	30.06	0	0	0	0	0	0	0	0	0	0	0	0	0	0	0	0	0	0	0	0	0	0	0	0	0	0	0	0	0	0	1	0	0	17.761	2.1499	16.789	0	0	0	0	0	0	0	0	0	0	0	0	0	-1	0	-2.0278	-17.891	16.968	0	0	0	0	0	0	0	0	0	2
3007	30.07	0	0	0	0	-1	0	-2.0364	-17.814	16.888	0	0	0	0	0	0	0	0	0	0	0	0	0	0	0	0	0	0	0	0	0	0	0	0	0	0	0	0	0	0	0	0	0	0	0	0	0	0	0	0	-1	0	-2.0278	-17.891	16.968	0	0	0	0	0	0	0	0	0	2
3008	30.08	0	0	0	0	0	0	0	0	0	0	0	0	0	0	0	0	0	0	0	0	0	0	0	0	0	0	0	0	0	0	0	0	0	0	0	0	0	0	0	0	0	0	0	0	0	0	0	0	0	-1	0	-2.0278	-17.891	16.968	0	0	0	1	0	0	17.47	2.0148	16.554	2
3009	30.09	0	0	0	0	0	0	0	0	0	0	0	0	0	0	0	0	0	0	0	0	0	0	0	0	0	0	0	0	0	0	0	0	0	0	0	0	0	0	0	0	0	0	10.996	-10.996	19.046	0	0	0	0	0	0	0	0	0	0	0	0	0	0	0	0	0	0	2
3010	30.1	0	0	0	0	0	0	0	0	0	0	0	0	0	0	0	0	0	0	0	0	0	0	0	0	0	0	0	0	0	0	0	0	0	0	0	0	0	0	0	0	0	0	0	0	0	0	0	0	0	-1	0	-2.0278	-17.891	16.968	0	0	0	0	0	0	0	0	0	2
3011	30.11	0	0	0	0	0	0	0	0	0	0	0	0	0	0	0	0	0	0	0	0	0	0	0	0	0	0	0	0	0	0	1	0	0	17.883	2.027	16.961	0	0	0	0	0	0	0	0	0	0	0	0	0	0	0	0	0	0	0	0	0	1	0	0	17.47	2.0148	16.554	2
3012	30.12	0	0	0	0	0	0	0	0	0	0	0	0	0	0	0	0	0	0	0	0	0	0	0	0	0	0	0	0	0	0	0	0	0	0	0	0	0	0	0	0	0	0	0	0	0	0	0	0	0	-1	0	-2.0278	-17.891	16.968	0	0	0	0	0	0	0	0	0	2
3013	30.13	0	0	0	0	0	0	0	0	0	0	0	0	0	0	0	0	0	0	0	0	0	0	0	0	0	0	0	0	0	0	1	0	0	17.883	2.027	16.961	0	0	0	0	0	0	10.996	-10.996	19.046	0	0	0	0	-1	0	-2.0278	-17.891	16.968	0	0	0	1	0	0	17.47	2.0148	16.554	2
3014	30.14	0	0	0	0	0	0	0	0	0	0	0	0	0	0	0	0	0	0	0	0	0	0	0	0	0	0	0	0	0	0	0	0	0	0	0	0	0	0	0	0	0	0	10.996	-10.996	19.046	0	0	0	0	0	0	0	0	0	0	0	0	0	0	0	0	0	0	2
3015	30.15	0	0	0	0	0	0	0	0	0	0	0	0	0	0	0	0	0	0	0	0	0	0	0	0	0	0	0	0	0	0	0	-1	0	-2.0265	-17.879	16.957	0	0	0	0	0	0	10.996	-10.996	19.046	0	0	0	0	-1	0	-2.0278	-17.891	16.968	0	0	0	0	0	0	0	0	0	2
3016	30.16	0	0	0	0	0	0	0	0	0	0	0	0	0	0	0	0	0	0	0	0	0	0	0	0	0	0	0	0	0	0	0	0	0	0	0	0	0	0	0	0	0	0	0	0	0	0	0	0	0	-1	0	-2.0278	-17.891	16.968	0	0	0	0	0	0	0	0	0	2
3017	30.17	0	0	0	0	0	0	0	0	0	0	0	0	0	0	0	0	0	0	0	0	0	0	0	0	0	0	0	0	0	0	0	0	0	0	0	0	0	0	0	0	0	0	10.996	-10.996	19.046	0	0	0	0	-1	0	-2.0278	-17.891	16.968	0	0	0	0	0	0	0	0	0	2
3018	30.18	0	0	0	0	0	0	0	0	0	0	0	0	0	0	0	0	0	0	0	0	0	0	0	0	0	0	0	0	0	0	0	0	0	0	0	0	0	0	0	0	-1	0	-2.0279	-17.891	16.969	0	0	0	0	0	0	0	0	0	0	0	0	0	0	0	0	0	0	2
3019	30.19	0	0	0	0	0	0	0	0	0	0	0	0	0	0	0	0	0	0	0	0	0	0	0	0	0	0	0	0	0	0	0	0	0	0	0	0	0	0	0	0	0	0	0	0	0	0	0	0	0	-1	0	-2.0278	-17.891	16.968	0	0	0	0	0	0	10.93	-10.93	18.931	2
3020	30.2	0	0	0	0	0	0	0	0	0	0	0	0	0	0	0	0	0	0	0	0	0	0	0	0	0	0	0	0	0	0	0	0	0	0	0	0	0	0	0	0	-1	0	-2.0279	-17.891	16.969	0	0	0	0	0	0	0	0	0	0	0	0	0	0	0	0	0	0	2
3021	30.21	0	0	0	0	0	0	0	0	0	0	0	0	0	0	0	0	0	0	0	0	0	0	0	0	0	0	0	0	0	0	0	0	0	0	0	0	0	0	0	0	0	0	10.996	-10.996	19.046	0	0	0	0	-1	0	-2.0278	-17.891	16.968	0	0	0	0	0	0	0	0	0	2
3022	30.22	0	0	0	0	0	0	0	0	0	0	0	0	0	-1	0	-2.0372	-17.821	16.895	0	0	0	0	0	0	0	0	0	0	0	0	0	0	0	0	0	0	0	0	0	0	0	0	10.996	-10.996	19.046	0	0	0	0	0	0	0	0	0	0	0	0	0	0	0	0	0	0	2
3023	30.23	0	0	0	0	0	0	0	0	0	0	0	0	0	0	0	0	0	0	0	0	0	0	0	0	0	0	0	0	0	0	0	0	0	0	0	0	0	0	0	0	0	0	0	0	0	0	0	0	0	0	0	0	0	0	0	0	0	0	0	0	10.93	-10.93	18.931	2
3024	30.24	0	0	0	0	0	0	0	0	0	0	0	0	0	0	0	0	0	0	0	0	0	0	0	0	0	0	0	0	0	0	0	0	0	0	0	0	0	0	0	0	0	0	0	0	0	0	0	0	0	-1	0	-2.0278	-17.891	16.968	0	0	0	0	0	0	0	0	0	2
3025	30.25	0	0	0	0	0	0	0	0	0	0	0	0	0	0	0	0	0	0	0	0	0	0	0	0	0	0	0	0	0	0	0	0	0	0	0	0	0	0	0	0	0	0	10.996	-10.996	19.046	0	0	0	0	-1	0	-2.0278	-17.891	16.968	0	0	0	0	0	0	0	0	0	2
3026	30.26	0	0	0	0	0	0	0	0	0	0	0	0	0	0	0	0	0	0	0	0	0	0	0	0	0	0	0	0	0	0	0	0	0	0	0	0	0	0	0	0	0	0	0	0	0	0	0	0	0	-1	0	-2.0278	-17.891	16.968	0	0	0	0	0	0	0	0	0	2
3027	30.27	0	0	0	0	0	0	0	0	0	0	0	0	0	0	0	0	0	0	0	0	0	0	0	0	0	0	0	0	0	0	0	0	0	0	0	0	0	0	0	0	0	0	10.996	-10.996	19.046	0	0	0	0	0	0	0	0	0	0	0	0	0	0	0	0	0	0	2
3028	30.28	0	0	0	0	0	0	0	0	0	0	0	0	0	0	0	0	0	0	0	0	0	0	0	0	0	0	0	0	0	0	0	-1	0	-2.0265	-17.879	16.957	0	0	0	0	0	0	0	0	0	0	0	0	0	0	0	0	0	0	0	0	0	0	0	0	0	0	0	2
3029	30.29	0	0	0	0	0	0	0	0	0	0	0	0	0	0	0	0	0	0	0	0	0	0	0	0	0	0	0	0	0	0	0	0	0	0	0	0	0	0	0	0	-1	0	-2.0279	-17.891	16.969	0	0	0	0	0	0	0	0	0	0	0	0	0	0	0	0	0	0	2
3030	30.3	0	0	0	0	0	0	0	0	0	0	0	0	0	0	0	0	0	0	0	0	0	0	0	0	0	0	0	0	0	0	0	0	0	0	0	0	0	0	0	0	0	0	0	0	0	0	0	0	0	-1	0	-2.0278	-17.891	16.968	0	0	0	0	0	0	0	0	0	2
3031	30.31	0	0	0	0	0	0	0	0	0	0	0	0	0	0	0	0	0	0	0	0	0	0	0	0	0	0	0	0	0	0	0	0	0	0	0	0	0	0	0	0	0	0	0	0	0	0	0	0	0	-1	0	-2.0278	-17.891	16.968	0	0	0	1	0	0	17.47	2.0148	16.554	2
3032	30.32	0	0	0	0	0	0	0	0	0	0	0	0	0	0	0	0	0	0	0	0	0	0	0	0	0	0	0	0	0	0	0	0	0	0	0	0	0	0	0	0	0	0	10.996	-10.996	19.046	0	0	0	0	0	0	0	0	0	0	0	0	0	0	0	0	0	0	2
3033	30.33	0	0	0	0	0	0	0	0	0	0	0	0	0	0	0	0	0	0	0	0	0	0	0	0	0	0	0	0	0	0	0	0	0	0	0	0	0	0	0	0	0	0	0	0	0	0	0	0	0	0	0	0	0	0	0	0	0	0	0	0	0	0	0	2
3034	30.34	0	0	0	0	0	0	0	0	0	0	0	0	0	0	0	0	0	0	0	0	0	0	0	0	0	0	0	0	0	0	0	0	0	0	0	0	0	0	0	0	-1	0	-2.0279	-17.891	16.969	0	0	0	0	0	0	0	0	0	0	0	0	0	0	0	0	0	0	2
3035	30.35	0	0	0	0	0	0	10.917	-10.917	18.908	0	0	0	0	0	0	0	0	0	0	0	0	0	0	0	0	0	0	0	0	0	0	0	0	0	0	0	0	0	0	0	0	0	0	0	0	0	0	0	0	0	0	0	0	0	0	0	0	0	0	0	0	0	0	2
3036	30.36	0	0	0	0	0	0	0	0	0	0	0	0	0	0	0	0	0	0	0	0	0	0	0	0	0	0	0	0	0	0	0	0	0	10.991	-10.991	19.037	0	0	0	0	0	0	0	0	0	0	0	0	0	0	0	0	0	0	0	0	0	1	0	0	17.471	2.0135	16.556	2
3037	30.37	0	0	0	0	0	0	0	0	0	0	0	0	0	0	0	0	0	0	0	0	0	0	0	0	0	0	0	0	0	0	0	0	0	0	0	0	0	0	0	0	0	0	10.996	-10.996	19.046	0	0	0	0	-1	0	-2.0278	-17.891	16.968	0	0	0	0	0	0	0	0	0	2
3038	30.38	0	0	0	0	0	0	0	0	0	0	0	0	0	0	0	0	0	0	0	0	0	0	0	0	0	0	0	0	0	0	0	0	0	0	0	0	0	0	0	0	0	0	0	0	0	0	0	0	0	-1	0	-2.0278	-17.891	16.968	0	0	0	1	0	0	17.47	2.0148	16.554	2
3039	30.39	0	0	0	0	0	0	0	0	0	0	0	0	0	0	0	0	0	0	0	0	0	0	0	0	0	0	0	0	0	0	0	0	0	0	0	0	0	0	0	0	0	0	0	0	0	0	0	0	0	-1	0	-2.0278	-17.891	16.968	0	0	0	0	0	0	0	0	0	2
3040	30.4	0	0	0	0	0	0	0	0	0	0	0	0	0	0	0	0	0	0	0	0	0	0	0	0	0	0	0	0	0	0	0	0	0	0	0	0	0	0	0	0	0	0	0	0	0	0	0	0	0	-1	0	-2.0278	-17.891	16.968	0	0	0	0	0	0	0	0	0	2
3041	30.41	0	0	0	0	0	0	0	0	0	0	0	0	0	0	0	0	0	0	0	0	0	0	0	0	0	0	0	0	0	0	0	0	0	0	0	0	0	0	0	0	0	0	0	0	0	0	0	0	0	-1	0	-2.0278	-17.891	16.968	0	0	0	0	0	0	0	0	0	0
3042	30.42	0	0	0	0	0	0	0	0	0	0	0	0	0	0	0	0	0	0	0	0	0	0	0	0	0	0	0	0	0	0	0	0	0	0	0	0	0	0	0	0	0	0	10.996	-10.996	19.046	0	0	0	0	-1	0	-2.0278	-17.891	16.968	0	0	0	0	0	0	0	0	0	2
3043	30.43	0	0	0	0	0	0	0	0	0	0	0	0	0	0	0	0	0	0	0	0	0	0	0	0	0	0	0	0	0	0	0	0	0	0	0	0	0	0	0	0	0	0	0	0	0	0	0	0	0	-1	0	-2.0278	-17.891	16.968	0	0	0	1	0	0	17.47	2.0148	16.554	2
3044	30.44	0	0	0	0	0	0	0	0	0	0	0	0	0	0	0	0	0	0	0	0	0	0	0	0	0	0	0	0	0	0	0	0	0	0	0	0	0	0	0	0	0	0	10.996	-10.996	19.046	0	0	0	0	-1	0	-2.0278	-17.891	16.968	0	0	0	0	0	0	0	0	0	2
3045	30.45	0	0	0	0	0	0	0	0	0	0	0	0	0	0	0	0	0	0	0	0	0	0	0	0	0	0	0	0	0	0	0	0	0	0	0	0	0	0	0	0	0	0	10.996	-10.996	19.046	0	0	0	0	-1	0	-2.0278	-17.891	16.968	0	0	0	0	0	0	0	0	0	2
3046	30.46	0	0	0	0	0	0	0	0	0	0	0	0	0	0	0	0	0	0	0	0	0	0	0	0	0	0	0	0	0	0	0	0	0	0	0	0	0	0	0	0	0	0	0	0	0	0	0	0	0	-1	0	-2.0278	-17.891	16.968	0	0	0	0	0	0	0	0	0	2
3047	30.47	0	0	0	0	0	0	0	0	0	0	0	0	0	0	0	0	0	0	0	0	0	0	0	0	0	0	0	0	0	0	0	0	0	0	0	0	0	0	0	0	0	0	10.996	-10.996	19.046	0	0	0	0	-1	0	-2.0278	-17.891	16.968	0	0	0	0	0	0	0	0	0	2
3048	30.48	0	0	0	0	0	0	0	0	0	0	0	0	0	0	0	0	0	0	0	0	0	0	0	0	10.989	-10.989	19.033	0	0	0	0	0	0	0	0	0	0	0	0	0	0	0	0	0	0	0	0	0	0	0	0	0	0	0	0	0	0	1	0	0	17.47	2.0148	16.554	2
3049	30.49	0	0	0	0	0	0	0	0	0	0	0	0	0	0	0	0	0	0	0	0	0	0	0	0	0	0	0	0	0	0	0	0	0	0	0	0	0	0	0	0	0	0	10.996	-10.996	19.046	0	0	0	0	-1	0	-2.0278	-17.891	16.968	0	0	0	0	0	0	0	0	0	2
3050	30.5	0	0	0	0	0	0	0	0	0	0	0	0	0	0	0	0	0	0	0	0	0	0	0	0	0	0	0	0	0	0	1	0	0	17.883	2.027	16.961	0	0	0	0	0	0	0	0	0	0	0	0	0	0	0	0	0	0	0	0	0	0	0	0	0	0	0	2
3051	30.51	0	0	0	0	0	0	0	0	0	0	0	0	0	0	0	0	0	0	0	0	0	0	0	0	0	0	0	0	0	0	0	0	0	0	0	0	0	0	0	0	0	0	0	0	0	0	0	0	0	-1	0	-2.0278	-17.891	16.968	0	0	0	0	0	0	0	0	0	2
3052	30.52	0	0	0	0	0	0	0	0	0	0	0	0	0	0	0	0	0	0	0	0	0	0	0	0	0	0	0	0	0	0	0	0	0	0	0	0	0	0	0	0	0	0	0	0	0	0	0	0	0	-1	0	-2.0278	-17.891	16.968	0	0	0	0	0	0	0	0	0	2
3053	30.53	0	0	0	0	0	0	0	0	0	0	0	0	0	0	0	0	0	0	0	0	0	0	0	0	0	0	0	0	0	0	0	0	0	0	0	0	0	0	0	0	0	0	0	0	0	0	0	0	0	0	0	0	0	0	0	0	0	1	0	0	17.47	2.0148	16.554	2
3054	30.54	0	0	0	0	0	0	0	0	0	0	0	0	0	0	0	0	0	0	0	0	0	0	0	0	0	0	0	0	0	0	1	0	0	17.761	2.1499	16.789	0	0	0	0	0	0	0	0	0	0	0	0	0	-1	0	-2.0278	-17.891	16.968	0	0	0	0	0	0	0	0	0	2
3055	30.55	0	0	0	0	0	0	0	0	0	0	0	0	0	0	0	0	0	0	0	0	0	0	0	0	0	0	0	0	0	0	0	0	0	0	0	0	0	0	0	0	0	0	0	0	0	0	0	0	0	-1	0	-2.0278	-17.891	16.968	0	0	0	0	0	0	0	0	0	2
3056	30.56	0	0	0	0	0	0	0	0	0	0	0	0	0	0	0	0	0	0	0	0	0	0	0	0	0	0	0	0	0	0	0	0	0	10.991	-10.991	19.037	0	0	0	0	0	0	0	0	0	0	0	0	0	0	0	0	0	0	0	0	0	0	0	0	0	0	0	2
3057	30.57	0	0	0	0	0	0	0	0	0	0	0	0	0	0	0	0	0	0	0	0	0	0	0	0	0	0	0	0	0	0	0	0	0	0	0	0	0	0	0	0	0	0	10.996	-10.996	19.046	0	0	0	0	0	0	0	0	0	0	0	0	0	0	0	0	0	0	2
3058	30.58	0	0	0	0	0	0	0	0	0	0	0	0	0	0	0	0	0	0	0	0	0	0	0	0	0	0	0	0	0	0	0	0	0	0	0	0	0	0	0	0	0	0	0	0	0	0	0	0	0	-1	0	-2.0278	-17.891	16.968	0	0	0	0	0	0	0	0	0	2
3059	30.59	0	0	0	0	0	0	0	0	0	0	0	0	0	0	0	0	0	0	0	0	0	0	0	0	0	0	0	0	0	0	0	0	0	0	0	0	0	0	0	0	0	0	10.996	-10.996	19.046	0	0	0	0	-1	0	-2.0278	-17.891	16.968	0	0	0	0	0	0	10.93	-10.93	18.931	2
3060	30.6	0	0	0	0	0	0	0	0	0	0	0	0	0	0	0	0	0	0	0	0	0	0	0	0	0	0	0	0	0	0	0	0	0	0	0	0	0	0	0	0	0	0	0	0	0	0	0	0	0	-1	0	-2.0278	-17.891	16.968	0	0	0	0	0	0	0	0	0	2
3061	30.61	0	0	0	0	0	0	10.917	-10.917	18.908	0	0	0	0	0	0	0	0	0	0	0	0	0	0	0	10.989	-10.989	19.033	0	0	0	0	0	0	0	0	0	0	0	0	0	0	0	0	0	0	0	0	0	0	-1	0	-2.0278	-17.891	16.968	0	0	0	0	0	0	10.93	-10.93	18.931	2
3062	30.62	0	0	0	0	0	0	0	0	0	0	0	0	0	-1	0	-2.0372	-17.821	16.895	0	0	0	0	0	0	0	0	0	0	0	0	0	0	0	0	0	0	0	0	0	0	0	0	0	0	0	0	0	0	0	0	0	0	0	0	0	0	0	0	0	0	0	0	0	2
3063	30.63	0	0	0	0	0	0	0	0	0	0	0	0	0	-1	0	-2.0372	-17.821	16.895	0	0	0	0	0	0	0	0	0	0	0	0	0	0	0	0	0	0	0	0	0	0	0	0	0	0	0	0	0	0	0	-1	0	-2.0278	-17.891	16.968	0	0	0	0	0	0	10.93	-10.93	18.931	2
3064	30.64	0	0	0	0	0	0	0	0	0	0	0	0	0	0	0	0	0	0	0	0	0	0	0	0	0	0	0	0	0	0	0	0	0	0	0	0	0	0	0	0	-1	0	-2.0279	-17.891	16.969	0	0	0	0	-1	0	-2.0278	-17.891	16.968	0	0	0	0	0	0	0	0	0	2
3065	30.65	0	0	0	0	0	0	0	0	0	0	0	0	0	0	0	0	0	0	0	0	0	0	0	0	0	0	0	0	0	0	0	0	0	0	0	0	0	0	0	0	0	0	0	0	0	0	0	0	0	-1	0	-2.0278	-17.891	16.968	0	0	0	0	0	0	0	0	0	2
3066	30.66	0	0	0	0	0	0	0	0	0	0	0	0	0	0	0	0	0	0	0	0	0	0	0	0	0	0	0	0	0	0	1	0	0	17.883	2.027	16.961	0	0	0	0	0	0	10.996	-10.996	19.046	0	0	0	0	-1	0	-2.0278	-17.891	16.968	0	0	0	1	0	0	17.47	2.0148	16.554	2
3067	30.67	0	0	0	0	0	0	0	0	0	0	0	0	0	0	0	0	0	0	0	0	0	0	0	0	10.989	-10.989	19.033	0	0	0	0	-1	0	-2.0265	-17.879	16.957	0	0	0	0	0	0	0	0	0	0	0	0	0	-1	0	-2.0278	-17.891	16.968	0	0	0	0	0	0	0	0	0	2
3068	30.68	0	0	0	0	0	0	0	0	0	0	0	0	0	0	0	0	0	0	0	0	0	0	0	0	0	0	0	0	0	0	0	0	0	0	0	0	0	0	0	0	0	0	0	0	0	0	0	0	0	0	0	0	0	0	0	0	0	0	0	0	0	0	0	2
3069	30.69	0	0	0	0	0	0	0	0	0	0	0	0	0	0	0	0	0	0	0	0	0	0	0	0	0	0	0	0	0	0	0	0	0	0	0	0	0	0	0	0	0	0	0	0	0	0	0	0	0	-1	0	-2.0278	-17.891	16.968	0	0	0	0	0	0	0	0	0	2
3070	30.7	0	0	0	0	0	0	0	0	0	0	0	0	0	-1	0	-2.0372	-17.821	16.895	0	0	0	0	0	0	0	0	0	0	0	0	0	0	0	0	0	0	0	0	0	0	0	0	10.996	-10.996	19.046	0	0	0	0	-1	0	-2.0278	-17.891	16.968	0	0	0	0	0	0	0	0	0	2
3071	30.71	0	0	0	0	0	0	0	0	0	0	0	0	0	0	0	0	0	0	0	0	0	0	0	0	0	0	0	0	0	0	0	0	0	0	0	0	0	0	0	0	0	0	0	0	0	0	0	0	0	0	0	0	0	0	0	0	0	1	0	0	17.47	2.0148	16.554	2
3072	30.72	0	0	0	0	0	0	0	0	0	0	0	0	0	0	0	0	0	0	0	0	0	0	0	0	0	0	0	0	0	0	0	0	0	0	0	0	0	0	0	0	0	0	0	0	0	0	0	0	0	-1	0	-2.0278	-17.891	16.968	0	0	0	0	0	0	0	0	0	2
3073	30.73	0	0	0	0	0	0	0	0	0	0	0	0	0	0	0	0	0	0	0	0	0	0	0	0	0	0	0	0	0	0	1	0	0	17.883	2.027	16.961	0	0	0	0	0	0	0	0	0	0	0	0	0	-1	0	-2.0278	-17.891	16.968	0	0	0	0	0	0	10.93	-10.93	18.931	2
3074	30.74	0	0	0	0	0	0	0	0	0	0	0	0	0	0	0	0	0	0	0	0	0	0	0	0	0	0	0	0	0	0	0	0	0	0	0	0	0	0	0	0	0	0	0	0	0	0	0	0	0	-1	0	-2.0278	-17.891	16.968	0	0	0	0	0	0	0	0	0	2
3075	30.75	0	0	0	0	0	0	0	0	0	0	0	0	0	-1	0	-2.0372	-17.821	16.895	0	0	0	0	0	0	0	0	0	0	0	0	0	0	0	0	0	0	0	0	0	0	0	0	10.996	-10.996	19.046	0	0	0	0	0	0	0	0	0	0	0	0	0	0	0	0	0	0	3
3076	30.76	0	0	0	0	0	0	0	0	0	0	0	0	0	0	0	0	0	0	0	0	0	0	0	0	0	0	0	0	0	0	0	0	0	0	0	0	0	0	0	0	0	0	10.996	-10.996	19.046	0	0	0	0	-1	0	-2.0278	-17.891	16.968	0	0	0	1	0	0	17.47	2.0148	16.554	2
3077	30.77	0	0	0	0	0	0	0	0	0	0	0	0	0	0	0	0	0	0	0	0	0	0	0	0	10.989	-10.989	19.033	0	0	0	0	-1	0	-2.0265	-17.879	16.957	0	0	0	0	0	0	0	0	0	0	0	0	0	0	0	0	0	0	0	0	0	0	0	0	0	0	0	2
3078	30.78	0	0	0	0	0	0	0	0	0	0	0	0	0	0	0	0	0	0	0	0	0	0	0	0	0	0	0	0	0	0	0	0	0	0	0	0	0	0	0	0	0	0	0	0	0	0	0	0	0	-1	0	-2.0278	-17.891	16.968	0	0	0	0	0	0	0	0	0	2
3079	30.79	0	0	0	0	0	0	0	0	0	0	0	0	0	0	0	0	0	0	0	0	0	0	0	0	0	0	0	0	0	0	0	0	0	0	0	0	0	0	0	0	0	0	10.996	-10.996	19.046	0	0	0	0	-1	0	-2.0278	-17.891	16.968	0	0	0	1	0	0	17.47	2.0148	16.554	2
3080	30.8	0	0	0	0	0	0	0	0	0	0	0	0	0	0	0	0	0	0	0	0	0	0	0	0	0	0	0	0	0	0	1	0	0	17.883	2.027	16.961	0	0	0	0	0	0	0	0	0	0	0	0	0	-1	0	-2.0278	-17.891	16.968	0	0	0	0	0	0	0	0	0	2
3081	30.81	0	0	0	0	0	0	0	0	0	0	0	0	0	0	0	0	0	0	0	0	0	0	0	0	0	0	0	0	0	0	1	0	0	17.883	2.027	16.961	0	0	0	0	0	0	10.996	-10.996	19.046	0	0	0	0	-1	0	-2.0278	-17.891	16.968	0	0	0	0	0	0	0	0	0	2
3082	30.82	0	0	0	0	0	0	0	0	0	0	0	0	0	0	0	0	0	0	0	0	0	0	0	0	0	0	0	0	0	0	0	0	0	0	0	0	0	0	0	0	0	0	0	0	0	0	0	0	0	-1	0	-2.0278	-17.891	16.968	0	0	0	0	0	0	0	0	0	2
3083	30.83	0	0	0	0	0	0	0	0	0	0	0	0	0	0	0	0	0	0	0	0	0	0	0	0	0	0	0	0	0	0	1	0	0	17.883	2.027	16.961	0	0	0	0	0	0	0	0	0	0	0	0	0	-1	0	-2.0278	-17.891	16.968	0	0	0	0	0	0	0	0	0	0
3084	30.84	0	0	0	0	0	0	0	0	0	0	0	0	0	0	0	0	0	0	0	0	0	0	0	0	0	0	0	0	0	0	0	0	0	0	0	0	0	0	0	0	0	0	10.996	-10.996	19.046	0	0	0	0	0	0	0	0	0	0	0	0	0	0	0	0	0	0	2
3085	30.85	0	0	0	0	0	0	0	0	0	0	0	0	0	0	0	0	0	0	0	0	0	0	0	0	0	0	0	0	0	0	0	0	0	0	0	0	0	0	0	0	0	0	10.996	-10.996	19.046	0	0	0	0	-1	0	-2.0278	-17.891	16.968	0	0	0	0	0	0	0	0	0	2
3086	30.86	0	0	0	0	0	0	0	0	0	0	0	0	0	0	0	0	0	0	0	0	0	0	0	0	0	0	0	0	0	0	1	0	0	17.883	2.027	16.961	0	0	0	0	0	0	0	0	0	0	0	0	0	-1	0	-2.0278	-17.891	16.968	0	0	0	0	0	0	0	0	0	2
3087	30.87	0	0	0	0	0	0	0	0	0	0	0	0	0	0	0	0	0	0	0	0	0	0	0	0	0	0	0	0	0	0	0	0	0	0	0	0	0	0	0	0	0	0	10.996	-10.996	19.046	0	0	0	0	0	0	0	0	0	0	0	0	0	0	0	0	0	0	2
3088	30.88	0	0	0	0	0	0	0	0	0	0	0	0	0	0	0	0	0	0	0	0	0	0	0	0	10.989	-10.989	19.033	0	0	0	0	0	0	0	0	0	0	0	0	0	0	0	0	0	0	0	0	0	0	-1	0	-2.0278	-17.891	16.968	0	0	0	1	0	0	17.47	2.0148	16.554	2
3089	30.89	0	0	0	0	0	0	0	0	0	0	0	0	0	0	0	0	0	0	0	0	0	0	0	0	0	0	0	0	0	0	1	0	0	17.883	2.027	16.961	0	0	0	0	-1	0	-2.0279	-17.891	16.969	0	0	0	0	0	0	0	0	0	0	0	0	0	0	0	0	0	0	2
3090	30.9	0	0	0	0	0	0	0	0	0	0	0	0	0	0	0	0	0	0	0	0	0	0	0	0	0	0	0	0	0	0	0	0	0	0	0	0	0	0	0	0	0	0	10.996	-10.996	19.046	0	0	0	0	0	0	0	0	0	0	0	0	0	0	0	0	0	0	2
3091	30.91	0	0	0	0	0	0	0	0	0	0	0	0	0	0	0	0	0	0	0	0	0	0	0	0	0	0	0	0	0	0	0	0	0	0	0	0	0	0	0	0	0	0	0	0	0	0	0	0	0	-1	0	-2.0278	-17.891	16.968	0	0	0	1	0	0	17.47	2.0148	16.554	2
3092	30.92	0	0	0	0	0	0	0	0	0	0	0	0	0	0	0	0	0	0	0	0	0	0	0	0	0	0	0	0	0	0	0	0	0	0	0	0	0	0	0	0	-1	0	-2.0279	-17.891	16.969	0	0	0	0	-1	0	-2.0278	-17.891	16.968	0	0	0	0	0	0	0	0	0	2
3093	30.93	0	0	0	0	0	0	0	0	0	0	0	0	0	0	0	0	0	0	0	0	0	0	0	0	0	0	0	0	0	0	0	0	0	0	0	0	0	0	0	0	0	0	10.996	-10.996	19.046	0	0	0	0	-1	0	-2.0278	-17.891	16.968	0	0	0	0	0	0	0	0	0	2
3094	30.94	0	0	0	0	0	0	0	0	0	0	0	0	0	0	0	0	0	0	0	0	0	0	0	0	10.989	-10.989	19.033	0	0	0	0	0	0	0	0	0	0	0	0	0	-1	0	-2.0279	-17.891	16.969	0	0	0	0	0	0	0	0	0	0	0	0	1	0	0	17.47	2.0148	16.554	2
3095	30.95	0	0	0	0	0	0	0	0	0	0	0	0	0	0	0	0	0	0	0	0	0	0	0	0	0	0	0	0	0	0	0	0	0	0	0	0	0	0	0	0	0	0	10.996	-10.996	19.046	0	0	0	0	-1	0	-2.0278	-17.891	16.968	0	0	0	0	0	0	0	0	0	2
3096	30.96	0	0	0	0	0	0	0	0	0	0	0	0	0	0	0	0	0	0	0	0	0	0	0	0	0	0	0	0	0	0	0	0	0	0	0	0	0	0	0	0	0	0	0	0	0	0	0	0	0	-1	0	-2.0278	-17.891	16.968	0	0	0	0	0	0	0	0	0	2
3097	30.97	0	0	0	0	0	0	0	0	0	0	0	0	0	0	0	0	0	0	0	0	0	0	0	0	0	0	0	0	0	0	0	0	0	0	0	0	0	0	0	0	-1	0	-2.1508	-17.769	16.797	0	0	0	0	-1	0	-2.0278	-17.891	16.968	0	0	0	0	0	0	0	0	0	2
3098	30.98	0	0	0	0	0	0	0	0	0	0	0	0	0	0	0	0	0	0	0	0	0	0	0	0	0	0	0	0	0	0	0	0	0	0	0	0	0	0	0	0	0	0	0	0	0	0	0	0	0	-1	0	-2.0278	-17.891	16.968	0	0	0	1	0	0	17.471	2.0135	16.556	0
3099	30.99	0	0	0	0	0	0	0	0	0	0	0	0	0	0	0	0	0	0	0	0	0	0	0	0	0	0	0	0	0	0	0	0	0	0	0	0	0	0	0	0	0	0	10.996	-10.996	19.046	0	0	0	0	-1	0	-2.0278	-17.891	16.968	0	0	0	0	0	0	0	0	0	2
3100	31	0	0	0	0	0	0	0	0	0	0	0	0	0	0	0	0	0	0	0	0	0	0	0	0	0	0	0	0	0	0	0	0	0	0	0	0	0	0	0	0	0	0	0	0	0	0	0	0	0	-1	0	-2.0278	-17.891	16.968	0	0	0	0	0	0	0	0	0	2
3101	31.01	0	0	0	0	0	0	10.917	-10.917	18.908	0	0	0	0	0	0	0	0	0	0	0	0	0	0	0	0	0	0	0	0	0	1	0	0	17.883	2.027	16.961	0	0	0	0	0	0	0	0	0	0	0	0	0	-1	0	-2.0278	-17.891	16.968	0	0	0	0	0	0	10.93	-10.93	18.931	2
3102	31.02	0	0	0	0	0	0	0	0	0	0	0	0	0	0	0	0	0	0	0	0	0	0	0	0	0	0	0	0	0	0	0	0	0	0	0	0	0	0	0	0	0	0	10.996	-10.996	19.046	0	0	0	0	-1	0	-2.0278	-17.891	16.968	0	0	0	0	0	0	0	0	0	2
3103	31.03	0	0	0	0	0	0	0	0	0	0	0	0	0	0	0	0	0	0	0	0	0	0	0	0	0	0	0	0	0	0	0	0	0	0	0	0	0	0	0	0	0	0	0	0	0	0	0	0	0	-1	0	-2.0278	-17.891	16.968	0	0	0	1	0	0	17.47	2.0148	16.554	2
3104	31.04	0	0	0	0	0	0	0	0	0	0	0	0	0	0	0	0	0	0	0	0	0	0	0	0	0	0	0	0	0	0	0	0	0	0	0	0	0	0	0	0	0	0	0	0	0	0	0	0	0	0	0	0	0	0	0	0	0	0	0	0	0	0	0	2
3105	31.05	0	0	0	0	0	0	0	0	0	0	0	0	0	0	0	0	0	0	0	0	0	0	0	0	0	0	0	0	0	0	0	0	0	0	0	0	0	0	0	0	0	0	0	0	0	0	0	0	0	-1	0	-2.0278	-17.891	16.968	0	0	0	0	0	0	0	0	0	0
3106	31.06	0	0	0	0	0	0	0	0	0	0	0	0	0	0	0	0	0	0	0	0	0	0	0	0	0	0	0	0	0	0	0	0	0	0	0	0	0	0	0	0	0	0	0	0	0	0	0	0	1	-1	0	7.5503	-27.469	31.921	0	0	0	0	0	0	0	0	0	2
3107	31.07	0	0	0	0	0	0	0	0	0	0	0	0	0	0	0	0	0	0	0	0	0	0	0	0	0	0	0	0	0	0	0	0	0	0	0	0	0	0	0	0	0	0	10.996	-10.996	19.046	0	0	0	0	-1	0	-2.0278	-17.891	16.968	0	0	0	0	0	0	0	0	0	2
3108	31.08	0	0	0	0	0	0	0	0	0	0	0	0	0	0	0	0	0	0	0	0	0	0	0	0	0	0	0	0	0	0	0	-1	0	-2.0265	-17.879	16.957	0	0	0	0	0	0	0	0	0	0	0	0	0	-1	0	-2.0278	-17.891	16.968	0	0	0	0	0	0	0	0	0	2
3109	31.09	0	0	0	0	0	0	0	0	0	0	0	0	0	0	0	0	0	0	0	0	0	0	0	0	0	0	0	0	0	0	1	0	0	17.883	2.027	16.961	0	0	0	0	0	0	0	0	0	0	0	0	0	-1	0	-2.0278	-17.891	16.968	0	0	0	0	0	0	0	0	0	2
3110	31.1	0	0	0	0	0	0	0	0	0	0	0	0	0	0	0	0	0	0	0	0	0	0	0	0	0	0	0	0	0	0	0	0	0	0	0	0	0	0	0	0	0	0	0	0	0	0	0	0	0	-1	0	-2.0278	-17.891	16.968	0	0	0	0	0	0	0	0	0	2
3111	31.11	0	0	0	0	0	0	0	0	0	0	0	0	0	0	0	0	0	0	0	0	0	0	0	0	0	0	0	0	0	0	1	0	0	17.883	2.027	16.961	0	0	0	0	0	0	0	0	0	0	0	0	0	0	0	0	0	0	0	0	0	0	0	0	0	0	0	2
3112	31.12	0	0	0	0	0	0	0	0	0	0	0	0	0	0	0	0	0	0	0	0	0	0	0	0	0	0	0	0	0	0	1	0	0	17.883	2.027	16.961	0	0	0	0	0	0	0	0	0	0	0	0	0	-1	0	-2.0278	-17.891	16.968	0	0	0	0	0	0	0	0	0	2
3113	31.13	0	0	0	0	0	0	0	0	0	0	0	0	0	0	0	0	0	0	0	0	0	0	0	0	0	0	0	0	0	0	0	0	0	0	0	0	0	0	0	0	0	0	0	0	0	0	0	0	0	0	0	0	0	0	0	0	0	1	0	0	17.47	2.0148	16.554	2
3114	31.14	0	0	0	0	0	0	0	0	0	0	0	0	0	0	0	0	0	0	0	0	0	0	0	0	0	0	0	0	0	0	0	0	0	0	0	0	0	0	0	0	0	0	10.996	-10.996	19.046	0	0	0	0	-1	0	-2.0278	-17.891	16.968	0	0	0	0	0	0	0	0	0	2
3115	31.15	0	0	0	0	0	0	0	0	0	0	0	0	0	0	0	0	0	0	0	0	0	0	0	0	0	0	0	0	0	0	1	0	0	17.883	2.027	16.961	0	0	0	0	0	0	0	0	0	0	0	0	0	-1	0	-2.0278	-17.891	16.968	0	0	0	0	0	0	0	0	0	0
3116	31.16	0	0	0	0	0	0	0	0	0	0	0	0	0	0	0	0	0	0	0	0	0	0	0	0	10.989	-10.989	19.033	0	0	0	1	0	0	17.883	2.027	16.961	0	0	0	0	0	0	0	0	0	0	0	0	0	-1	0	-2.0278	-17.891	16.968	0	0	0	1	0	0	17.47	2.0148	16.554	2
3117	31.17	0	0	0	0	0	0	10.917	-10.917	18.908	0	0	0	0	0	0	0	0	0	0	0	0	0	0	0	0	0	0	0	0	0	0	0	0	0	0	0	0	0	0	0	0	0	0	0	0	0	0	0	0	0	0	0	0	0	0	0	0	0	0	0	0	0	0	2
3118	31.18	0	0	0	0	0	0	0	0	0	0	0	0	0	0	0	0	0	0	0	0	0	0	0	0	0	0	0	0	0	0	0	0	0	0	0	0	0	0	0	0	0	0	0	0	0	0	0	0	0	-1	0	-2.0278	-17.891	16.968	0	0	0	1	0	0	17.471	2.0135	16.556	2
3119	31.19	0	0	0	0	0	0	0	0	0	0	0	0	0	0	0	0	0	0	0	0	0	0	0	0	10.989	-10.989	19.033	0	0	0	1	0	0	17.883	2.027	16.961	0	0	0	0	0	0	0	0	0	0	0	0	0	-1	0	-2.0278	-17.891	16.968	0	0	0	0	0	0	0	0	0	2
3120	31.2	0	0	0	0	0	0	10.917	-10.917	18.908	0	0	0	0	0	0	0	0	0	0	0	0	0	0	0	0	0	0	0	0	0	0	0	0	0	0	0	0	0	0	0	0	0	0	0	0	0	0	0	0	0	0	0	0	0	0	0	0	1	0	0	17.47	2.0148	16.554	2
3121	31.21	0	0	0	0	0	0	0	0	0	0	0	0	0	0	0	0	0	0	0	0	0	0	0	0	0	0	0	0	0	0	1	0	0	17.883	2.027	16.961	0	0	0	0	0	0	0	0	0	0	0	0	0	0	0	0	0	0	0	0	0	0	0	0	0	0	0	2
3122	31.22	0	0	0	0	0	0	0	0	0	0	0	0	0	0	0	0	0	0	0	0	0	0	0	0	0	0	0	0	0	0	0	0	0	0	0	0	0	0	0	0	0	0	10.996	-10.996	19.046	0	0	0	0	-1	0	-2.0278	-17.891	16.968	0	0	0	0	0	0	0	0	0	2
3123	31.23	0	0	0	0	0	0	0	0	0	0	0	0	0	0	0	0	0	0	0	0	0	0	0	0	0	0	0	0	0	0	1	0	0	17.883	2.027	16.961	0	0	0	0	0	0	0	0	0	0	0	0	0	-1	0	-2.0278	-17.891	16.968	0	0	0	1	0	0	17.47	2.0148	16.554	2
3124	31.24	0	0	0	0	0	0	0	0	0	0	0	0	0	0	0	0	0	0	0	0	0	0	0	0	0	0	0	0	0	0	0	0	0	0	0	0	0	0	0	0	0	0	10.996	-10.996	19.046	0	0	0	0	-1	0	-2.0278	-17.891	16.968	0	0	0	0	0	0	0	0	0	2
3125	31.25	0	0	0	0	0	0	0	0	0	0	0	0	0	0	0	0	0	0	0	0	0	0	0	0	0	0	0	0	0	0	1	0	0	17.883	2.027	16.961	0	0	0	0	0	0	0	0	0	0	0	0	0	-1	0	-2.0278	-17.891	16.968	0	0	0	0	0	0	0	0	0	2
3126	31.26	0	0	0	0	0	0	0	0	0	0	0	0	0	0	0	0	0	0	0	0	0	0	0	0	10.989	-10.989	19.033	0	0	0	1	0	0	17.883	2.027	16.961	0	0	0	0	0	0	0	0	0	0	0	0	0	-1	0	-2.0278	-17.891	16.968	0	0	0	1	0	0	17.47	2.0148	16.554	2
3127	31.27	0	0	0	0	0	0	0	0	0	0	0	0	0	0	0	0	0	0	0	0	0	0	0	0	0	0	0	0	0	0	0	0	0	0	0	0	0	0	0	0	0	0	10.996	-10.996	19.046	0	0	0	0	-1	0	-2.0278	-17.891	16.968	0	0	0	0	0	0	0	0	0	2
3128	31.28	0	0	0	0	0	0	0	0	0	0	0	0	0	0	0	0	0	0	0	0	0	0	0	0	0	0	0	0	0	0	0	0	0	0	0	0	0	0	0	0	0	0	0	0	0	0	0	0	0	-1	0	-2.0278	-17.891	16.968	0	0	0	0	0	0	0	0	0	2
3129	31.29	0	0	0	0	0	0	0	0	0	0	0	0	0	0	0	0	0	0	0	0	0	0	0	0	0	0	0	0	0	0	0	0	0	0	0	0	0	0	0	0	0	0	0	0	0	0	0	0	0	0	0	0	0	0	0	0	0	0	0	0	0	0	0	2
3130	31.3	0	0	0	0	0	0	0	0	0	0	0	0	0	0	0	0	0	0	0	0	0	0	0	0	0	0	0	0	0	0	1	0	0	17.883	2.027	16.961	0	0	0	0	0	0	10.996	-10.996	19.046	0	0	0	0	0	0	0	0	0	0	0	0	0	0	0	0	0	0	2
3131	31.31	0	0	0	0	0	0	0	0	0	0	0	0	0	0	0	0	0	0	0	0	0	0	0	0	0	0	0	0	0	0	0	0	0	0	0	0	0	0	0	0	0	0	10.996	-10.996	19.046	0	0	0	0	0	0	0	0	0	0	0	0	0	0	0	0	0	0	2
3132	31.32	0	0	0	0	0	0	0	0	0	0	0	0	0	0	0	0	0	0	0	0	0	0	0	0	0	0	0	0	0	0	0	0	0	0	0	0	0	0	0	0	0	0	10.996	-10.996	19.046	0	0	0	0	0	0	0	0	0	0	0	0	0	0	0	0	0	0	2
3133	31.33	0	0	0	0	0	0	0	0	0	0	0	0	0	0	0	0	0	0	0	0	0	0	0	0	0	0	0	0	0	0	0	0	0	0	0	0	0	0	0	0	0	0	10.996	-10.996	19.046	0	0	0	0	0	0	0	0	0	0	0	0	0	0	0	0	0	0	2
3134	31.34	0	0	0	0	0	0	0	0	0	0	0	0	0	0	0	0	0	0	0	0	0	0	0	0	0	0	0	0	0	0	0	0	0	0	0	0	0	0	0	0	0	0	0	0	0	0	0	0	0	-1	0	-2.0278	-17.891	16.968	0	0	0	0	0	0	0	0	0	2
3135	31.35	0	0	0	0	0	0	0	0	0	0	0	0	0	0	0	0	0	0	0	0	0	0	0	0	0	0	0	0	0	0	0	0	0	0	0	0	0	0	0	0	-1	0	-2.1508	-17.769	16.797	0	0	0	0	-1	0	-2.0278	-17.891	16.968	0	0	0	0	0	0	0	0	0	2
3136	31.36	0	0	0	0	0	0	0	0	0	0	0	0	0	0	0	0	0	0	0	0	0	0	0	0	0	0	0	0	0	0	1	0	0	17.883	2.027	16.961	0	0	0	0	0	0	0	0	0	0	0	0	0	0	0	0	0	0	0	0	0	0	0	0	0	0	0	0
3137	31.37	0	0	0	0	0	0	0	0	0	0	0	0	0	0	0	0	0	0	0	0	0	0	-1	0	-2.0266	-17.88	16.957	0	0	0	0	0	0	0	0	0	0	0	0	0	-1	0	-2.1508	-17.769	16.797	0	0	0	0	-1	0	-2.0278	-17.891	16.968	0	0	0	0	0	0	0	0	0	2
3138	31.38	0	0	0	0	0	0	0	0	0	0	0	0	0	0	0	0	0	0	0	0	0	0	0	0	0	0	0	0	0	0	0	0	0	0	0	0	0	0	0	0	0	0	10.996	-10.996	19.046	0	0	0	0	0	0	0	0	0	0	0	0	0	0	0	10.93	-10.93	18.931	2
3139	31.39	0	0	0	0	0	0	0	0	0	0	0	0	0	0	0	0	0	0	0	0	0	0	0	0	0	0	0	0	0	0	1	0	0	17.883	2.027	16.961	0	0	0	0	0	0	0	0	0	0	0	0	0	-1	0	-2.0278	-17.891	16.968	0	0	0	0	0	0	0	0	0	2
3140	31.4	0	0	0	0	0	0	0	0	0	0	0	0	0	0	0	0	0	0	0	0	0	0	0	0	0	0	0	0	0	0	1	0	0	17.883	2.027	16.961	0	0	0	0	0	0	0	0	0	0	0	0	0	-1	0	-2.0278	-17.891	16.968	0	0	0	0	0	0	0	0	0	2
3141	31.41	0	0	0	0	0	0	0	0	0	0	0	0	0	0	0	0	0	0	0	0	0	0	0	0	0	0	0	0	0	0	0	0	0	0	0	0	0	0	0	0	-1	0	-2.0279	-17.891	16.969	0	0	0	0	0	0	0	0	0	0	0	0	0	0	0	0	0	0	2
3142	31.42	0	0	0	0	0	0	0	0	0	0	0	0	0	0	0	0	0	0	0	0	0	0	0	0	0	0	0	0	0	0	1	0	0	17.883	2.027	16.961	0	0	0	0	-1	0	-2.0279	-17.891	16.969	0	0	0	0	-1	0	-2.0278	-17.891	16.968	0	0	0	0	0	0	0	0	0	2
3143	31.43	0	0	0	0	0	0	0	0	0	0	0	0	0	0	0	0	0	0	0	0	0	0	0	0	0	0	0	0	0	0	0	0	0	0	0	0	0	0	0	0	0	0	10.996	-10.996	19.046	0	0	0	0	-1	0	-2.0278	-17.891	16.968	0	0	0	1	0	0	17.47	2.0148	16.554	2
3144	31.44	0	0	0	0	0	0	0	0	0	0	0	0	0	0	0	0	0	0	0	0	0	0	0	0	10.989	-10.989	19.033	0	0	0	1	0	0	17.883	2.027	16.961	0	0	0	0	-1	0	-2.0279	-17.891	16.969	0	0	0	0	0	0	0	0	0	0	0	0	0	0	0	0	0	0	2
3145	31.45	0	0	0	0	0	0	0	0	0	0	0	0	0	0	0	0	0	0	0	0	0	0	0	0	0	0	0	0	0	0	1	0	0	17.883	2.027	16.961	0	0	0	0	0	0	0	0	0	0	0	0	0	-1	0	-2.0278	-17.891	16.968	0	0	0	0	0	0	0	0	0	2
3146	31.46	0	0	0	0	0	0	0	0	0	0	0	0	0	0	0	0	0	0	0	0	0	0	0	0	0	0	0	0	0	0	0	0	0	0	0	0	0	0	0	0	-1	0	-2.0279	-17.891	16.969	0	0	0	0	-1	0	-2.0278	-17.891	16.968	0	0	0	1	0	0	17.47	2.0148	16.554	2
3147	31.47	0	0	0	0	0	0	0	0	0	0	0	0	0	0	0	0	0	0	0	0	0	0	0	0	0	0	0	0	0	0	0	0	0	0	0	0	0	0	0	0	0	0	10.996	-10.996	19.046	0	0	0	0	-1	0	-2.0278	-17.891	16.968	0	0	0	0	0	0	0	0	0	2
3148	31.48	0	0	0	0	0	0	0	0	0	0	0	0	0	0	0	0	0	0	0	0	0	0	0	0	0	0	0	0	0	0	1	0	0	17.883	2.027	16.961	0	0	0	0	0	0	0	0	0	0	0	0	0	0	0	0	0	0	0	0	0	0	0	0	0	0	0	2
3149	31.49	0	0	0	0	0	0	0	0	0	0	0	0	0	0	0	0	0	0	0	0	0	0	0	0	0	0	0	0	0	0	0	0	0	0	0	0	0	0	0	0	0	0	0	0	0	0	0	0	0	-1	0	-2.0278	-17.891	16.968	0	0	0	0	0	0	10.93	-10.93	18.931	2
3150	31.5	0	0	0	0	0	0	0	0	0	0	0	0	0	0	0	0	0	0	0	0	0	0	0	0	0	0	0	0	0	0	0	0	0	0	0	0	0	0	0	0	0	0	0	0	0	0	0	0	0	0	0	0	0	0	0	0	0	0	0	0	0	0	0	2
3151	31.51	0	0	0	0	0	0	0	0	0	0	0	0	0	0	0	0	0	0	0	0	0	0	0	0	0	0	0	0	0	0	0	0	0	0	0	0	0	0	0	0	0	0	10.996	-10.996	19.046	0	0	0	0	-1	0	-2.0278	-17.891	16.968	0	0	0	0	0	0	10.93	-10.93	18.931	2
3152	31.52	0	0	0	0	0	0	0	0	0	0	0	0	0	0	0	0	0	0	0	0	0	0	0	0	0	0	0	0	0	0	0	0	0	0	0	0	0	0	0	0	0	0	10.996	-10.996	19.046	0	0	0	0	-1	0	-2.0278	-17.891	16.968	0	0	0	0	0	0	0	0	0	2
3153	31.53	0	0	0	0	0	0	0	0	0	0	0	0	0	0	0	0	0	0	0	0	0	0	0	0	0	0	0	0	0	0	0	0	0	10.991	-10.991	19.037	0	0	0	0	-1	0	-2.0279	-17.891	16.969	0	0	0	0	-1	0	-2.0278	-17.891	16.968	0	0	0	0	0	0	10.93	-10.93	18.931	2
3154	31.54	0	0	0	0	0	0	0	0	0	0	0	0	0	0	0	0	0	0	0	0	0	0	0	0	0	0	0	0	0	0	0	0	0	0	0	0	0	0	0	0	0	0	0	0	0	0	0	0	0	-1	0	-2.0278	-17.891	16.968	0	0	0	1	0	0	17.47	2.0148	16.554	2
3155	31.55	0	0	0	0	0	0	0	0	0	0	0	0	0	0	0	0	0	0	0	0	0	0	0	0	0	0	0	0	0	0	0	0	0	0	0	0	0	0	0	0	-1	0	-2.0279	-17.891	16.969	0	0	0	0	-1	0	-2.0278	-17.891	16.968	0	0	0	0	0	0	0	0	0	2
3156	31.56	0	0	0	0	0	0	0	0	0	0	0	0	0	0	0	0	0	0	0	0	0	0	0	0	0	0	0	0	0	0	0	0	0	0	0	0	0	0	0	0	0	0	0	0	0	0	0	0	0	0	0	0	0	0	0	0	0	0	0	0	0	0	0	2
3157	31.57	0	0	0	0	0	0	0	0	0	0	0	0	0	0	0	0	0	0	0	0	0	0	0	0	0	0	0	0	0	0	0	0	0	0	0	0	0	0	0	0	0	0	10.996	-10.996	19.046	0	0	0	0	0	0	0	0	0	0	0	0	0	0	0	0	0	0	2
3158	31.58	0	0	0	0	0	0	0	0	0	0	0	0	0	0	0	0	0	0	0	0	0	0	0	0	0	0	0	0	0	0	1	0	0	17.883	2.027	16.961	0	0	0	0	0	0	0	0	0	0	0	0	0	0	0	0	0	0	0	0	0	1	0	0	17.47	2.0148	16.554	2
3159	31.59	0	0	0	0	0	0	0	0	0	0	0	0	0	0	0	0	0	0	0	0	0	0	0	0	0	0	0	0	0	0	0	0	0	0	0	0	0	0	0	0	-1	0	-2.0279	-17.891	16.969	0	0	0	0	0	0	0	0	0	0	0	0	0	0	0	0	0	0	2
3160	31.6	0	0	0	0	0	0	0	0	0	0	0	0	0	0	0	0	0	0	0	0	0	0	0	0	0	0	0	0	0	0	0	0	0	10.991	-10.991	19.037	0	0	0	0	0	0	0	0	0	0	0	0	0	-1	0	-2.0278	-17.891	16.968	0	0	0	0	0	0	0	0	0	2
3161	31.61	0	0	0	0	0	0	0	0	0	0	0	0	0	0	0	0	0	0	0	0	0	0	0	0	10.989	-10.989	19.033	0	0	0	0	0	0	0	0	0	0	0	0	0	0	0	0	0	0	0	0	0	0	-1	0	-2.0278	-17.891	16.968	0	0	0	0	0	0	0	0	0	2
3162	31.62	0	0	0	0	0	0	0	0	0	0	0	0	0	0	0	0	0	0	0	0	0	0	0	0	0	0	0	0	0	0	0	0	0	0	0	0	0	0	0	0	-1	0	-2.0279	-17.891	16.969	0	0	0	0	0	0	0	0	0	0	0	0	0	0	0	0	0	0	2
3163	31.63	0	0	0	0	0	0	0	0	0	0	0	0	0	0	0	0	0	0	0	0	0	0	0	0	0	0	0	0	0	0	1	0	0	17.883	2.027	16.961	0	0	0	0	0	0	0	0	0	0	0	0	0	0	0	10.994	-10.994	19.042	0	0	0	1	0	0	17.482	2.0162	16.566	2
3164	31.64	0	0	0	0	0	0	10.917	-10.917	18.908	0	0	0	0	0	0	0	0	0	0	0	0	0	0	0	0	0	0	0	0	0	0	0	0	0	0	0	0	0	0	0	0	0	0	0	0	0	0	0	0	-1	0	-2.0278	-17.891	16.968	0	0	0	0	0	0	0	0	0	2
3165	31.65	0	0	0	0	0	0	0	0	0	0	0	0	0	0	0	0	0	0	0	0	0	0	0	0	0	0	0	0	0	0	0	0	0	0	0	0	0	0	0	0	-1	0	-2.0279	-17.891	16.969	0	0	0	0	0	0	0	0	0	0	0	0	0	0	0	0	0	0	2
3166	31.66	0	0	0	0	0	0	0	0	0	0	0	0	0	0	0	0	0	0	0	0	0	0	0	0	10.989	-10.989	19.033	0	0	0	0	0	0	0	0	0	0	0	0	0	0	0	0	0	0	0	0	0	0	0	0	0	0	0	0	0	0	0	0	0	0	0	0	2
3167	31.67	0	0	0	0	0	0	0	0	0	0	0	0	0	0	0	0	0	0	0	0	0	0	0	0	0	0	0	0	0	0	0	0	0	0	0	0	0	0	0	0	0	0	0	0	0	0	0	0	0	-1	0	-2.0278	-17.891	16.968	0	0	0	0	0	0	0	0	0	2
3168	31.68	0	0	0	0	0	0	0	0	0	0	0	0	0	0	0	0	0	0	0	0	0	0	0	0	0	0	0	0	0	0	0	0	0	0	0	0	0	0	0	0	0	0	0	0	0	0	0	0	0	0	0	0	0	0	0	0	0	0	0	0	0	0	0	2
3169	31.69	0	0	0	0	0	0	10.917	-10.917	18.908	0	0	0	0	0	0	0	0	0	0	0	0	0	0	0	0	0	0	0	0	0	0	0	0	0	0	0	0	0	0	0	0	0	0	0	0	0	0	0	0	-1	0	-2.0278	-17.891	16.968	0	0	0	0	0	0	0	0	0	0
3170	31.7	0	0	0	0	0	0	0	0	0	0	0	0	0	0	0	0	0	0	0	0	0	0	0	0	0	0	0	0	0	0	0	0	0	0	0	0	0	0	0	0	-1	0	-2.0279	-17.891	16.969	0	0	0	0	-1	0	-2.0278	-17.891	16.968	0	0	0	0	0	0	0	0	0	2
3171	31.71	0	0	0	0	0	0	0	0	0	0	0	0	0	0	0	0	0	0	0	0	0	0	0	0	10.989	-10.989	19.033	0	0	0	1	0	0	17.883	2.027	16.961	0	0	0	0	0	0	0	0	0	0	0	0	0	-1	0	-2.0278	-17.891	16.968	0	0	0	0	0	0	0	0	0	2
3172	31.72	0	0	0	0	0	0	0	0	0	0	0	0	0	0	0	0	0	0	0	0	0	0	0	0	0	0	0	0	0	0	0	0	0	0	0	0	0	0	0	0	-1	0	-2.0279	-17.891	16.969	0	0	0	0	0	0	0	0	0	0	0	0	0	0	0	0	0	0	2
3173	31.73	0	0	0	0	0	0	0	0	0	0	0	0	0	0	0	0	0	0	0	0	0	0	0	0	0	0	0	0	0	0	0	0	0	0	0	0	0	0	0	0	0	0	0	0	0	0	0	0	0	-1	0	-2.0278	-17.891	16.968	0	0	0	1	0	0	17.47	2.0148	16.554	2
3174	31.74	0	0	0	0	0	0	0	0	0	0	0	0	0	0	0	0	0	0	0	0	0	0	0	0	0	0	0	0	0	0	0	0	0	0	0	0	0	0	0	0	0	0	0	0	0	0	0	0	0	-1	0	-2.0278	-17.891	16.968	0	0	0	0	0	0	0	0	0	2
3175	31.75	0	0	0	0	0	0	0	0	0	0	0	0	0	0	0	0	0	0	0	0	0	0	0	0	0	0	0	0	0	0	0	0	0	0	0	0	0	0	0	0	0	0	0	0	0	0	0	0	0	-1	0	-2.0278	-17.891	16.968	0	0	0	0	0	0	0	0	0	2
3176	31.76	0	0	0	0	0	0	0	0	0	0	0	0	0	0	0	0	0	0	0	0	0	0	0	0	0	0	0	0	0	0	1	0	0	17.883	2.027	16.961	0	0	0	0	0	0	0	0	0	0	0	0	0	-1	0	-2.0278	-17.891	16.968	0	0	0	0	0	0	0	0	0	0
3177	31.77	0	0	0	0	0	0	0	0	0	0	0	0	0	0	0	0	0	0	0	0	0	0	0	0	10.989	-10.989	19.033	0	0	0	0	0	0	0	0	0	0	0	0	0	-1	0	-2.0279	-17.891	16.969	0	0	0	0	-1	0	-2.0278	-17.891	16.968	0	0	0	0	0	0	0	0	0	2
3178	31.78	0	0	0	0	0	0	0	0	0	0	0	0	0	0	0	0	0	0	0	0	0	0	0	0	0	0	0	0	0	0	0	0	0	0	0	0	0	0	0	0	0	0	0	0	0	0	0	0	0	-1	0	-2.0278	-17.891	16.968	0	0	0	0	0	0	0	0	0	2
3179	31.79	0	0	0	0	0	0	0	0	0	0	0	0	0	0	0	0	0	0	0	0	0	0	0	0	0	0	0	0	0	0	0	0	0	0	0	0	0	0	0	0	-1	0	-2.0279	-17.891	16.969	0	0	0	0	-1	0	-2.0278	-17.891	16.968	0	0	0	0	0	0	0	0	0	2
3180	31.8	0	0	0	0	0	0	0	0	0	0	0	0	0	0	0	0	0	0	0	0	0	0	0	0	0	0	0	0	0	0	0	0	0	0	0	0	0	0	0	0	0	0	0	0	0	0	0	0	0	-1	0	-2.0278	-17.891	16.968	0	0	0	0	0	0	0	0	0	2
3181	31.81	0	0	0	0	0	0	0	0	0	0	0	0	0	0	0	0	0	0	0	0	0	0	0	0	0	0	0	0	0	0	1	0	0	17.883	2.027	16.961	0	0	0	0	-1	0	-2.0279	-17.891	16.969	0	0	0	0	0	0	0	0	0	0	0	0	0	0	0	0	0	0	2
3182	31.82	0	0	0	0	0	0	0	0	0	0	0	0	0	0	0	0	0	0	0	0	0	0	0	0	0	0	0	0	0	0	0	0	0	0	0	0	0	0	0	0	0	0	0	0	0	0	0	0	0	-1	0	-2.0278	-17.891	16.968	0	0	0	0	0	0	0	0	0	2
3183	31.83	0	0	0	0	0	0	0	0	0	0	0	0	0	0	0	0	0	0	0	0	0	0	0	0	10.989	-10.989	19.033	0	0	0	1	0	0	17.883	2.027	16.961	0	0	0	0	0	0	0	0	0	0	0	0	0	-1	0	-2.0278	-17.891	16.968	0	0	0	0	0	0	0	0	0	2
3184	31.84	0	0	0	0	0	0	0	0	0	0	0	0	0	0	0	0	0	0	0	0	0	0	0	0	0	0	0	0	0	0	0	0	0	0	0	0	0	0	0	0	-1	0	-2.1508	-17.769	16.797	0	0	0	0	0	0	0	0	0	0	0	0	0	0	0	0	0	0	2
3185	31.85	0	0	0	0	0	0	0	0	0	0	0	0	0	0	0	0	0	0	0	0	0	0	0	0	0	0	0	0	0	0	1	0	0	17.883	2.027	16.961	0	0	0	0	0	0	0	0	0	0	0	0	0	0	0	0	0	0	0	0	0	0	0	0	0	0	0	2
3186	31.86	0	0	0	0	0	0	0	0	0	0	0	0	0	0	0	0	0	0	0	0	0	0	0	0	0	0	0	0	0	0	1	0	0	17.883	2.027	16.961	0	0	0	0	0	0	0	0	0	0	0	0	0	-1	0	-2.0278	-17.891	16.968	0	0	0	0	0	0	0	0	0	2
3187	31.87	0	0	0	0	0	0	0	0	0	0	0	0	0	0	0	0	0	0	0	0	0	0	0	0	0	0	0	0	0	0	0	0	0	0	0	0	0	0	0	0	-1	0	-2.0279	-17.891	16.969	0	0	0	0	-1	0	-2.0278	-17.891	16.968	0	0	0	0	0	0	0	0	0	2
3188	31.88	0	0	0	0	0	0	0	0	0	0	0	0	0	0	0	0	0	0	0	0	0	0	0	0	0	0	0	0	0	0	1	0	0	17.883	2.027	16.961	0	0	0	0	-1	0	-2.1508	-17.769	16.797	0	0	0	0	-1	0	-2.0278	-17.891	16.968	0	0	0	0	0	0	10.93	-10.93	18.931	2
3189	31.89	0	0	0	0	0	0	0	0	0	0	0	0	0	0	0	0	0	0	0	0	0	0	0	0	0	0	0	0	0	0	0	0	0	0	0	0	0	0	0	0	0	0	10.996	-10.996	19.046	0	0	0	0	0	0	0	0	0	0	0	0	0	0	0	0	0	0	2
3190	31.9	0	0	0	0	0	0	0	0	0	0	0	0	0	0	0	0	0	0	0	0	0	0	0	0	0	0	0	0	0	0	1	0	0	17.883	2.027	16.961	0	0	0	0	-1	0	-2.0279	-17.891	16.969	0	0	0	0	0	0	0	0	0	0	0	0	0	0	0	0	0	0	2
3191	31.91	0	0	0	0	0	0	0	0	0	0	0	0	0	0	0	0	0	0	0	0	0	0	0	0	10.989	-10.989	19.033	0	0	0	0	0	0	0	0	0	0	0	0	0	0	0	0	0	0	0	0	0	0	-1	0	-2.0278	-17.891	16.968	0	0	0	1	0	0	17.47	2.0148	16.554	2
3192	31.92	0	0	0	0	0	0	0	0	0	0	0	0	0	0	0	0	0	0	0	0	0	0	0	0	0	0	0	0	0	0	0	0	0	0	0	0	0	0	0	0	-1	0	-2.0279	-17.891	16.969	0	0	0	0	-1	0	-2.0278	-17.891	16.968	0	0	0	0	0	0	0	0	0	2
3193	31.93	0	0	0	0	0	0	0	0	0	0	0	0	0	0	0	0	0	0	0	0	0	0	0	0	0	0	0	0	0	0	1	0	0	17.761	2.1499	16.789	0	0	0	0	0	0	0	0	0	0	0	0	0	0	0	0	0	0	0	0	0	0	0	0	0	0	0	2
3194	31.94	0	0	0	0	0	0	0	0	0	0	0	0	0	0	0	0	0	0	0	0	0	0	0	0	0	0	0	0	0	0	1	0	0	17.883	2.027	16.961	0	0	0	0	0	0	0	0	0	0	0	0	0	-1	0	-2.0278	-17.891	16.968	0	0	0	0	0	0	0	0	0	2
3195	31.95	0	0	0	0	0	0	0	0	0	0	0	0	0	0	0	0	0	0	0	0	0	0	0	0	0	0	0	0	0	0	0	0	0	0	0	0	0	0	0	0	0	0	0	0	0	0	0	0	0	-1	0	-2.0278	-17.891	16.968	0	0	0	0	0	0	0	0	0	2
3196	31.96	0	0	0	0	0	0	10.917	-10.917	18.908	0	0	0	0	0	0	0	0	0	0	0	0	0	0	0	0	0	0	0	0	0	0	0	0	0	0	0	0	0	0	0	0	0	0	0	0	0	0	0	0	0	0	0	0	0	0	0	0	0	0	0	0	0	0	2
3197	31.97	0	0	0	0	0	0	0	0	0	0	0	0	0	0	0	0	0	0	0	0	0	0	0	0	0	0	0	0	0	0	1	0	0	17.883	2.027	16.961	0	0	0	0	-1	0	-2.1508	-17.769	16.797	0	0	0	0	-1	0	-2.0278	-17.891	16.968	0	0	0	0	0	0	0	0	0	2
3198	31.98	0	0	0	0	0	0	0	0	0	0	0	0	0	0	0	0	0	0	0	0	0	0	0	0	10.989	-10.989	19.033	0	0	0	0	0	0	0	0	0	0	0	0	0	0	0	0	0	0	0	0	0	0	-1	0	-2.0278	-17.891	16.968	0	0	0	0	0	0	0	0	0	2
3199	31.99	0	0	0	0	0	0	0	0	0	0	0	0	0	0	0	0	0	0	0	0	0	0	0	0	0	0	0	0	0	0	0	0	0	10.991	-10.991	19.037	0	0	0	0	0	0	10.996	-10.996	19.046	0	0	0	0	-1	0	-2.0278	-17.891	16.968	0	0	0	0	0	0	0	0	0	2
3200	32	0	0	0	0	0	0	0	0	0	0	0	0	0	0	0	0	0	0	0	0	0	0	0	0	0	0	0	0	0	0	0	0	0	0	0	0	0	0	0	0	0	0	10.996	-10.996	19.046	0	0	0	0	-1	0	-2.0278	-17.891	16.968	0	0	0	0	0	0	0	0	0	2
3201	32.01	0	0	0	0	0	0	0	0	0	0	0	0	0	0	0	0	0	0	0	0	0	0	0	0	0	0	0	0	0	0	1	0	0	17.883	2.027	16.961	0	0	0	0	0	0	0	0	0	0	0	0	0	-1	0	-2.0278	-17.891	16.968	0	0	0	0	0	0	0	0	0	2
3202	32.02	0	0	0	0	0	0	0	0	0	0	0	0	0	0	0	0	0	0	0	0	0	0	0	0	0	0	0	0	0	0	1	0	0	17.883	2.027	16.961	0	0	0	0	-1	0	-2.0279	-17.891	16.969	0	0	0	0	-1	0	-2.0278	-17.891	16.968	0	0	0	0	0	0	0	0	0	2
3203	32.03	0	0	0	0	0	0	0	0	0	0	0	0	0	0	0	0	0	0	0	0	0	0	0	0	0	0	0	0	0	0	1	0	0	17.883	2.027	16.961	0	0	0	0	0	0	0	0	0	0	0	0	0	0	0	0	0	0	0	0	0	0	0	0	0	0	0	2
3204	32.04	0	0	0	0	0	0	0	0	0	0	0	0	0	0	0	0	0	0	0	0	0	0	0	0	10.989	-10.989	19.033	0	0	0	1	0	0	17.883	2.027	16.961	0	0	0	0	0	0	0	0	0	0	0	0	0	-1	0	-2.0278	-17.891	16.968	0	0	0	1	0	0	17.47	2.0148	16.554	2
3205	32.05	0	0	0	0	0	0	0	0	0	0	0	0	0	0	0	0	0	0	0	0	0	0	0	0	0	0	0	0	0	0	1	0	0	17.883	2.027	16.961	0	0	0	0	-1	0	-2.0279	-17.891	16.969	0	0	0	0	0	0	0	0	0	0	0	0	0	0	0	0	0	0	0
3206	32.06	0	0	0	0	0	0	0	0	0	0	0	0	0	0	0	0	0	0	0	0	0	0	0	0	10.989	-10.989	19.033	0	0	0	1	0	0	17.883	2.027	16.961	0	0	0	0	0	0	0	0	0	0	0	0	0	-1	0	-2.0278	-17.891	16.968	0	0	0	1	0	0	17.47	2.0148	16.554	2
3207	32.07	0	0	0	0	0	0	0	0	0	0	0	0	0	0	0	0	0	0	0	0	0	0	0	0	0	0	0	0	0	0	0	0	0	0	0	0	0	0	0	0	0	0	10.996	-10.996	19.046	0	0	0	0	-1	0	-2.0278	-17.891	16.968	0	0	0	0	0	0	0	0	0	2
3208	32.08	0	0	0	0	0	0	10.917	-10.917	18.908	0	0	0	0	0	0	0	0	0	0	0	0	0	0	0	0	0	0	0	0	0	0	0	0	0	0	0	0	0	0	0	0	0	0	0	0	0	0	0	0	-1	0	-2.0278	-17.891	16.968	0	0	0	0	0	0	0	0	0	2
3209	32.09	0	0	0	0	0	0	0	0	0	0	0	0	0	0	0	0	0	0	0	0	0	0	0	0	0	0	0	0	0	0	0	0	0	0	0	0	0	0	0	0	0	0	0	0	0	0	0	0	0	0	0	0	0	0	0	0	0	0	0	0	0	0	0	2
3210	32.1	0	0	0	0	0	0	0	0	0	0	0	0	0	0	0	0	0	0	0	0	0	0	0	0	0	0	0	0	0	0	0	-1	0	-2.0265	-17.879	16.957	0	0	0	0	-1	0	-2.1508	-17.769	16.797	0	0	0	0	-1	0	-2.0278	-17.891	16.968	0	0	0	0	0	0	0	0	0	2
3211	32.11	0	0	0	0	0	0	0	0	0	0	0	0	0	0	0	0	0	0	0	0	0	0	0	0	0	0	0	0	0	0	1	0	0	17.883	2.027	16.961	0	0	0	0	0	0	0	0	0	0	0	0	0	-1	0	-2.0278	-17.891	16.968	0	0	0	0	0	0	0	0	0	2
3212	32.12	0	0	0	0	0	0	0	0	0	0	0	0	0	0	0	0	0	0	0	0	0	0	0	0	0	0	0	0	0	0	0	0	0	0	0	0	0	0	0	0	-1	0	-2.1508	-17.769	16.797	0	0	0	0	-1	0	-2.0278	-17.891	16.968	0	0	0	0	0	0	0	0	0	2
3213	32.13	0	0	0	0	0	0	0	0	0	0	0	0	0	0	0	0	0	0	0	0	0	0	0	0	0	0	0	0	0	0	1	0	0	17.883	2.027	16.961	0	0	0	0	0	0	0	0	0	0	0	0	0	-1	0	-2.0278	-17.891	16.968	0	0	0	1	0	0	17.471	2.0135	16.556	2
3214	32.14	0	0	0	0	0	0	0	0	0	0	0	0	0	0	0	0	0	0	0	0	0	0	0	0	0	0	0	0	0	0	0	0	0	0	0	0	0	0	0	0	-1	0	-2.0279	-17.891	16.969	0	0	0	0	-1	0	-2.0278	-17.891	16.968	0	0	0	0	0	0	0	0	0	2
3215	32.15	0	0	0	0	0	0	0	0	0	0	0	0	0	0	0	0	0	0	0	0	0	0	0	0	0	0	0	0	0	0	0	0	0	0	0	0	0	0	0	0	0	0	0	0	0	0	0	0	0	0	0	0	0	0	0	0	0	0	0	0	0	0	0	2
3216	32.16	0	0	0	0	0	0	0	0	0	0	0	0	0	0	0	0	0	0	0	0	0	0	0	0	10.989	-10.989	19.033	0	0	0	1	0	0	17.883	2.027	16.961	0	0	0	0	0	0	0	0	0	0	0	0	0	0	0	0	0	0	0	0	0	0	0	0	0	0	0	2
3217	32.17	0	0	0	0	0	0	0	0	0	0	0	0	0	0	0	0	0	0	0	0	0	0	0	0	0	0	0	0	0	0	1	0	0	17.883	2.027	16.961	0	0	0	0	0	0	0	0	0	0	0	0	0	-1	0	-2.0278	-17.891	16.968	0	0	0	0	0	0	0	0	0	2
3218	32.18	0	0	0	0	0	0	0	0	0	0	0	0	0	0	0	0	0	0	0	0	0	0	0	0	10.989	-10.989	19.033	0	0	0	0	0	0	0	0	0	0	0	0	0	0	0	0	0	0	0	0	0	0	-1	0	-2.0278	-17.891	16.968	0	0	0	1	0	0	17.471	2.0135	16.556	2
3219	32.19	0	0	0	0	0	0	0	0	0	0	0	0	0	0	0	0	0	0	0	0	0	0	0	0	0	0	0	0	0	0	1	0	0	17.883	2.027	16.961	0	0	0	0	0	0	0	0	0	0	0	0	0	-1	0	-2.0278	-17.891	16.968	0	0	0	0	0	0	0	0	0	2
3220	32.2	0	0	0	0	0	0	0	0	0	0	0	0	0	0	0	0	0	0	0	0	0	0	0	0	0	0	0	0	0	0	0	0	0	0	0	0	0	0	0	0	0	0	0	0	0	0	0	0	0	-1	0	-2.0278	-17.891	16.968	0	0	0	1	0	0	17.47	2.0148	16.554	2
3221	32.21	0	0	0	0	0	0	10.917	-10.917	18.908	0	0	0	0	0	0	0	0	0	0	0	0	0	0	0	0	0	0	0	0	0	1	0	0	17.883	2.027	16.961	0	0	0	0	0	0	0	0	0	0	0	0	0	-1	0	-2.0278	-17.891	16.968	0	0	0	1	0	0	17.47	2.0148	16.554	2
3222	32.22	0	0	0	0	0	0	0	0	0	0	0	0	0	0	0	0	0	0	0	0	0	0	0	0	0	0	0	0	0	0	1	0	0	17.883	2.027	16.961	0	0	0	0	0	0	0	0	0	0	0	0	0	-1	0	-2.0278	-17.891	16.968	0	0	0	0	0	0	0	0	0	2
3223	32.23	0	0	0	0	0	0	0	0	0	0	0	0	0	0	0	0	0	0	0	0	0	0	0	0	0	0	0	0	0	0	1	0	0	17.883	2.027	16.961	0	0	0	0	0	0	0	0	0	0	0	0	0	-1	0	-2.0278	-17.891	16.968	0	0	0	1	0	0	17.47	2.0148	16.554	2
3224	32.24	0	0	0	0	0	0	0	0	0	0	0	0	0	0	0	0	0	0	0	0	0	0	0	0	0	0	0	0	0	0	0	0	0	0	0	0	0	0	0	0	0	0	0	0	0	0	0	0	0	-1	0	-2.0278	-17.891	16.968	0	0	0	0	0	0	0	0	0	2
3225	32.25	0	0	0	0	0	0	0	0	0	0	0	0	0	0	0	0	0	0	0	0	0	0	0	0	10.989	-10.989	19.033	0	0	0	0	0	0	0	0	0	0	0	0	0	0	0	0	0	0	0	0	0	0	-1	0	-2.0278	-17.891	16.968	0	0	0	0	0	0	0	0	0	2
3226	32.26	0	0	0	0	0	0	0	0	0	0	0	0	0	0	0	0	0	0	0	0	0	0	0	0	0	0	0	0	0	0	0	0	0	0	0	0	0	0	0	0	0	0	0	0	0	0	0	0	0	0	0	0	0	0	0	0	0	0	0	0	0	0	0	2
3227	32.27	0	0	0	0	0	0	0	0	0	0	0	0	0	0	0	0	0	0	0	0	0	0	0	0	0	0	0	0	0	0	0	0	0	0	0	0	0	0	0	0	0	0	0	0	0	0	0	0	0	0	0	0	0	0	0	0	0	1	0	0	17.47	2.0148	16.554	2
3228	32.28	0	0	0	0	0	0	0	0	0	0	0	0	0	0	0	0	0	0	0	0	0	0	0	0	0	0	0	0	0	0	0	0	0	0	0	0	0	0	0	0	0	0	0	0	0	0	0	0	0	-1	0	-2.0278	-17.891	16.968	0	0	0	0	0	0	0	0	0	2
3229	32.29	0	0	0	0	0	0	0	0	0	0	0	0	0	0	0	0	0	0	0	0	0	0	0	0	0	0	0	0	0	0	1	0	0	17.883	2.027	16.961	0	0	0	0	0	0	0	0	0	0	0	0	0	-1	0	-2.0278	-17.891	16.968	0	0	0	0	0	0	0	0	0	2
3230	32.3	0	0	0	0	0	0	0	0	0	0	0	0	0	0	0	0	0	0	0	0	0	0	0	0	0	0	0	0	0	0	0	0	0	0	0	0	0	0	0	0	0	0	0	0	0	0	0	0	0	-1	0	-2.0278	-17.891	16.968	0	0	0	0	0	0	0	0	0	2
3231	32.31	0	0	0	0	0	0	0	0	0	0	0	0	0	0	0	0	0	0	0	0	0	0	0	0	10.989	-10.989	19.033	0	0	0	0	0	0	0	0	0	0	0	0	0	0	0	0	0	0	0	0	0	0	0	0	0	0	0	0	0	0	0	0	0	0	0	0	0
3232	32.32	0	0	0	0	0	0	0	0	0	0	0	0	0	0	0	0	0	0	0	0	0	0	0	0	0	0	0	0	0	0	0	0	0	0	0	0	0	0	0	0	0	0	0	0	0	0	0	0	0	-1	0	-2.0278	-17.891	16.968	0	0	0	0	0	0	0	0	0	2
3233	32.33	0	0	0	0	0	0	0	0	0	0	0	0	0	0	0	0	0	0	0	0	0	0	0	0	0	0	0	0	0	0	0	0	0	0	0	0	0	0	0	0	0	0	10.996	-10.996	19.046	0	0	0	0	0	0	0	0	0	0	0	0	0	0	0	0	0	0	0
3234	32.34	0	0	0	0	0	0	0	0	0	0	0	0	0	0	0	0	0	0	0	0	0	0	0	0	0	0	0	0	0	0	0	0	0	0	0	0	0	0	0	0	0	0	10.996	-10.996	19.046	0	0	0	0	-1	0	-2.0278	-17.891	16.968	0	0	0	0	0	0	0	0	0	2
3235	32.35	0	0	0	0	0	0	0	0	0	0	0	0	0	0	0	0	0	0	0	0	0	0	0	0	0	0	0	0	0	0	0	0	0	0	0	0	0	0	0	0	0	0	0	0	0	0	0	0	0	-1	0	-2.0278	-17.891	16.968	0	0	0	0	0	0	0	0	0	2
3236	32.36	0	0	0	0	0	0	10.917	-10.917	18.908	0	0	0	0	0	0	0	0	0	0	0	0	0	0	0	0	0	0	0	0	0	0	0	0	0	0	0	0	0	0	0	0	0	0	0	0	0	0	0	0	-1	0	-2.0278	-17.891	16.968	0	0	0	1	0	0	17.47	2.0148	16.554	2
3237	32.37	0	0	0	0	0	0	0	0	0	0	0	0	0	0	0	0	0	0	0	0	0	0	0	0	0	0	0	0	0	0	0	0	0	0	0	0	0	0	0	0	-1	0	-2.1508	-17.769	16.797	0	0	0	0	0	0	0	0	0	0	0	0	0	0	0	0	0	0	2
3238	32.38	0	0	0	0	0	0	0	0	0	0	0	0	0	0	0	0	0	0	0	0	0	0	0	0	0	0	0	0	0	0	0	0	0	0	0	0	0	0	0	0	0	0	0	0	0	0	0	0	0	-1	0	-2.0278	-17.891	16.968	0	0	0	0	0	0	0	0	0	2
3239	32.39	0	0	0	0	0	0	0	0	0	0	0	0	0	-1	0	-2.0372	-17.821	16.895	0	0	0	0	0	0	0	0	0	0	0	0	1	0	0	17.883	2.027	16.961	0	0	0	0	0	0	0	0	0	0	0	0	0	-1	0	-2.0278	-17.891	16.968	0	0	0	0	0	0	0	0	0	2
3240	32.4	0	0	0	0	0	0	0	0	0	0	0	0	0	0	0	0	0	0	0	0	0	0	0	0	0	0	0	0	0	0	0	0	0	0	0	0	0	0	0	0	0	0	0	0	0	0	0	0	0	-1	0	-2.0278	-17.891	16.968	0	0	0	0	0	0	0	0	0	2
3241	32.41	0	0	0	0	0	0	0	0	0	0	0	0	0	0	0	0	0	0	0	0	0	0	0	0	0	0	0	0	0	0	0	0	0	10.991	-10.991	19.037	0	0	0	0	0	0	10.996	-10.996	19.046	0	0	0	0	-1	0	-2.0278	-17.891	16.968	0	0	0	1	0	0	17.47	2.0148	16.554	2
3242	32.42	0	0	0	0	0	0	0	0	0	0	0	0	0	0	0	0	0	0	0	0	0	0	0	0	0	0	0	0	0	0	0	0	0	0	0	0	0	0	0	0	0	0	0	0	0	0	0	0	0	-1	0	-2.0278	-17.891	16.968	0	0	0	0	0	0	0	0	0	2
3243	32.43	0	0	0	0	0	0	0	0	0	0	0	0	0	0	0	0	0	0	0	0	0	0	0	0	0	0	0	0	0	0	0	0	0	0	0	0	0	0	0	0	0	0	0	0	0	0	0	0	0	-1	0	-2.0278	-17.891	16.968	0	0	0	0	0	0	0	0	0	2
3244	32.44	0	0	0	0	0	0	0	0	0	0	0	0	0	0	0	0	0	0	0	0	0	0	0	0	0	0	0	0	0	0	0	0	0	0	0	0	0	0	0	0	0	0	0	0	0	0	0	0	0	0	0	0	0	0	0	0	0	0	0	0	0	0	0	2
3245	32.45	0	0	0	0	0	0	0	0	0	0	0	0	0	0	0	0	0	0	0	0	0	0	0	0	10.989	-10.989	19.033	0	0	0	0	0	0	0	0	0	0	0	0	0	0	0	10.996	-10.996	19.046	0	0	0	0	0	0	0	0	0	0	0	0	0	0	0	0	0	0	2
3246	32.46	0	0	0	0	0	0	0	0	0	0	0	0	0	0	0	0	0	0	0	0	0	0	0	0	0	0	0	0	0	0	0	0	0	0	0	0	0	0	0	0	0	0	10.996	-10.996	19.046	0	0	0	0	-1	0	-2.0278	-17.891	16.968	0	0	0	0	0	0	0	0	0	2
3247	32.47	0	0	0	0	0	0	0	0	0	0	0	0	0	0	0	0	0	0	0	0	0	0	0	0	0	0	0	0	0	0	0	0	0	0	0	0	0	0	0	0	0	0	10.996	-10.996	19.046	0	0	0	0	0	0	0	0	0	0	0	0	0	0	0	0	0	0	2
3248	32.48	0	0	0	0	0	0	0	0	0	0	0	0	0	0	0	0	0	0	0	0	0	0	0	0	0	0	0	0	0	0	0	0	0	0	0	0	0	0	0	0	0	0	0	0	0	0	0	0	0	0	0	0	0	0	0	0	0	1	0	0	17.47	2.0148	16.554	2
3249	32.49	0	0	0	0	0	0	0	0	0	0	0	0	0	0	0	0	0	0	0	0	0	0	0	0	0	0	0	0	0	0	0	0	0	10.991	-10.991	19.037	0	0	0	0	0	0	0	0	0	0	0	0	0	0	0	0	0	0	0	0	0	1	0	0	17.47	2.0148	16.554	2
3250	32.5	0	0	0	0	0	0	0	0	0	0	0	0	0	0	0	0	0	0	0	0	0	0	0	0	0	0	0	0	0	0	0	0	0	0	0	0	0	0	0	0	0	0	0	0	0	0	0	0	0	-1	0	-2.0278	-17.891	16.968	0	0	0	0	0	0	0	0	0	2
3251	32.51	0	0	0	0	0	0	0	0	0	0	0	0	0	0	0	0	0	0	0	0	0	0	0	0	0	0	0	0	0	0	1	0	0	17.883	2.027	16.961	0	0	0	0	0	0	0	0	0	0	0	0	0	0	0	0	0	0	0	0	0	0	0	0	0	0	0	2
3252	32.52	0	0	0	0	0	0	10.917	-10.917	18.908	0	0	0	0	0	0	0	0	0	0	0	0	0	0	0	0	0	0	0	0	0	0	0	0	0	0	0	0	0	0	0	0	0	0	0	0	0	0	0	0	-1	0	-2.0278	-17.891	16.968	0	0	0	0	0	0	0	0	0	2
3253	32.53	0	0	0	0	0	0	0	0	0	0	0	0	0	0	0	0	0	0	0	0	0	0	0	0	10.989	-10.989	19.033	0	0	0	1	0	0	17.883	2.027	16.961	0	0	0	0	0	0	0	0	0	0	0	0	0	-1	0	-2.0278	-17.891	16.968	0	0	0	0	0	0	0	0	0	2
3254	32.54	0	0	0	0	0	0	0	0	0	0	0	0	0	0	0	0	0	0	0	0	0	0	0	0	0	0	0	0	0	0	0	0	0	0	0	0	0	0	0	0	0	0	0	0	0	0	0	0	0	-1	0	-2.0278	-17.891	16.968	0	0	0	0	0	0	0	0	0	2
3255	32.55	0	0	0	0	0	0	10.917	-10.917	18.908	0	0	0	0	0	0	0	0	0	0	0	0	0	0	0	0	0	0	0	0	0	0	0	0	0	0	0	0	0	0	0	0	0	10.996	-10.996	19.046	0	0	0	0	-1	0	-2.0278	-17.891	16.968	0	0	0	0	0	0	0	0	0	0
3256	32.56	0	0	0	0	0	0	0	0	0	0	0	0	0	0	0	0	0	0	0	0	0	0	0	0	0	0	0	0	0	0	0	0	0	0	0	0	0	0	0	0	0	0	0	0	0	0	0	0	0	-1	0	-2.0278	-17.891	16.968	0	0	0	0	0	0	0	0	0	2
3257	32.57	0	0	0	0	0	0	0	0	0	0	0	0	0	0	0	0	0	0	0	0	0	0	0	0	0	0	0	0	0	0	0	0	0	0	0	0	0	0	0	0	0	0	0	0	0	0	0	0	0	-1	0	-2.0278	-17.891	16.968	0	0	0	0	0	0	0	0	0	2
3258	32.58	0	0	0	0	0	0	0	0	0	0	0	0	0	0	0	0	0	0	0	0	0	0	0	0	0	0	0	0	0	0	0	0	0	0	0	0	0	0	0	0	0	0	0	0	0	0	0	0	0	-1	0	-2.0278	-17.891	16.968	0	0	0	0	0	0	0	0	0	2
3259	32.59	0	0	0	0	0	0	0	0	0	0	0	0	0	0	0	0	0	0	0	0	0	0	0	0	0	0	0	0	0	0	0	0	0	0	0	0	0	0	0	0	0	0	0	0	0	0	0	0	0	0	0	0	0	0	0	0	0	0	0	0	0	0	0	2
3260	32.6	0	0	0	0	0	0	0	0	0	0	0	0	0	0	0	0	0	0	0	0	0	0	0	0	0	0	0	0	0	0	0	0	0	10.991	-10.991	19.037	0	0	0	0	-1	0	-2.0279	-17.891	16.969	0	0	0	0	-1	0	-2.0278	-17.891	16.968	0	0	0	0	0	0	0	0	0	2
3261	32.61	0	0	0	0	0	0	0	0	0	0	0	0	0	0	0	0	0	0	0	0	0	0	0	0	10.989	-10.989	19.033	0	0	0	0	0	0	0	0	0	0	0	0	0	0	0	0	0	0	0	0	0	0	-1	0	-2.0278	-17.891	16.968	0	0	0	1	0	0	17.47	2.0148	16.554	2
3262	32.62	0	0	0	0	0	0	0	0	0	0	0	0	0	0	0	0	0	0	0	0	0	0	0	0	0	0	0	0	0	0	0	0	0	0	0	0	0	0	0	0	-1	0	-2.1508	-17.769	16.797	0	0	0	0	-1	0	-2.0278	-17.891	16.968	0	0	0	0	0	0	0	0	0	2
3263	32.63	0	0	0	0	0	0	0	0	0	0	0	0	0	0	0	0	0	0	0	0	0	0	0	0	0	0	0	0	0	0	0	0	0	0	0	0	0	0	0	0	0	0	0	0	0	0	0	0	0	-1	0	-2.0278	-17.891	16.968	0	0	0	0	0	0	0	0	0	2
3264	32.64	0	0	0	0	0	0	0	0	0	0	0	0	0	0	0	0	0	0	0	0	0	0	0	0	0	0	0	0	0	0	0	0	0	10.991	-10.991	19.037	0	0	0	0	0	0	0	0	0	0	0	0	0	-1	0	-2.0278	-17.891	16.968	0	0	0	1	0	0	17.47	2.0148	16.554	2
3265	32.65	0	0	0	0	0	0	0	0	0	0	0	0	0	0	0	0	0	0	0	0	0	0	0	0	0	0	0	0	0	0	0	0	0	0	0	0	0	0	0	0	0	0	0	0	0	0	0	0	0	0	0	0	0	0	0	0	0	0	0	0	0	0	0	2
3266	32.66	0	0	0	0	0	0	0	0	0	0	0	0	0	0	0	0	0	0	0	0	0	0	0	0	0	0	0	0	0	0	0	0	0	0	0	0	0	0	0	0	0	0	0	0	0	0	0	0	0	-1	0	-2.0278	-17.891	16.968	0	0	0	1	0	0	17.47	2.0148	16.554	2
3267	32.67	0	0	0	0	0	0	0	0	0	0	0	0	0	0	0	0	0	0	0	0	0	0	0	0	0	0	0	0	0	0	0	0	0	0	0	0	0	0	0	0	-1	0	-2.1508	-17.769	16.797	0	0	0	0	-1	0	-2.0278	-17.891	16.968	0	0	0	0	0	0	0	0	0	2
3268	32.68	0	0	0	0	0	0	0	0	0	0	0	0	0	0	0	0	0	0	0	0	0	0	0	0	0	0	0	0	0	0	1	0	0	17.883	2.027	16.961	0	0	0	1	-1	0	27.464	-7.5536	31.918	0	0	0	0	-1	0	-2.0278	-17.891	16.968	0	0	0	1	0	0	17.47	2.0148	16.554	2
3269	32.69	0	0	0	0	0	0	0	0	0	0	0	0	0	0	0	0	0	0	0	0	0	0	0	0	0	0	0	0	0	0	0	0	0	0	0	0	0	0	0	0	0	0	0	0	0	0	0	0	0	-1	0	-2.0278	-17.891	16.968	0	0	0	0	0	0	0	0	0	2
3270	32.7	0	0	0	0	0	0	0	0	0	0	0	0	0	0	0	0	0	0	0	0	0	0	0	0	0	0	0	0	0	0	0	0	0	11.258	-11.253	19.496	0	0	0	0	0	0	10.996	-10.996	19.046	0	0	0	0	-1	0	-2.0278	-17.891	16.968	0	0	0	0	0	0	0	0	0	2
3271	32.71	0	0	0	0	0	0	0	0	0	0	0	0	0	0	0	0	0	0	0	0	0	0	0	0	0	0	0	0	0	0	0	0	0	0	0	0	0	0	0	0	-1	0	-2.0279	-17.891	16.969	0	0	0	0	-1	0	-2.0278	-17.891	16.968	0	0	0	1	0	0	17.47	2.0148	16.554	2
3272	32.72	0	0	0	0	0	0	0	0	0	0	0	0	0	0	0	0	0	0	0	0	0	0	0	0	0	0	0	0	0	0	0	-1	0	-2.0265	-17.879	16.957	0	0	0	0	-1	0	-2.0279	-17.891	16.969	0	0	0	0	0	0	0	0	0	0	0	0	0	0	0	0	0	0	2
3273	32.73	0	0	0	0	0	0	0	0	0	0	0	0	0	0	0	0	0	0	0	0	0	0	0	0	0	0	0	0	0	0	0	0	0	0	0	0	0	0	0	0	0	0	0	0	0	0	0	0	0	-1	0	-2.0278	-17.891	16.968	0	0	0	0	0	0	0	0	0	2
3274	32.74	0	0	0	0	0	0	0	0	0	0	0	0	0	0	0	0	0	0	0	0	0	0	0	0	10.989	-10.989	19.033	0	0	0	0	0	0	0	0	0	0	0	0	0	0	0	10.996	-10.996	19.046	0	0	0	0	-1	0	-2.0278	-17.891	16.968	0	0	0	0	0	0	0	0	0	2
3275	32.75	0	0	0	0	0	0	0	0	0	0	0	0	0	0	0	0	0	0	0	0	0	0	0	0	0	0	0	0	0	0	0	0	0	10.991	-10.991	19.037	0	0	0	0	0	0	0	0	0	0	0	0	0	0	0	0	0	0	0	0	0	0	0	0	0	0	0	2
3276	32.76	0	0	0	0	0	0	0	0	0	0	0	0	0	0	0	0	0	0	0	0	0	0	0	0	10.989	-10.989	19.033	0	0	0	0	0	0	0	0	0	0	0	0	0	0	0	0	0	0	0	0	0	0	-1	0	-2.0278	-17.891	16.968	0	0	0	0	0	0	0	0	0	2
3277	32.77	0	0	0	0	0	0	0	0	0	0	0	0	0	0	0	0	0	0	0	0	0	0	0	0	0	0	0	0	0	0	0	0	0	0	0	0	0	0	0	0	-1	0	-2.1508	-17.769	16.797	0	0	0	0	-1	0	-2.0278	-17.891	16.968	0	0	0	0	0	0	0	0	0	2
3278	32.78	0	0	0	0	0	0	0	0	0	0	0	0	0	0	0	0	0	0	0	0	0	0	0	0	0	0	0	0	0	0	0	0	0	10.991	-10.991	19.037	0	0	0	0	-1	0	-2.0279	-17.891	16.969	0	0	0	0	-1	0	-2.0278	-17.891	16.968	0	0	0	0	0	0	0	0	0	0
3279	32.79	0	0	0	0	0	0	0	0	0	0	0	0	0	0	0	0	0	0	0	0	0	0	0	0	0	0	0	0	0	0	0	0	0	0	0	0	0	0	0	0	0	0	0	0	0	0	0	0	0	-1	0	-2.0278	-17.891	16.968	0	0	0	0	0	0	0	0	0	2
3280	32.8	0	0	0	0	0	0	0	0	0	0	0	0	0	0	0	0	0	0	0	0	0	0	0	0	0	0	0	0	0	0	0	0	0	0	0	0	0	0	0	0	-1	0	-2.0279	-17.891	16.969	0	0	0	0	0	0	0	0	0	0	0	0	1	0	0	17.47	2.0148	16.554	2
3281	32.81	0	0	0	0	0	0	0	0	0	0	0	0	0	0	0	0	0	0	0	0	0	0	0	0	10.989	-10.989	19.033	0	0	0	0	0	0	0	0	0	0	0	0	0	0	0	0	0	0	0	0	0	0	-1	0	-2.0278	-17.891	16.968	0	0	0	1	0	0	17.47	2.0148	16.554	2
3282	32.82	0	0	0	0	0	0	0	0	0	0	0	0	0	0	0	0	0	0	0	0	0	0	0	0	10.989	-10.989	19.033	0	0	0	0	0	0	0	0	0	0	0	0	0	-1	0	-2.0279	-17.891	16.969	0	0	0	0	-1	0	-2.0278	-17.891	16.968	0	0	0	0	0	0	0	0	0	2
3283	32.83	0	0	0	0	0	0	0	0	0	0	0	0	0	0	0	0	0	0	0	0	0	0	0	0	0	0	0	0	0	0	0	0	0	0	0	0	0	0	0	0	0	0	10.996	-10.996	19.046	0	0	0	0	-1	0	-2.0278	-17.891	16.968	0	0	0	1	0	0	17.47	2.0148	16.554	2
3284	32.84	0	0	0	0	0	0	0	0	0	0	0	0	0	0	0	0	0	0	0	0	0	0	0	0	0	0	0	0	0	0	0	0	0	0	0	0	0	0	0	0	0	0	0	0	0	0	0	0	0	-1	0	-2.0278	-17.891	16.968	0	0	0	0	0	0	0	0	0	2
3285	32.85	0	0	0	0	0	0	0	0	0	0	0	0	0	0	0	0	0	0	0	0	0	0	0	0	10.989	-10.989	19.033	0	0	0	0	0	0	0	0	0	0	0	0	0	0	0	0	0	0	0	0	0	0	-1	0	-2.0278	-17.891	16.968	0	0	0	1	0	0	17.47	2.0148	16.554	2
3286	32.86	0	0	0	0	0	0	0	0	0	0	0	0	0	0	0	0	0	0	0	0	0	0	0	0	0	0	0	0	0	0	0	0	0	0	0	0	0	0	0	0	-1	0	-2.0279	-17.891	16.969	0	0	0	0	-1	0	-2.0278	-17.891	16.968	0	0	0	0	0	0	0	0	0	2
3287	32.87	0	0	0	0	0	0	0	0	0	0	0	0	0	0	0	0	0	0	0	0	0	0	0	0	0	0	0	0	0	0	0	0	0	0	0	0	0	0	0	0	0	0	10.996	-10.996	19.046	0	0	0	0	-1	0	-2.0278	-17.891	16.968	0	0	0	0	0	0	0	0	0	2
3288	32.88	0	0	0	0	0	0	0	0	0	0	0	0	0	0	0	0	0	0	0	0	0	0	0	0	0	0	0	0	0	0	0	0	0	0	0	0	0	0	0	0	0	0	0	0	0	0	0	0	0	-1	0	-2.0278	-17.891	16.968	0	0	0	0	0	0	0	0	0	2
3289	32.89	0	0	0	0	0	0	0	0	0	0	0	0	0	0	0	0	0	0	0	0	0	0	0	0	0	0	0	0	0	0	1	0	0	17.883	2.027	16.961	0	0	0	0	0	0	0	0	0	0	0	0	0	-1	0	-2.0278	-17.891	16.968	0	0	0	0	0	0	0	0	0	2
3290	32.9	0	0	0	0	0	0	0	0	0	0	0	0	0	0	0	0	0	0	0	0	0	0	0	0	0	0	0	0	0	0	0	0	0	10.991	-10.991	19.037	0	0	0	0	0	0	0	0	0	0	0	0	0	-1	0	-2.0278	-17.891	16.968	0	0	0	0	0	0	0	0	0	2
3291	32.91	0	0	0	0	0	0	10.917	-10.917	18.908	0	0	0	0	0	0	0	0	0	0	0	0	0	0	0	10.989	-10.989	19.033	0	0	0	0	0	0	0	0	0	0	0	0	0	0	0	0	0	0	0	0	0	0	-1	0	-2.0278	-17.891	16.968	0	0	0	1	0	0	17.47	2.0148	16.554	2
3292	32.92	0	0	0	0	0	0	0	0	0	0	0	0	0	0	0	0	0	0	0	0	0	0	0	0	0	0	0	0	0	0	0	0	0	0	0	0	0	0	0	0	0	0	10.996	-10.996	19.046	0	0	0	0	0	0	0	0	0	0	0	0	0	0	0	0	0	0	2
3293	32.93	0	0	0	0	0	0	0	0	0	0	0	0	0	0	0	0	0	0	0	0	0	0	0	0	0	0	0	0	0	0	0	0	0	0	0	0	0	0	0	0	0	0	0	0	0	0	0	0	0	-1	0	-2.0278	-17.891	16.968	0	0	0	1	0	0	17.47	2.0148	16.554	2
3294	32.94	0	0	0	0	0	0	0	0	0	0	0	0	0	0	0	0	0	0	0	0	0	0	0	0	0	0	0	0	0	0	0	0	0	0	0	0	0	0	0	0	-1	0	-2.0279	-17.891	16.969	0	0	0	0	-1	0	-2.0278	-17.891	16.968	0	0	0	1	0	0	17.47	2.0148	16.554	2
3295	32.95	0	0	0	0	0	0	0	0	0	0	0	0	0	0	0	0	0	0	0	0	0	0	0	0	0	0	0	0	0	0	0	0	0	0	0	0	0	0	0	0	0	0	0	0	0	0	0	0	0	-1	0	-2.0278	-17.891	16.968	0	0	0	0	0	0	0	0	0	2
3296	32.96	0	0	0	0	0	0	0	0	0	0	0	0	0	0	0	0	0	0	0	0	0	0	0	0	0	0	0	0	0	0	0	0	0	10.991	-10.991	19.037	0	0	0	0	0	0	0	0	0	0	0	0	0	-1	0	-2.0278	-17.891	16.968	0	0	0	1	0	0	17.47	2.0148	16.554	2
3297	32.97	0	0	0	0	0	0	0	0	0	0	0	0	0	0	0	0	0	0	0	0	0	0	0	0	0	0	0	0	0	0	0	0	0	0	0	0	0	0	0	0	-1	0	-2.0279	-17.891	16.969	0	0	0	0	-1	0	-2.0278	-17.891	16.968	0	0	0	0	0	0	0	0	0	0
3298	32.98	0	0	0	0	0	0	0	0	0	0	0	0	0	0	0	0	0	0	0	0	0	0	0	0	0	0	0	0	0	0	0	0	0	0	0	0	0	0	0	0	0	0	0	0	0	0	0	0	0	-1	0	-2.0278	-17.891	16.968	0	0	0	0	0	0	0	0	0	2
3299	32.99	0	0	0	0	0	0	0	0	0	0	0	0	0	0	0	0	0	0	0	0	0	0	0	0	0	0	0	0	0	0	0	0	0	0	0	0	0	0	0	0	-1	0	-2.1508	-17.769	16.797	0	0	0	0	-1	0	-2.0278	-17.891	16.968	0	0	0	0	0	0	0	0	0	2
3300	33	0	0	0	0	0	0	0	0	0	0	0	0	0	0	0	0	0	0	0	0	0	0	0	0	0	0	0	0	0	0	0	-1	0	-2.0265	-17.879	16.957	0	0	0	0	0	0	0	0	0	0	0	0	0	0	0	0	0	0	0	0	0	0	0	0	0	0	0	2
3301	33.01	0	0	0	0	0	0	0	0	0	0	0	0	0	0	0	0	0	0	0	0	0	0	0	0	0	0	0	0	0	0	0	0	0	0	0	0	0	0	0	0	0	0	0	0	0	0	0	0	0	-1	0	-2.0278	-17.891	16.968	0	0	0	0	0	0	0	0	0	2
3302	33.02	0	0	0	0	0	0	0	0	0	0	0	0	0	0	0	0	0	0	0	0	0	0	0	0	0	0	0	0	0	0	0	0	0	0	0	0	0	0	0	0	-1	0	-2.1508	-17.769	16.797	0	0	0	0	-1	0	-2.0278	-17.891	16.968	0	0	0	0	0	0	0	0	0	2
3303	33.03	0	0	0	0	0	0	0	0	0	0	0	0	0	0	0	0	0	0	0	0	0	0	0	0	0	0	0	0	0	0	1	0	0	17.761	2.1499	16.789	0	0	0	0	0	0	0	0	0	0	0	0	0	-1	0	-2.0278	-17.891	16.968	0	0	0	1	0	0	17.47	2.0148	16.554	2
3304	33.04	0	0	0	0	0	0	0	0	0	0	0	0	0	0	0	0	0	0	0	0	0	0	0	0	0	0	0	0	0	0	0	0	0	0	0	0	0	0	0	0	0	0	0	0	0	0	0	0	0	-1	0	-2.0278	-17.891	16.968	0	0	0	0	0	0	0	0	0	2
3305	33.05	0	0	0	0	0	0	0	0	0	0	0	0	0	0	0	0	0	0	0	0	0	0	0	0	0	0	0	0	0	0	0	0	0	0	0	0	0	0	0	0	-1	0	-2.0279	-17.891	16.969	0	0	0	0	-1	0	-2.0278	-17.891	16.968	0	0	0	0	0	0	0	0	0	2
3306	33.06	0	0	0	0	0	0	0	0	0	0	0	0	0	0	0	0	0	0	0	0	0	0	0	0	0	0	0	0	0	0	0	0	0	0	0	0	0	0	0	0	0	0	0	0	0	0	0	0	0	0	0	0	0	0	0	0	0	1	0	0	17.47	2.0148	16.554	2
3307	33.07	0	0	0	0	0	0	0	0	0	0	0	0	0	0	0	0	0	0	0	0	0	0	0	0	10.989	-10.989	19.033	0	0	0	0	0	0	0	0	0	0	0	0	0	-1	0	-2.0279	-17.891	16.969	0	0	0	0	-1	0	-2.0278	-17.891	16.968	0	0	0	0	0	0	0	0	0	2
3308	33.08	0	0	0	0	0	0	10.917	-10.917	18.908	0	0	0	0	0	0	0	0	0	0	0	0	0	0	0	0	0	0	0	0	0	0	0	0	0	0	0	0	0	0	0	0	0	0	0	0	0	0	0	0	-1	0	-2.0278	-17.891	16.968	0	0	0	1	0	0	17.47	2.0148	16.554	2
3309	33.09	0	0	0	0	0	0	0	0	0	0	0	0	0	0	0	0	0	0	0	0	0	0	0	0	0	0	0	0	0	0	0	0	0	0	0	0	0	0	0	0	0	0	0	0	0	0	0	0	0	-1	0	-2.0278	-17.891	16.968	0	0	0	0	0	0	0	0	0	2
3310	33.1	0	0	0	0	0	0	0	0	0	0	0	0	0	0	0	0	0	0	0	0	0	0	0	0	0	0	0	0	0	0	0	0	0	10.991	-10.991	19.037	0	0	0	0	0	0	0	0	0	0	0	0	0	-1	0	-2.0278	-17.891	16.968	0	0	0	0	0	0	0	0	0	2
3311	33.11	0	0	0	0	0	0	0	0	0	0	0	0	0	0	0	0	0	0	0	0	0	0	0	0	10.989	-10.989	19.033	0	0	0	0	0	0	0	0	0	0	0	0	0	0	0	0	0	0	0	0	0	0	-1	0	-2.0278	-17.891	16.968	0	0	0	0	0	0	0	0	0	2
3312	33.12	0	0	0	0	0	0	0	0	0	0	0	0	0	0	0	0	0	0	0	0	0	0	0	0	0	0	0	0	0	0	0	0	0	0	0	0	0	0	0	0	0	0	0	0	0	0	0	0	0	-1	0	-2.0278	-17.891	16.968	0	0	0	0	0	0	0	0	0	2
3313	33.13	0	0	0	0	0	0	10.917	-10.917	18.908	0	0	0	0	0	0	0	0	0	0	0	0	0	0	0	0	0	0	0	0	0	1	0	0	17.883	2.027	16.961	0	0	0	0	0	0	0	0	0	0	0	0	0	-1	0	-2.0278	-17.891	16.968	0	0	0	0	0	0	0	0	0	2
3314	33.14	0	0	0	0	0	0	0	0	0	0	0	0	0	0	0	0	0	0	0	0	0	0	0	0	0	0	0	0	0	0	0	0	0	0	0	0	0	0	0	0	0	0	0	0	0	0	0	0	0	-1	0	-2.0278	-17.891	16.968	0	0	0	0	0	0	0	0	0	2
3315	33.15	0	0	0	0	0	0	10.917	-10.917	18.908	0	0	0	0	0	0	0	0	0	0	0	0	0	0	0	0	0	0	0	0	0	0	0	0	0	0	0	0	0	0	0	0	0	0	0	0	0	0	0	0	-1	0	-2.0278	-17.891	16.968	0	0	0	0	0	0	0	0	0	2
3316	33.16	0	0	0	0	0	0	0	0	0	0	0	0	0	0	0	0	0	0	0	0	0	0	0	0	0	0	0	0	0	0	1	0	0	17.883	2.027	16.961	0	0	0	0	0	0	0	0	0	0	0	0	0	-1	0	-2.0278	-17.891	16.968	0	0	0	1	0	0	17.47	2.0148	16.554	2
3317	33.17	0	0	0	0	0	0	0	0	0	0	0	0	0	0	0	0	0	0	0	0	0	0	0	0	0	0	0	0	0	0	0	0	0	0	0	0	0	0	0	0	0	0	10.996	-10.996	19.046	0	0	0	0	-1	0	-2.0278	-17.891	16.968	0	0	0	0	0	0	0	0	0	2
3318	33.18	0	0	0	0	0	0	0	0	0	0	0	0	0	0	0	0	0	0	0	0	0	0	0	0	0	0	0	0	0	0	1	0	0	17.883	2.027	16.961	0	0	0	0	0	0	0	0	0	0	0	0	0	-1	0	-2.0278	-17.891	16.968	0	0	0	1	0	0	17.47	2.0148	16.554	2
3319	33.19	0	0	0	0	0	0	0	0	0	0	0	0	0	0	0	0	0	0	0	0	0	0	0	0	0	0	0	0	0	0	0	0	0	0	0	0	0	0	0	0	0	0	10.996	-10.996	19.046	0	0	0	0	-1	0	-2.0278	-17.891	16.968	0	0	0	0	0	0	0	0	0	2
3320	33.2	0	0	0	0	0	0	0	0	0	0	0	0	0	0	0	0	0	0	0	0	0	0	0	0	0	0	0	0	0	0	0	0	0	0	0	0	0	0	0	0	-1	0	-2.0279	-17.891	16.969	0	0	0	0	-1	0	-2.0278	-17.891	16.968	0	0	0	0	0	0	0	0	0	2
3321	33.21	0	0	0	0	0	0	10.917	-10.917	18.908	0	0	0	0	0	0	0	0	0	0	0	0	0	0	0	0	0	0	0	0	0	0	0	0	10.991	-10.991	19.037	0	0	0	0	0	0	0	0	0	0	0	0	0	-1	0	-2.0278	-17.891	16.968	0	0	0	1	0	0	17.47	2.0148	16.554	2
3322	33.22	0	0	0	0	0	0	0	0	0	0	0	0	0	0	0	0	0	0	0	0	0	0	0	0	0	0	0	0	0	0	0	0	0	0	0	0	0	0	0	0	0	0	0	0	0	0	0	0	0	-1	0	-2.0278	-17.891	16.968	0	0	0	0	0	0	0	0	0	2
3323	33.23	0	0	0	0	0	0	0	0	0	0	0	0	0	0	0	0	0	0	0	0	0	0	0	0	0	0	0	0	0	0	0	0	0	0	0	0	0	0	0	0	-1	0	-2.0279	-17.891	16.969	0	0	0	0	-1	0	-2.0278	-17.891	16.968	0	0	0	0	0	0	0	0	0	2
3324	33.24	0	0	0	0	0	0	0	0	0	0	0	0	0	0	0	0	0	0	0	0	0	0	0	0	0	0	0	0	0	0	0	0	0	0	0	0	0	0	0	0	0	0	0	0	0	0	0	0	0	-1	0	-2.0278	-17.891	16.968	0	0	0	0	0	0	0	0	0	2
3325	33.25	0	0	0	0	0	0	0	0	0	0	0	0	0	0	0	0	0	0	0	0	0	0	0	0	0	0	0	0	0	0	0	0	0	0	0	0	0	0	0	0	-1	0	-2.0279	-17.891	16.969	0	0	0	0	-1	0	-2.0278	-17.891	16.968	0	0	0	0	0	0	0	0	0	0
3326	33.26	0	0	0	0	0	0	0	0	0	0	0	0	0	0	0	0	0	0	0	0	0	0	0	0	10.989	-10.989	19.033	0	0	0	0	0	0	0	0	0	0	0	0	0	-1	0	-2.0279	-17.891	16.969	0	0	0	0	-1	0	-2.0278	-17.891	16.968	0	0	0	0	0	0	0	0	0	2
3327	33.27	0	0	0	0	0	0	0	0	0	0	0	0	0	0	0	0	0	0	0	0	0	0	0	0	0	0	0	0	0	0	0	0	0	0	0	0	0	0	0	0	0	0	0	0	0	0	0	0	0	-1	0	-2.0278	-17.891	16.968	0	0	0	0	0	0	0	0	0	2
3328	33.28	0	0	0	0	0	0	0	0	0	0	0	0	0	0	0	0	0	0	0	0	0	0	0	0	0	0	0	0	0	0	0	0	0	0	0	0	0	0	0	0	0	0	0	0	0	0	0	0	0	-1	0	-2.0278	-17.891	16.968	0	0	0	1	0	0	17.47	2.0148	16.554	2
3329	33.29	0	0	0	0	0	0	0	0	0	0	0	0	0	0	0	0	0	0	0	0	0	0	0	0	0	0	0	0	0	0	0	0	0	0	0	0	0	0	0	0	0	0	0	0	0	0	0	0	0	-1	0	-2.0278	-17.891	16.968	0	0	0	0	0	0	0	0	0	2
3330	33.3	0	0	0	0	0	0	0	0	0	0	0	0	0	0	0	0	0	0	0	0	0	0	0	0	0	0	0	0	0	0	0	0	0	0	0	0	0	0	0	0	0	0	10.996	-10.996	19.046	0	0	0	0	-1	0	-2.0278	-17.891	16.968	0	0	0	0	0	0	0	0	0	2
3331	33.31	0	0	0	0	0	0	0	0	0	0	0	0	0	0	0	0	0	0	0	0	0	0	0	0	0	0	0	0	0	0	0	0	0	0	0	0	0	0	0	0	0	0	0	0	0	0	0	0	0	-1	0	-2.0278	-17.891	16.968	0	0	0	1	0	0	17.47	2.0148	16.554	2
3332	33.32	0	0	0	0	0	0	0	0	0	0	0	0	0	0	0	0	0	0	0	0	0	0	0	0	0	0	0	0	0	0	0	0	0	0	0	0	0	0	0	0	0	0	10.996	-10.996	19.046	0	0	0	0	-1	0	-2.0278	-17.891	16.968	0	0	0	0	0	0	0	0	0	2
3333	33.33	0	0	0	0	0	0	0	0	0	0	0	0	0	0	0	0	0	0	0	0	0	0	0	0	0	0	0	0	0	0	0	0	0	0	0	0	0	0	0	0	0	0	0	0	0	0	0	0	0	-1	0	-2.0278	-17.891	16.968	0	0	0	1	0	0	17.47	2.0148	16.554	0
3334	33.34	0	0	0	0	0	0	0	0	0	0	0	0	0	0	0	0	0	0	0	0	0	0	0	0	0	0	0	0	0	0	1	0	0	17.883	2.027	16.961	0	0	0	0	-1	0	-2.0279	-17.891	16.969	0	0	0	0	-1	0	-2.0278	-17.891	16.968	0	0	0	0	0	0	0	0	0	2
3335	33.35	0	0	0	0	0	0	0	0	0	0	0	0	0	0	0	0	0	0	0	0	0	0	0	0	0	0	0	0	0	0	1	0	0	17.883	2.027	16.961	0	0	0	0	0	0	0	0	0	0	0	0	0	-1	0	-2.0278	-17.891	16.968	0	0	0	0	0	0	0	0	0	0
3336	33.36	0	0	0	0	0	0	0	0	0	0	0	0	0	0	0	0	0	0	0	0	0	0	0	0	0	0	0	0	0	0	0	0	0	0	0	0	0	0	0	0	0	0	0	0	0	0	0	0	0	-1	0	-2.0278	-17.891	16.968	0	0	0	0	0	0	0	0	0	2
3337	33.37	0	0	0	0	0	0	0	0	0	0	0	0	0	0	0	0	0	0	0	0	0	0	0	0	0	0	0	0	0	0	0	0	0	10.991	-10.991	19.037	0	0	0	0	0	0	0	0	0	0	0	0	0	-1	0	-2.0278	-17.891	16.968	0	0	0	0	0	0	0	0	0	2
3338	33.38	0	0	0	0	0	0	0	0	0	0	0	0	0	0	0	0	0	0	0	0	0	0	0	0	0	0	0	0	0	0	0	0	0	0	0	0	0	0	0	0	0	0	0	0	0	0	0	0	0	-1	0	-2.0278	-17.891	16.968	0	0	0	0	0	0	0	0	0	2
3339	33.39	0	0	0	0	0	0	10.917	-10.917	18.908	0	0	0	0	0	0	0	0	0	0	0	0	0	0	0	0	0	0	0	0	0	0	0	0	0	0	0	0	0	0	0	0	0	10.996	-10.996	19.046	0	0	0	0	-1	0	-2.0278	-17.891	16.968	0	0	0	0	0	0	0	0	0	2
3340	33.4	0	0	0	0	0	0	0	0	0	0	0	0	0	0	0	0	0	0	0	0	0	0	0	0	0	0	0	0	0	0	1	0	0	17.883	2.027	16.961	0	0	0	0	0	0	0	0	0	0	0	0	0	-1	0	-2.0278	-17.891	16.968	0	0	0	0	0	0	0	0	0	2
3341	33.41	0	0	0	0	0	0	0	0	0	0	0	0	0	0	0	0	0	0	0	0	0	0	0	0	0	0	0	0	0	0	0	0	0	0	0	0	0	0	0	0	0	0	0	0	0	0	0	0	0	0	0	0	0	0	0	0	0	0	0	0	0	0	0	2
3342	33.42	0	0	0	0	0	0	0	0	0	0	0	0	0	0	0	0	0	0	0	0	0	0	0	0	0	0	0	0	0	0	0	0	0	0	0	0	0	0	0	0	0	0	10.996	-10.996	19.046	0	0	0	0	0	0	0	0	0	0	0	0	0	0	0	0	0	0	2
3343	33.43	0	0	0	0	0	0	0	0	0	0	0	0	0	0	0	0	0	0	0	0	0	0	0	0	0	0	0	0	0	0	1	0	0	17.883	2.027	16.961	0	0	0	0	0	0	0	0	0	0	0	0	0	-1	0	-2.0278	-17.891	16.968	0	0	0	0	0	0	0	0	0	2
3344	33.44	0	0	0	0	0	0	0	0	0	0	0	0	0	0	0	0	0	0	0	0	0	0	0	0	0	0	0	0	0	0	0	0	0	0	0	0	0	0	0	0	0	0	0	0	0	0	0	0	0	-1	0	-2.0278	-17.891	16.968	0	0	0	0	0	0	0	0	0	2
3345	33.45	0	0	0	0	0	0	0	0	0	0	0	0	0	0	0	0	0	0	0	0	0	0	0	0	0	0	0	0	0	0	0	0	0	0	0	0	0	0	0	0	0	0	0	0	0	0	0	0	0	0	0	0	0	0	0	0	0	0	0	0	0	0	0	2
3346	33.46	0	0	0	0	0	0	0	0	0	0	0	0	0	0	0	0	0	0	0	0	0	0	0	0	0	0	0	0	0	0	0	0	0	10.991	-10.991	19.037	0	0	0	0	0	0	0	0	0	0	0	0	0	-1	0	-2.0278	-17.891	16.968	0	0	0	0	0	0	0	0	0	2
3347	33.47	0	0	0	0	0	0	0	0	0	0	0	0	0	0	0	0	0	0	0	0	0	0	0	0	0	0	0	0	0	0	0	0	0	0	0	0	0	0	0	0	-1	0	-2.1508	-17.769	16.797	0	0	0	0	0	0	0	0	0	0	0	0	0	0	0	0	0	0	2
3348	33.48	0	0	0	0	0	0	0	0	0	0	0	0	0	0	0	0	0	0	0	0	0	0	0	0	0	0	0	0	0	0	0	0	0	0	0	0	0	0	0	0	-1	0	-2.0279	-17.891	16.969	0	0	0	0	-1	0	-2.0278	-17.891	16.968	0	0	0	0	0	0	0	0	0	2
3349	33.49	0	0	0	0	0	0	0	0	0	0	0	0	0	0	0	0	0	0	0	0	0	0	0	0	0	0	0	0	0	0	0	0	0	10.991	-10.991	19.037	0	0	0	0	0	0	0	0	0	0	0	0	0	0	0	0	0	0	0	0	0	0	0	0	0	0	0	2
3350	33.5	0	0	0	0	0	0	0	0	0	0	0	0	0	0	0	0	0	0	0	0	0	0	0	0	0	0	0	0	0	0	0	0	0	0	0	0	0	0	0	0	-1	0	-2.0279	-17.891	16.969	0	0	0	0	0	0	0	0	0	0	0	0	0	0	0	0	0	0	2
3351	33.51	0	0	0	0	0	0	0	0	0	0	0	0	0	0	0	0	0	0	0	0	0	0	0	0	0	0	0	0	0	0	0	0	0	10.991	-10.991	19.037	0	0	0	0	0	0	0	0	0	0	0	0	0	-1	0	-2.0278	-17.891	16.968	0	0	0	0	0	0	0	0	0	2
3352	33.52	0	0	0	0	0	0	0	0	0	0	0	0	0	0	0	0	0	0	0	0	0	0	0	0	0	0	0	0	0	0	0	0	0	0	0	0	0	0	0	0	0	0	0	0	0	0	0	0	0	0	0	0	0	0	0	0	0	0	0	0	0	0	0	2
3353	33.53	0	0	0	0	0	0	0	0	0	0	0	0	0	0	0	0	0	0	0	0	0	0	0	0	0	0	0	0	0	0	0	0	0	0	0	0	0	0	0	0	0	0	0	0	0	0	0	0	0	-1	0	-2.0278	-17.891	16.968	0	0	0	0	0	0	0	0	0	2
3354	33.54	0	0	0	0	0	0	0	0	0	0	0	0	0	0	0	0	0	0	0	0	0	0	0	0	0	0	0	0	0	0	1	0	0	17.883	2.027	16.961	0	0	0	0	0	0	10.996	-10.996	19.046	0	0	0	0	-1	0	-2.0278	-17.891	16.968	0	0	0	0	0	0	0	0	0	2
3355	33.55	0	0	0	0	0	0	10.917	-10.917	18.908	0	0	0	0	0	0	0	0	0	0	0	0	0	0	0	0	0	0	0	0	0	0	0	0	0	0	0	0	0	0	0	-1	0	-2.0279	-17.891	16.969	0	0	0	0	0	0	0	0	0	0	0	0	0	0	0	0	0	0	2
3356	33.56	0	0	0	0	0	0	0	0	0	0	0	0	0	0	0	0	0	0	0	0	0	0	0	0	0	0	0	0	0	0	0	0	0	10.991	-10.991	19.037	0	0	0	0	-1	0	-2.0279	-17.891	16.969	0	0	0	0	-1	0	-2.0278	-17.891	16.968	0	0	0	0	0	0	0	0	0	2
3357	33.57	0	0	0	0	0	0	0	0	0	0	0	0	0	0	0	0	0	0	0	0	0	0	0	0	0	0	0	0	0	0	1	0	0	17.883	2.027	16.961	0	0	0	0	-1	0	-2.1508	-17.769	16.797	0	0	0	0	0	0	0	0	0	0	0	0	0	0	0	0	0	0	2
3358	33.58	0	0	0	0	0	0	0	0	0	0	0	0	0	0	0	0	0	0	0	0	0	0	0	0	0	0	0	0	0	0	0	0	0	0	0	0	0	0	0	0	0	0	0	0	0	0	0	0	0	-1	0	-2.0278	-17.891	16.968	0	0	0	0	0	0	0	0	0	2
3359	33.59	0	0	0	0	0	0	0	0	0	0	0	0	0	0	0	0	0	0	0	0	0	0	0	0	0	0	0	0	0	0	0	0	0	0	0	0	0	0	0	0	0	0	10.996	-10.996	19.046	0	0	0	0	0	0	0	0	0	0	0	0	1	0	0	17.47	2.0148	16.554	2
3360	33.6	0	0	0	0	0	0	0	0	0	0	0	0	0	0	0	0	0	0	0	0	0	0	0	0	0	0	0	0	0	0	0	0	0	0	0	0	0	0	0	0	-1	0	-2.0279	-17.891	16.969	0	0	0	0	-1	0	-2.0278	-17.891	16.968	0	0	0	1	0	0	17.47	2.0148	16.554	2
3361	33.61	0	0	0	0	0	0	0	0	0	0	0	0	0	0	0	0	0	0	0	0	0	0	0	0	0	0	0	0	0	0	0	0	0	10.991	-10.991	19.037	0	0	0	0	0	0	0	0	0	0	0	0	0	0	0	0	0	0	0	0	0	0	0	0	0	0	0	2
3362	33.62	0	0	0	0	0	0	0	0	0	0	0	0	0	0	0	0	0	0	0	0	0	0	0	0	0	0	0	0	0	0	0	0	0	0	0	0	0	0	0	0	-1	0	-2.0279	-17.891	16.969	0	0	0	0	0	0	0	0	0	0	0	0	0	0	0	0	0	0	2
3363	33.63	0	0	0	0	0	0	0	0	0	0	0	0	0	0	0	0	0	0	0	0	0	0	0	0	0	0	0	0	0	0	0	0	0	0	0	0	0	0	0	0	0	0	0	0	0	0	0	0	0	0	0	0	0	0	0	0	0	1	0	0	17.47	2.0148	16.554	2
3364	33.64	0	0	0	0	0	0	0	0	0	0	0	0	0	0	0	0	0	0	0	0	0	0	0	0	0	0	0	0	0	0	0	0	0	0	0	0	0	0	0	0	0	0	0	0	0	0	0	0	0	-1	0	-2.0278	-17.891	16.968	0	0	0	0	0	0	0	0	0	2
3365	33.65	0	0	0	0	0	0	0	0	0	0	0	0	0	0	0	0	0	0	0	0	0	0	0	0	0	0	0	0	0	0	0	0	0	0	0	0	0	0	0	0	-1	0	-2.1508	-17.769	16.797	0	0	0	0	-1	0	-2.0278	-17.891	16.968	0	0	0	0	0	0	0	0	0	2
3366	33.66	0	0	0	0	0	0	0	0	0	0	0	0	0	0	0	0	0	0	0	0	0	0	0	0	0	0	0	0	0	0	0	0	0	10.991	-10.991	19.037	0	0	0	0	0	0	0	0	0	0	0	0	0	-1	0	-2.0278	-17.891	16.968	0	0	0	1	0	0	17.47	2.0148	16.554	2
3367	33.67	0	0	0	0	0	0	0	0	0	0	0	0	0	0	0	0	0	0	0	0	0	0	0	0	0	0	0	0	0	0	0	0	0	0	0	0	0	0	0	0	-1	0	-2.0279	-17.891	16.969	0	0	0	0	0	0	0	0	0	0	0	0	0	0	0	0	0	0	2
3368	33.68	0	0	0	0	0	0	0	0	0	0	0	0	0	0	0	0	0	0	0	0	0	0	0	0	0	0	0	0	0	0	0	0	0	0	0	0	0	0	0	0	0	0	0	0	0	0	0	0	0	-1	0	-2.0278	-17.891	16.968	0	0	0	1	0	0	17.47	2.0148	16.554	2
3369	33.69	0	0	0	0	0	0	0	0	0	0	0	0	0	0	0	0	0	0	0	0	0	0	0	0	0	0	0	0	0	0	0	0	0	0	0	0	0	0	0	0	0	0	0	0	0	0	0	0	0	0	0	0	0	0	0	0	0	0	0	0	0	0	0	2
3370	33.7	0	0	0	0	0	0	0	0	0	0	0	0	0	0	0	0	0	0	0	0	0	0	0	0	10.989	-10.989	19.033	0	0	0	0	0	0	0	0	0	0	0	0	0	-1	0	-2.0279	-17.891	16.969	0	0	0	0	0	0	0	0	0	0	0	0	0	0	0	0	0	0	2
3371	33.71	0	0	0	0	0	0	10.917	-10.917	18.908	0	0	0	0	0	0	0	0	0	0	0	0	0	0	0	0	0	0	0	0	0	0	0	0	0	0	0	0	0	0	0	0	0	0	0	0	0	0	0	0	-1	0	-2.0278	-17.891	16.968	0	0	0	0	0	0	0	0	0	2
3372	33.72	0	0	0	0	0	0	0	0	0	0	0	0	0	0	0	0	0	0	0	0	0	0	0	0	0	0	0	0	0	0	0	0	0	0	0	0	0	0	0	0	0	0	0	0	0	0	0	0	0	0	0	0	0	0	0	0	0	0	0	0	0	0	0	2
3373	33.73	0	0	0	0	0	0	10.917	-10.917	18.908	0	0	0	0	0	0	0	0	0	0	0	0	0	0	0	0	0	0	0	0	0	1	0	0	17.883	2.027	16.961	0	0	0	0	0	0	0	0	0	0	0	0	0	-1	0	-2.0278	-17.891	16.968	0	0	0	0	0	0	0	0	0	2
3374	33.74	0	0	0	0	0	0	0	0	0	0	0	0	0	0	0	0	0	0	0	0	0	0	0	0	0	0	0	0	0	0	0	0	0	0	0	0	0	0	0	0	0	0	0	0	0	0	0	0	0	-1	0	-2.0278	-17.891	16.968	0	0	0	0	0	0	0	0	0	2
3375	33.75	0	0	0	0	0	0	0	0	0	0	0	0	0	0	0	0	0	0	0	0	0	0	0	0	0	0	0	0	0	0	0	0	0	0	0	0	0	0	0	0	0	0	0	0	0	0	0	0	0	-1	0	-2.0278	-17.891	16.968	0	0	0	0	0	0	0	0	0	2
3376	33.76	0	0	0	0	0	0	0	0	0	0	0	0	0	0	0	0	0	0	0	0	0	0	0	0	0	0	0	0	0	0	0	0	0	0	0	0	0	0	0	0	0	0	0	0	0	0	0	0	0	-1	0	-2.0278	-17.891	16.968	0	0	0	0	0	0	0	0	0	2
3377	33.77	0	0	0	0	0	0	0	0	0	0	0	0	0	0	0	0	0	0	0	0	0	0	0	0	0	0	0	0	0	0	0	0	0	0	0	0	0	0	0	0	0	0	0	0	0	0	0	0	0	-1	0	-2.0278	-17.891	16.968	0	0	0	0	0	0	0	0	0	2
3378	33.78	0	0	0	0	0	0	10.917	-10.917	18.908	0	0	0	0	0	0	0	0	0	0	0	0	0	0	0	10.989	-10.989	19.033	0	0	0	0	0	0	0	0	0	0	0	0	0	0	0	0	0	0	0	0	0	0	-1	0	-2.0278	-17.891	16.968	0	0	0	1	0	0	17.47	2.0148	16.554	0
3379	33.79	0	0	0	0	0	0	0	0	0	0	0	0	0	0	0	0	0	0	0	0	0	0	0	0	0	0	0	0	0	0	0	0	0	0	0	0	0	0	0	0	0	0	0	0	0	0	0	0	0	-1	0	-2.0278	-17.891	16.968	0	0	0	0	0	0	0	0	0	2
3380	33.8	0	0	0	0	0	0	0	0	0	0	0	0	0	0	0	0	0	0	0	0	0	0	0	0	0	0	0	0	0	0	0	0	0	10.991	-10.991	19.037	0	0	0	0	0	0	10.996	-10.996	19.046	0	0	0	0	0	0	0	0	0	0	0	0	0	0	0	0	0	0	2
3381	33.81	0	0	0	0	0	0	0	0	0	0	0	0	0	0	0	0	0	0	0	0	0	0	0	0	0	0	0	0	0	0	0	0	0	0	0	0	0	0	0	0	0	0	0	0	0	0	0	0	0	-1	0	-2.0278	-17.891	16.968	0	0	0	1	0	0	17.47	2.0148	16.554	0
3382	33.82	0	0	0	0	0	0	0	0	0	0	0	0	0	0	0	0	0	0	0	0	0	0	0	0	0	0	0	0	0	0	0	0	0	10.991	-10.991	19.037	0	0	0	0	-1	0	-2.0279	-17.891	16.969	0	0	0	0	0	0	0	0	0	0	0	0	0	0	0	0	0	0	2
3383	33.83	0	0	0	0	0	0	0	0	0	0	0	0	0	0	0	0	0	0	0	0	0	0	0	0	0	0	0	0	0	0	0	0	0	0	0	0	0	0	0	0	0	0	0	0	0	0	0	0	1	-1	0	7.5503	-27.469	31.921	0	0	0	1	0	0	17.47	2.0148	16.554	2
3384	33.84	0	0	0	0	0	0	0	0	0	0	0	0	0	0	0	0	0	0	0	0	0	0	0	0	0	0	0	0	0	0	0	0	0	0	0	0	0	0	0	0	0	0	0	0	0	0	0	0	0	0	0	0	0	0	0	0	0	0	0	0	0	0	0	2
3385	33.85	0	0	0	0	0	0	0	0	0	0	0	0	0	-1	0	-2.0372	-17.821	16.895	0	0	0	0	0	0	0	0	0	0	0	0	0	0	0	0	0	0	0	0	0	0	0	0	0	0	0	0	0	0	0	-1	0	-2.0278	-17.891	16.968	0	0	0	0	0	0	0	0	0	2
3386	33.86	0	0	0	0	0	0	0	0	0	0	0	0	0	0	0	0	0	0	0	0	0	0	0	0	10.989	-10.989	19.033	0	0	0	0	0	0	10.991	-10.991	19.037	0	0	0	0	-1	0	-2.0279	-17.891	16.969	0	0	0	0	-1	0	-2.0278	-17.891	16.968	0	0	0	1	0	0	17.47	2.0148	16.554	2
3387	33.87	0	0	0	0	0	0	0	0	0	0	0	0	0	0	0	0	0	0	0	0	0	0	0	0	0	0	0	0	0	0	0	0	0	10.991	-10.991	19.037	0	0	0	0	0	0	0	0	0	0	0	0	0	-1	0	-2.0278	-17.891	16.968	0	0	0	0	0	0	0	0	0	2
3388	33.88	0	0	0	0	0	0	10.917	-10.917	18.908	0	0	0	0	0	0	0	0	0	0	0	0	0	0	0	0	0	0	0	0	0	0	0	0	0	0	0	0	0	0	0	0	0	0	0	0	0	0	0	0	-1	0	-2.0278	-17.891	16.968	0	0	0	0	0	0	0	0	0	2
3389	33.89	0	0	0	0	0	0	0	0	0	0	0	0	0	0	0	0	0	0	0	0	0	0	0	0	0	0	0	0	0	0	0	0	0	0	0	0	0	0	0	0	0	0	0	0	0	0	0	0	1	-1	0	7.5503	-27.469	31.921	0	0	0	0	0	0	0	0	0	2
3390	33.9	0	0	0	0	0	0	0	0	0	0	0	0	0	0	0	0	0	0	0	0	0	0	0	0	0	0	0	0	0	0	0	0	0	0	0	0	0	0	0	0	0	0	0	0	0	0	0	0	0	-1	0	-2.0278	-17.891	16.968	0	0	0	0	0	0	0	0	0	2
3391	33.91	0	0	0	0	0	0	0	0	0	0	0	0	0	0	0	0	0	0	0	0	0	0	0	0	0	0	0	0	0	0	0	0	0	0	0	0	0	0	0	0	0	0	0	0	0	0	0	0	1	-1	0	7.5503	-27.469	31.921	0	0	0	0	0	0	0	0	0	2
3392	33.92	0	0	0	0	0	0	0	0	0	0	0	0	0	0	0	0	0	0	0	0	0	0	0	0	0	0	0	0	0	0	0	0	0	0	0	0	0	0	0	0	0	0	10.996	-10.996	19.046	0	0	0	0	-1	0	-2.0278	-17.891	16.968	0	0	0	0	0	0	0	0	0	2
3393	33.93	0	0	0	0	0	0	0	0	0	0	0	0	0	0	0	0	0	0	0	0	0	0	0	0	0	0	0	0	0	0	1	0	0	17.761	2.1499	16.789	0	0	0	0	0	0	0	0	0	0	0	0	0	-1	0	-2.0278	-17.891	16.968	0	0	0	0	0	0	0	0	0	2
3394	33.94	0	0	0	0	0	0	0	0	0	0	0	0	0	0	0	0	0	0	0	0	0	0	0	0	0	0	0	0	0	0	0	0	0	0	0	0	0	0	0	0	0	0	10.996	-10.996	19.046	0	0	0	0	0	0	0	0	0	0	0	0	0	0	0	0	0	0	2
3395	33.95	0	0	0	0	0	0	0	0	0	0	0	0	0	0	0	0	0	0	0	0	0	0	0	0	0	0	0	0	0	0	0	0	0	0	0	0	0	0	0	0	0	0	0	0	0	0	0	0	0	0	0	0	0	0	0	0	0	0	0	0	0	0	0	2
3396	33.96	0	0	0	0	0	0	0	0	0	0	0	0	0	0	0	0	0	0	0	0	0	0	0	0	0	0	0	0	0	0	0	0	0	0	0	0	0	0	0	0	0	0	0	0	0	0	0	0	1	-1	0	7.5503	-27.469	31.921	0	0	0	1	0	0	17.47	2.0148	16.554	2
3397	33.97	0	0	0	0	0	0	0	0	0	0	0	0	0	0	0	0	0	0	0	0	0	0	0	0	0	0	0	0	0	0	0	0	0	0	0	0	0	0	0	0	-1	0	-2.0279	-17.891	16.969	0	0	0	0	0	0	0	0	0	0	0	0	0	0	0	0	0	0	2
3398	33.98	0	0	0	0	0	0	0	0	0	0	0	0	0	0	0	0	0	0	0	0	0	0	0	0	0	0	0	0	0	0	0	0	0	0	0	0	0	0	0	0	0	0	0	0	0	0	0	0	0	0	0	0	0	0	0	0	0	0	0	0	0	0	0	2
3399	33.99	0	0	0	0	0	0	0	0	0	0	0	0	0	0	0	0	0	0	0	0	0	0	0	0	0	0	0	0	0	0	0	0	0	0	0	0	0	0	0	0	-1	0	-2.1508	-17.769	16.797	0	0	0	0	-1	0	-2.0278	-17.891	16.968	0	0	0	0	0	0	0	0	0	2
3400	34	0	0	0	0	0	0	0	0	0	0	0	0	0	0	0	0	0	0	0	0	0	0	0	0	0	0	0	0	0	0	0	0	0	0	0	0	0	0	0	0	0	0	0	0	0	0	0	0	0	-1	0	-2.0278	-17.891	16.968	0	0	0	0	0	0	0	0	0	2
3401	34.01	0	0	0	0	0	0	0	0	0	0	0	0	0	0	0	0	0	0	0	0	0	0	0	0	10.989	-10.989	19.033	0	0	0	0	0	0	0	0	0	0	0	0	0	0	0	0	0	0	0	0	0	0	-1	0	-2.0278	-17.891	16.968	0	0	0	1	0	0	17.47	2.0148	16.554	2
3402	34.02	0	0	0	0	0	0	0	0	0	0	0	0	0	0	0	0	0	0	0	0	0	0	0	0	0	0	0	0	0	0	0	0	0	0	0	0	0	0	0	0	0	0	10.996	-10.996	19.046	0	0	0	0	-1	0	-2.0278	-17.891	16.968	0	0	0	0	0	0	0	0	0	2
3403	34.03	0	0	0	0	0	0	0	0	0	0	0	0	0	0	0	0	0	0	0	0	0	0	0	0	0	0	0	0	0	0	0	0	0	0	0	0	0	0	0	0	0	0	0	0	0	0	0	0	0	-1	0	-2.0278	-17.891	16.968	0	0	0	1	0	0	17.47	2.0148	16.554	2
3404	34.04	0	0	0	0	0	0	0	0	0	0	0	0	0	0	0	0	0	0	0	0	0	0	0	0	0	0	0	0	0	0	0	0	0	0	0	0	0	0	0	0	0	0	10.996	-10.996	19.046	0	0	0	0	0	0	0	0	0	0	0	0	0	0	0	0	0	0	2
3405	34.05	0	0	0	0	0	0	0	0	0	0	0	0	0	0	0	0	0	0	0	0	0	0	0	0	0	0	0	0	0	0	0	0	0	0	0	0	0	0	0	0	0	0	0	0	0	0	0	0	0	-1	0	-2.0278	-17.891	16.968	0	0	0	0	0	0	0	0	0	2
3406	34.06	0	0	0	0	0	0	0	0	0	0	0	0	0	0	0	0	0	0	0	0	0	0	0	0	0	0	0	0	0	0	0	0	0	0	0	0	0	0	0	0	0	0	0	0	0	0	0	0	0	-1	0	-2.0278	-17.891	16.968	0	0	0	1	0	0	17.47	2.0148	16.554	2
3407	34.07	0	0	0	0	0	0	0	0	0	0	0	0	0	0	0	0	0	0	0	0	0	0	0	0	0	0	0	0	0	0	1	0	0	17.883	2.027	16.961	0	0	0	0	0	0	0	0	0	0	0	0	0	-1	0	-2.0278	-17.891	16.968	0	0	0	0	0	0	0	0	0	2
3408	34.08	0	0	0	0	0	0	0	0	0	0	0	0	0	0	0	0	0	0	0	0	0	0	0	0	0	0	0	0	0	0	1	0	0	17.883	2.027	16.961	0	0	0	0	0	0	0	0	0	0	0	0	0	-1	0	-2.0278	-17.891	16.968	0	0	0	1	0	0	17.47	2.0148	16.554	2
3409	34.09	0	0	0	0	0	0	0	0	0	0	0	0	0	0	0	0	0	0	0	0	0	0	0	0	0	0	0	0	0	0	1	0	0	17.883	2.027	16.961	0	0	0	0	0	0	10.996	-10.996	19.046	0	0	0	0	-1	0	-2.0278	-17.891	16.968	0	0	0	0	0	0	0	0	0	2
3410	34.1	0	0	0	0	0	0	0	0	0	0	0	0	0	0	0	0	0	0	0	0	0	0	0	0	0	0	0	0	0	0	0	0	0	0	0	0	0	0	0	0	0	0	0	0	0	0	0	0	0	-1	0	-2.0278	-17.891	16.968	0	0	0	0	0	0	0	0	0	2
3411	34.11	0	0	0	0	0	0	0	0	0	0	0	0	0	0	0	0	0	0	0	0	0	0	0	0	0	0	0	0	0	0	1	0	0	17.883	2.027	16.961	0	0	0	0	0	0	0	0	0	0	0	0	0	-1	0	-2.0278	-17.891	16.968	0	0	0	0	0	0	0	0	0	2
3412	34.12	0	0	0	0	0	0	0	0	0	0	0	0	0	0	0	0	0	0	0	0	0	0	0	0	0	0	0	0	0	0	0	0	0	0	0	0	0	0	0	0	0	0	10.996	-10.996	19.046	0	0	0	0	-1	0	-2.0278	-17.891	16.968	0	0	0	0	0	0	0	0	0	2
3413	34.13	0	0	0	0	0	0	0	0	0	0	0	0	0	0	0	0	0	0	0	0	0	0	0	0	0	0	0	0	0	0	1	0	0	17.883	2.027	16.961	0	0	0	0	0	0	0	0	0	0	0	0	0	-1	0	-2.0278	-17.891	16.968	0	0	0	1	0	0	17.47	2.0148	16.554	2
3414	34.14	0	0	0	0	0	0	0	0	0	0	0	0	0	0	0	0	0	0	0	0	0	0	0	0	0	0	0	0	0	0	0	0	0	0	0	0	0	0	0	0	0	0	0	0	0	0	0	0	0	-1	0	-2.0278	-17.891	16.968	0	0	0	0	0	0	0	0	0	2
3415	34.15	0	0	0	0	0	0	0	0	0	0	0	0	0	0	0	0	0	0	0	0	0	0	0	0	0	0	0	0	0	0	0	-1	0	-2.0265	-17.879	16.957	0	0	0	0	0	0	0	0	0	0	0	0	0	-1	0	-2.0278	-17.891	16.968	0	0	0	1	0	0	17.47	2.0148	16.554	0
3416	34.16	0	0	0	0	0	0	0	0	0	0	0	0	0	0	0	0	0	0	0	0	0	0	0	0	0	0	0	0	0	0	0	0	0	0	0	0	0	0	0	0	0	0	0	0	0	0	0	0	0	0	0	10.994	-10.994	19.042	0	0	0	0	0	0	0	0	0	2
3417	34.17	0	0	0	0	0	0	0	0	0	0	0	0	0	0	0	0	0	0	0	0	0	0	0	0	0	0	0	0	0	0	0	0	0	0	0	0	0	0	0	0	0	0	0	0	0	0	0	0	0	-1	0	-2.0278	-17.891	16.968	0	0	0	1	0	0	17.47	2.0148	16.554	0
3418	34.18	0	0	0	0	0	0	0	0	0	0	0	0	0	0	0	0	0	0	0	0	0	0	0	0	0	0	0	0	0	0	0	0	0	0	0	0	0	0	0	0	-1	0	-2.0279	-17.891	16.969	0	0	0	1	-1	0	7.5503	-27.469	31.921	0	0	0	0	0	0	0	0	0	2
3419	34.19	0	0	0	0	0	0	0	0	0	0	0	0	0	0	0	0	0	0	0	0	0	0	0	0	10.989	-10.989	19.033	0	0	0	1	0	0	17.883	2.027	16.961	0	0	0	0	0	0	0	0	0	0	0	0	0	-1	0	-2.0278	-17.891	16.968	0	0	0	0	0	0	0	0	0	2
3420	34.2	0	0	0	0	0	0	0	0	0	0	0	0	0	0	0	0	0	0	0	0	0	0	0	0	0	0	0	0	0	0	0	0	0	0	0	0	0	0	0	0	-1	0	-2.0279	-17.891	16.969	0	0	0	0	-1	0	-2.0278	-17.891	16.968	0	0	0	0	0	0	0	0	0	2
3421	34.21	0	0	0	0	0	0	0	0	0	0	0	0	0	0	0	0	0	0	0	0	0	0	0	0	0	0	0	0	0	0	1	0	0	17.883	2.027	16.961	0	0	0	0	0	0	0	0	0	0	0	0	0	-1	0	-2.0278	-17.891	16.968	0	0	0	1	0	0	17.482	2.0162	16.566	2
3422	34.22	0	0	0	0	0	0	0	0	0	0	0	0	0	0	0	0	0	0	0	0	0	0	0	0	0	0	0	0	0	0	1	0	0	17.883	2.027	16.961	0	0	0	0	0	0	0	0	0	0	0	0	0	-1	0	-2.0278	-17.891	16.968	0	0	0	0	0	0	0	0	0	2
3423	34.23	0	0	0	0	0	0	0	0	0	0	0	0	0	0	0	0	0	0	0	0	0	0	0	0	10.989	-10.989	19.033	0	0	0	0	0	0	0	0	0	0	0	0	0	0	0	0	0	0	0	0	0	0	-1	0	-2.0278	-17.891	16.968	0	0	0	1	0	0	17.47	2.0148	16.554	2
3424	34.24	0	0	0	0	0	0	0	0	0	0	0	0	0	0	0	0	0	0	0	0	0	0	0	0	0	0	0	0	0	0	0	0	0	0	0	0	0	0	0	0	0	0	0	0	0	0	0	0	0	-1	0	-2.0278	-17.891	16.968	0	0	0	0	0	0	0	0	0	2
3425	34.25	0	0	0	0	0	0	0	0	0	0	0	0	0	0	0	0	0	0	0	0	0	0	0	0	0	0	0	0	0	0	1	0	0	17.883	2.027	16.961	0	0	0	0	0	0	0	0	0	0	0	0	0	-1	0	-2.0278	-17.891	16.968	0	0	0	0	0	0	0	0	0	0
3426	34.26	0	0	0	0	0	0	0	0	0	0	0	0	0	0	0	0	0	0	0	0	0	0	0	0	10.989	-10.989	19.033	0	0	0	0	0	0	0	0	0	0	0	0	0	0	0	0	0	0	0	0	0	0	-1	0	-2.0278	-17.891	16.968	0	0	0	0	0	0	0	0	0	2
3427	34.27	0	0	0	0	0	0	0	0	0	0	0	0	0	0	0	0	0	0	0	0	0	0	0	0	0	0	0	0	0	0	0	0	0	0	0	0	0	0	0	0	0	0	0	0	0	0	0	0	0	0	0	0	0	0	0	0	0	0	0	0	0	0	0	2
3428	34.28	0	0	0	0	0	0	0	0	0	0	0	0	0	0	0	0	0	0	0	0	0	0	0	0	0	0	0	0	0	0	0	0	0	10.991	-10.991	19.037	0	0	0	0	0	0	0	0	0	0	0	0	0	-1	0	-2.0278	-17.891	16.968	0	0	0	1	0	0	17.47	2.0148	16.554	2
3429	34.29	0	0	0	0	0	0	0	0	0	0	0	0	0	0	0	0	0	0	0	0	0	0	0	0	10.989	-10.989	19.033	0	0	0	0	0	0	0	0	0	0	0	0	0	-1	0	-2.0279	-17.891	16.969	0	0	0	0	-1	0	-2.0278	-17.891	16.968	0	0	0	1	0	0	17.47	2.0148	16.554	2
3430	34.3	0	0	0	0	0	0	0	0	0	0	0	0	0	0	0	0	0	0	0	0	0	0	0	0	0	0	0	0	0	0	0	0	0	0	0	0	0	0	0	0	-1	0	-2.0279	-17.891	16.969	0	0	0	0	-1	0	-2.0278	-17.891	16.968	0	0	0	0	0	0	0	0	0	2
3431	34.31	0	0	0	0	0	0	0	0	0	0	0	0	0	0	0	0	0	0	0	0	0	0	0	0	0	0	0	0	0	0	1	0	0	17.883	2.027	16.961	0	0	0	0	0	0	0	0	0	0	0	0	0	0	0	0	0	0	0	0	0	0	0	0	0	0	0	2
3432	34.32	0	0	0	0	0	0	0	0	0	0	0	0	0	0	0	0	0	0	0	0	0	0	0	0	0	0	0	0	0	0	0	0	0	10.991	-10.991	19.037	0	0	0	0	-1	0	-2.0279	-17.891	16.969	0	0	0	0	-1	0	-2.0278	-17.891	16.968	0	0	0	0	0	0	0	0	0	2
3433	34.33	0	0	0	0	0	0	0	0	0	0	0	0	0	0	0	0	0	0	0	0	0	0	0	0	0	0	0	0	0	0	1	0	0	17.883	2.027	16.961	0	0	0	0	0	0	0	0	0	0	0	0	0	-1	0	-2.0278	-17.891	16.968	0	0	0	0	0	0	0	0	0	2
3434	34.34	0	0	0	0	0	0	0	0	0	0	0	0	0	0	0	0	0	0	0	0	0	0	0	0	0	0	0	0	0	0	0	0	0	0	0	0	0	0	0	0	0	0	0	0	0	0	0	0	0	-1	0	-2.0278	-17.891	16.968	0	0	0	1	0	0	17.47	2.0148	16.554	2
3435	34.35	0	0	0	0	0	0	0	0	0	0	0	0	0	0	0	0	0	0	0	0	0	0	0	0	0	0	0	0	0	0	0	0	0	0	0	0	0	0	0	0	-1	0	-2.0279	-17.891	16.969	0	0	0	0	-1	0	-2.0278	-17.891	16.968	0	0	0	0	0	0	0	0	0	0
3436	34.36	0	0	0	0	0	0	0	0	0	0	0	0	0	0	0	0	0	0	0	0	0	0	0	0	0	0	0	0	0	0	1	0	0	17.883	2.027	16.961	0	0	0	0	0	0	0	0	0	0	0	0	1	-1	0	7.5503	-27.469	31.921	0	0	0	1	0	0	17.47	2.0148	16.554	2
3437	34.37	0	0	0	0	0	0	0	0	0	0	0	0	0	0	0	0	0	0	0	0	0	0	0	0	0	0	0	0	0	0	0	0	0	0	0	0	0	0	0	0	0	0	0	0	0	0	0	0	1	-1	0	7.5503	-27.469	31.921	0	0	0	0	0	0	0	0	0	2
3438	34.38	0	0	0	0	0	0	0	0	0	0	0	0	0	0	0	0	0	0	0	0	0	0	0	0	0	0	0	0	0	0	1	0	0	17.883	2.027	16.961	0	0	0	0	0	0	0	0	0	0	0	0	0	-1	0	-2.0278	-17.891	16.968	0	0	0	1	0	0	17.47	2.0148	16.554	2
3439	34.39	0	0	0	0	0	0	0	0	0	0	0	0	0	0	0	0	0	0	0	0	0	0	0	0	0	0	0	0	0	0	0	0	0	10.991	-10.991	19.037	0	0	0	0	0	0	0	0	0	0	0	0	0	-1	0	-2.0278	-17.891	16.968	0	0	0	0	0	0	0	0	0	2
3440	34.4	0	0	0	0	0	0	0	0	0	0	0	0	0	0	0	0	0	0	0	0	0	0	0	0	10.989	-10.989	19.033	0	0	0	0	0	0	0	0	0	0	0	0	0	0	0	0	0	0	0	0	0	1	-1	0	7.5503	-27.469	31.921	0	0	0	0	0	0	0	0	0	2
3441	34.41	0	0	0	0	0	0	0	0	0	0	0	0	0	0	0	0	0	0	0	0	0	0	0	0	0	0	0	0	0	0	0	0	0	10.991	-10.991	19.037	0	0	0	0	0	0	0	0	0	0	0	0	0	-1	0	-2.0278	-17.891	16.968	0	0	0	1	0	0	17.47	2.0148	16.554	0
3442	34.42	0	0	0	0	0	0	0	0	0	0	0	0	0	0	0	0	0	0	0	0	0	0	0	0	0	0	0	0	0	0	0	0	0	0	0	0	0	0	0	0	0	0	0	0	0	0	0	0	0	-1	0	-2.0278	-17.891	16.968	0	0	0	0	0	0	0	0	0	2
3443	34.43	0	0	0	0	0	0	0	0	0	0	0	0	0	0	0	0	0	0	0	0	0	0	0	0	0	0	0	0	0	0	0	0	0	0	0	0	0	0	0	0	0	0	0	0	0	0	0	0	0	-1	0	-2.0278	-17.891	16.968	0	0	0	1	0	0	17.47	2.0148	16.554	2
3444	34.44	0	0	0	0	0	0	0	0	0	0	0	0	0	0	0	0	0	0	0	0	0	0	0	0	0	0	0	0	0	0	0	0	0	0	0	0	0	0	0	0	0	0	10.996	-10.996	19.046	0	0	0	0	-1	0	-2.0278	-17.891	16.968	0	0	0	0	0	0	0	0	0	2
3445	34.45	0	0	0	0	0	0	0	0	0	0	0	0	0	0	0	0	0	0	0	0	0	0	0	0	0	0	0	0	0	0	0	0	0	0	0	0	0	0	0	0	0	0	0	0	0	0	0	0	0	-1	0	-2.0278	-17.891	16.968	0	0	0	0	0	0	0	0	0	2
3446	34.46	0	0	0	0	0	0	0	0	0	0	0	0	0	0	0	0	0	0	0	0	0	0	0	0	0	0	0	0	0	0	0	0	0	10.991	-10.991	19.037	0	0	0	0	-1	0	-2.0279	-17.891	16.969	0	0	0	0	-1	0	-2.0278	-17.891	16.968	0	0	0	1	0	0	17.47	2.0148	16.554	2
3447	34.47	0	0	0	0	0	0	10.917	-10.917	18.908	0	0	0	0	0	0	0	0	0	0	0	0	0	0	0	0	0	0	0	0	0	0	-1	0	-2.0265	-17.879	16.957	0	0	0	0	0	0	10.996	-10.996	19.046	0	0	0	0	0	0	0	0	0	0	0	0	0	0	0	0	0	0	2
3448	34.48	0	0	0	0	0	0	0	0	0	0	0	0	0	0	0	0	0	0	0	0	0	0	0	0	0	0	0	0	0	0	0	0	0	10.991	-10.991	19.037	0	0	0	0	0	0	0	0	0	0	0	0	0	-1	0	-2.0278	-17.891	16.968	0	0	0	1	0	0	17.47	2.0148	16.554	2
3449	34.49	0	0	0	0	0	0	0	0	0	0	0	0	0	0	0	0	0	0	0	0	0	0	0	0	10.989	-10.989	19.033	0	0	0	0	0	0	0	0	0	0	0	0	0	0	0	0	0	0	0	0	0	0	-1	0	-2.0278	-17.891	16.968	0	0	0	1	0	0	17.47	2.0148	16.554	2
3450	34.5	0	0	0	0	0	0	0	0	0	0	0	0	0	0	0	0	0	0	0	0	0	0	0	0	0	0	0	0	0	0	0	0	0	0	0	0	0	0	0	0	0	0	0	0	0	0	0	0	0	-1	0	-2.0278	-17.891	16.968	0	0	0	1	0	0	17.47	2.0148	16.554	2
3451	34.51	0	0	0	0	0	0	0	0	0	0	0	0	0	0	0	0	0	0	0	0	0	0	0	0	0	0	0	0	0	0	1	0	0	17.883	2.027	16.961	0	0	0	0	0	0	10.996	-10.996	19.046	0	0	0	0	-1	0	-2.0278	-17.891	16.968	0	0	0	0	0	0	0	0	0	0
3452	34.52	0	0	0	0	0	0	0	0	0	0	0	0	0	0	0	0	0	0	0	0	0	0	0	0	0	0	0	0	0	0	0	0	0	0	0	0	0	0	0	0	0	0	0	0	0	0	0	0	0	-1	0	-2.0278	-17.891	16.968	0	0	0	0	0	0	0	0	0	2
3453	34.53	0	0	0	0	0	0	0	0	0	0	0	0	0	0	0	0	0	0	0	0	0	0	0	0	0	0	0	0	0	0	0	0	0	0	0	0	0	0	0	0	0	0	10.996	-10.996	19.046	0	0	0	0	-1	0	-2.0278	-17.891	16.968	0	0	0	1	0	0	17.47	2.0148	16.554	2
3454	34.54	0	0	0	0	0	0	0	0	0	0	0	0	0	0	0	0	0	0	0	0	0	0	0	0	0	0	0	0	0	0	0	0	0	10.991	-10.991	19.037	0	0	0	0	-1	0	-2.0279	-17.891	16.969	0	0	0	0	-1	0	-2.0278	-17.891	16.968	0	0	0	0	0	0	0	0	0	0
3455	34.55	0	0	0	0	0	0	0	0	0	0	0	0	0	0	0	0	0	0	0	0	0	0	0	0	0	0	0	0	0	0	1	0	0	17.883	2.027	16.961	0	0	0	0	0	0	0	0	0	0	0	0	0	-1	0	-2.0278	-17.891	16.968	0	0	0	0	0	0	0	0	0	2
3456	34.56	0	0	0	0	0	0	0	0	0	0	0	0	0	0	0	0	0	0	0	0	0	0	0	0	10.989	-10.989	19.033	0	0	0	1	0	0	17.883	2.027	16.961	0	0	0	0	0	0	0	0	0	0	0	0	0	0	0	10.994	-10.994	19.042	0	0	0	0	0	0	0	0	0	2
3457	34.57	0	0	0	0	0	0	0	0	0	0	0	0	0	0	0	0	0	0	0	0	0	0	0	0	0	0	0	0	0	0	0	0	0	10.991	-10.991	19.037	0	0	0	0	0	0	0	0	0	0	0	0	0	-1	0	-2.0278	-17.891	16.968	0	0	0	0	0	0	0	0	0	2
3458	34.58	0	0	0	0	0	0	0	0	0	0	0	0	0	0	0	0	0	0	0	0	0	0	0	0	0	0	0	0	0	0	1	0	0	17.883	2.027	16.961	0	0	0	0	0	0	0	0	0	0	0	0	0	-1	0	-2.0278	-17.891	16.968	0	0	0	1	0	0	17.47	2.0148	16.554	2
3459	34.59	0	0	0	0	0	0	0	0	0	0	0	0	0	0	0	0	0	0	0	0	0	0	0	0	0	0	0	0	0	0	0	0	0	0	0	0	0	0	0	0	0	0	0	0	0	0	0	0	0	0	0	0	0	0	0	0	0	1	0	0	17.47	2.0148	16.554	2
3460	34.6	0	0	0	0	0	0	0	0	0	0	0	0	0	0	0	0	0	0	0	0	0	0	0	0	0	0	0	0	0	0	1	0	0	17.883	2.027	16.961	0	0	0	0	-1	0	-2.0279	-17.891	16.969	0	0	0	0	-1	0	-2.0278	-17.891	16.968	0	0	0	0	0	0	0	0	0	2
3461	34.61	0	0	0	0	0	0	0	0	0	0	0	0	0	0	0	0	0	0	0	0	0	0	0	0	0	0	0	0	0	0	0	0	0	10.991	-10.991	19.037	0	0	0	0	0	0	0	0	0	0	0	0	0	0	0	0	0	0	0	0	0	0	0	0	0	0	0	2
3462	34.62	0	0	0	0	0	0	0	0	0	0	0	0	0	0	0	0	0	0	0	0	0	0	0	0	0	0	0	0	0	0	0	0	0	0	0	0	0	0	0	0	-1	0	-2.1508	-17.769	16.797	0	0	0	0	-1	0	-2.0278	-17.891	16.968	0	0	0	0	0	0	0	0	0	0
3463	34.63	0	0	0	0	0	0	0	0	0	0	0	0	0	0	0	0	0	0	0	0	0	0	0	0	0	0	0	0	0	0	1	0	0	17.883	2.027	16.961	0	0	0	0	0	0	0	0	0	0	0	0	0	-1	0	-2.0278	-17.891	16.968	0	0	0	0	0	0	0	0	0	2
3464	34.64	0	0	0	0	0	0	0	0	0	0	0	0	0	0	0	0	0	0	0	0	0	0	0	0	0	0	0	0	0	0	1	0	0	17.883	2.027	16.961	0	0	0	0	0	0	0	0	0	0	0	0	0	-1	0	-2.0278	-17.891	16.968	0	0	0	0	0	0	0	0	0	2
3465	34.65	0	0	0	0	0	0	10.917	-10.917	18.908	0	0	0	0	0	0	0	0	0	0	0	0	0	0	0	0	0	0	0	0	0	0	0	0	0	0	0	0	0	0	0	0	0	0	0	0	0	0	0	0	-1	0	-2.0278	-17.891	16.968	0	0	0	0	0	0	0	0	0	2
3466	34.66	0	0	0	0	0	0	0	0	0	0	0	0	0	0	0	0	0	0	0	0	0	0	0	0	0	0	0	0	0	0	0	0	0	10.991	-10.991	19.037	0	0	0	0	0	0	0	0	0	0	0	0	0	-1	0	-2.0278	-17.891	16.968	0	0	0	0	0	0	0	0	0	2
3467	34.67	0	0	0	0	0	0	0	0	0	0	0	0	0	0	0	0	0	0	0	0	0	0	0	0	0	0	0	0	0	0	1	0	0	17.883	2.027	16.961	0	0	0	0	0	0	0	0	0	0	0	0	0	0	0	0	0	0	0	0	0	0	0	0	0	0	0	2
3468	34.68	0	0	0	0	0	0	0	0	0	0	0	0	0	0	0	0	0	0	0	0	0	0	0	0	10.989	-10.989	19.033	0	0	0	1	0	0	17.761	2.1499	16.789	0	0	0	0	0	0	0	0	0	0	0	0	0	-1	0	-2.0278	-17.891	16.968	0	0	0	0	0	0	0	0	0	2
3469	34.69	0	0	0	0	0	0	0	0	0	0	0	0	0	0	0	0	0	0	0	0	0	0	0	0	0	0	0	0	0	0	1	0	0	17.883	2.027	16.961	0	0	0	0	-1	0	-2.0279	-17.891	16.969	0	0	0	0	-1	0	-2.0278	-17.891	16.968	0	0	0	0	0	0	0	0	0	2
3470	34.7	0	0	0	0	0	0	0	0	0	0	0	0	0	0	0	0	0	0	0	0	0	0	0	0	0	0	0	0	0	0	1	0	0	17.883	2.027	16.961	0	0	0	0	0	0	0	0	0	0	0	0	0	-1	0	-2.0278	-17.891	16.968	0	0	0	0	0	0	0	0	0	2
3471	34.71	0	0	0	0	0	0	0	0	0	0	0	0	0	0	0	0	0	0	0	0	0	0	0	0	0	0	0	0	0	0	1	0	0	17.883	2.027	16.961	0	0	0	0	0	0	0	0	0	0	0	0	0	-1	0	-2.0278	-17.891	16.968	0	0	0	1	0	0	17.471	2.0135	16.556	2
3472	34.72	0	0	0	0	0	0	0	0	0	0	0	0	0	0	0	0	0	0	0	0	0	0	0	0	0	0	0	0	0	0	0	0	0	0	0	0	0	0	0	0	0	0	0	0	0	0	0	0	0	-1	0	-2.0278	-17.891	16.968	0	0	0	0	0	0	0	0	0	2
3473	34.73	0	0	0	0	0	0	0	0	0	0	0	0	0	0	0	0	0	0	0	0	0	0	0	0	0	0	0	0	0	0	1	0	0	17.883	2.027	16.961	0	0	0	0	0	0	0	0	0	0	0	0	0	-1	0	-2.0278	-17.891	16.968	0	0	0	1	0	0	17.471	2.0135	16.556	2
3474	34.74	0	0	0	0	0	0	0	0	0	0	0	0	0	0	0	0	0	0	0	0	0	0	0	0	0	0	0	0	0	0	0	0	0	0	0	0	0	0	0	0	0	0	0	0	0	0	0	0	0	-1	0	-2.0278	-17.891	16.968	0	0	0	0	0	0	0	0	0	2
3475	34.75	0	0	0	0	0	0	0	0	0	0	0	0	0	0	0	0	0	0	0	0	0	0	0	0	0	0	0	0	0	0	0	0	0	0	0	0	0	0	0	0	-1	0	-2.0279	-17.891	16.969	0	0	0	0	0	0	0	0	0	0	0	0	0	0	0	0	0	0	2
3476	34.76	0	0	0	0	0	0	0	0	0	0	0	0	0	0	0	0	0	0	0	0	0	0	0	0	0	0	0	0	0	0	0	0	0	0	0	0	0	0	0	0	0	0	0	0	0	0	0	0	0	-1	0	-2.0278	-17.891	16.968	0	0	0	0	0	0	0	0	0	2
3477	34.77	0	0	0	0	0	0	0	0	0	0	0	0	0	0	0	0	0	0	0	0	0	0	0	0	0	0	0	0	0	0	0	0	0	0	0	0	0	0	0	0	0	0	10.996	-10.996	19.046	0	0	0	0	-1	0	-2.0278	-17.891	16.968	0	0	0	0	0	0	0	0	0	2
3478	34.78	0	0	0	0	0	0	10.917	-10.917	18.908	0	0	0	0	0	0	0	0	0	0	0	0	0	0	0	0	0	0	0	0	0	0	0	0	0	0	0	0	0	0	0	0	0	0	0	0	0	0	0	0	0	0	0	0	0	0	0	0	1	0	0	17.47	2.0148	16.554	2
3479	34.79	0	0	0	0	0	0	10.917	-10.917	18.908	0	0	0	0	0	0	0	0	0	0	0	0	0	0	0	0	0	0	0	0	0	1	0	0	17.883	2.027	16.961	0	0	0	0	-1	0	-2.0279	-17.891	16.969	0	0	0	0	-1	0	-2.0278	-17.891	16.968	0	0	0	0	0	0	0	0	0	2
3480	34.8	0	0	0	0	0	0	0	0	0	0	0	0	0	0	0	0	0	0	0	0	0	0	0	0	0	0	0	0	0	0	1	0	0	17.883	2.027	16.961	0	0	0	0	0	0	0	0	0	0	0	0	0	-1	0	-2.0278	-17.891	16.968	0	0	0	0	0	0	0	0	0	0
3481	34.81	0	0	0	0	0	0	0	0	0	0	0	0	0	0	0	0	0	0	0	0	0	0	0	0	0	0	0	0	0	0	0	0	0	0	0	0	0	0	0	0	0	0	0	0	0	0	0	0	0	-1	0	-2.0278	-17.891	16.968	0	0	0	1	0	0	17.47	2.0148	16.554	2
3482	34.82	0	0	0	0	0	0	0	0	0	0	0	0	0	0	0	0	0	0	0	0	0	0	0	0	0	0	0	0	0	0	0	0	0	0	0	0	0	0	0	0	0	0	0	0	0	0	0	0	0	0	0	0	0	0	0	0	0	0	0	0	0	0	0	2
3483	34.83	0	0	0	0	0	0	0	0	0	0	0	0	0	0	0	0	0	0	0	0	0	0	0	0	0	0	0	0	0	0	0	0	0	10.991	-10.991	19.037	0	0	0	0	0	0	0	0	0	0	0	0	0	-1	0	-2.0278	-17.891	16.968	0	0	0	1	0	0	17.47	2.0148	16.554	2
3484	34.84	0	0	0	0	0	0	0	0	0	0	0	0	0	0	0	0	0	0	0	0	0	0	0	0	10.989	-10.989	19.033	0	0	0	0	0	0	0	0	0	0	0	0	0	0	0	0	0	0	0	0	0	0	-1	0	-2.0278	-17.891	16.968	0	0	0	0	0	0	0	0	0	2
3485	34.85	0	0	0	0	0	0	0	0	0	0	0	0	0	0	0	0	0	0	0	0	0	0	0	0	0	0	0	0	0	0	0	0	0	10.991	-10.991	19.037	0	0	0	0	0	0	0	0	0	0	0	0	0	-1	0	-2.0278	-17.891	16.968	0	0	0	0	0	0	0	0	0	2
3486	34.86	0	0	0	0	0	0	0	0	0	0	0	0	0	0	0	0	0	0	0	0	0	0	0	0	0	0	0	0	0	0	1	0	0	17.883	2.027	16.961	0	0	0	0	0	0	0	0	0	0	0	0	0	0	0	0	0	0	0	0	0	0	0	0	0	0	0	2
3487	34.87	0	0	0	0	0	0	0	0	0	0	0	0	0	0	0	0	0	0	0	0	0	0	0	0	0	0	0	0	0	0	0	0	0	0	0	0	0	0	0	0	0	0	0	0	0	0	0	0	0	-1	0	-2.0278	-17.891	16.968	0	0	0	1	0	0	17.47	2.0148	16.554	2
3488	34.88	0	0	0	0	0	0	0	0	0	0	0	0	0	0	0	0	0	0	0	0	0	0	0	0	0	0	0	0	0	0	0	0	0	0	0	0	0	0	0	0	0	0	0	0	0	0	0	0	0	-1	0	-2.0278	-17.891	16.968	0	0	0	0	0	0	10.93	-10.93	18.931	2
3489	34.89	0	0	0	0	0	0	0	0	0	0	0	0	0	0	0	0	0	0	0	0	0	0	0	0	0	0	0	0	0	0	0	0	0	0	0	0	0	0	0	0	0	0	0	0	0	0	0	0	0	-1	0	-2.0278	-17.891	16.968	0	0	0	0	0	0	0	0	0	0
3490	34.9	0	0	0	0	0	0	0	0	0	0	0	0	0	0	0	0	0	0	0	0	0	0	0	0	0	0	0	0	0	0	1	0	0	17.761	2.1499	16.789	0	0	0	0	0	0	0	0	0	0	0	0	1	-1	0	7.5503	-27.469	31.921	0	0	0	0	0	0	0	0	0	2
3491	34.91	0	0	0	0	0	0	10.917	-10.917	18.908	0	0	0	0	0	0	0	0	0	0	0	0	0	0	0	0	0	0	0	0	0	0	0	0	10.991	-10.991	19.037	0	0	0	0	0	0	0	0	0	0	0	0	0	0	0	0	0	0	0	0	0	1	0	0	17.47	2.0148	16.554	0
3492	34.92	0	0	0	0	0	0	0	0	0	0	0	0	0	0	0	0	0	0	0	0	0	0	0	0	0	0	0	0	0	0	0	0	0	0	0	0	0	0	0	0	0	0	0	0	0	0	0	0	0	-1	0	-2.0278	-17.891	16.968	0	0	0	0	0	0	0	0	0	2
3493	34.93	0	0	0	0	0	0	0	0	0	0	0	0	0	0	0	0	0	0	0	0	0	0	0	0	0	0	0	0	0	0	1	0	0	17.761	2.1499	16.789	0	0	0	0	0	0	0	0	0	0	0	0	0	-1	0	-2.0278	-17.891	16.968	0	0	0	1	0	0	17.47	2.0148	16.554	2
3494	34.94	0	0	0	0	0	0	0	0	0	0	0	0	0	0	0	0	0	0	0	0	0	0	0	0	0	0	0	0	0	0	0	0	0	0	0	0	0	0	0	0	0	0	0	0	0	0	0	0	0	-1	0	-2.0278	-17.891	16.968	0	0	0	0	0	0	0	0	0	2
3495	34.95	0	0	0	0	0	0	0	0	0	0	0	0	0	0	0	0	0	0	0	0	0	0	0	0	0	0	0	0	0	0	1	0	0	17.883	2.027	16.961	0	0	0	0	0	0	0	0	0	0	0	0	0	-1	0	-2.0278	-17.891	16.968	0	0	0	1	0	0	17.47	2.0148	16.554	2
3496	34.96	0	0	0	0	0	0	0	0	0	0	0	0	0	0	0	0	0	0	0	0	0	0	0	0	0	0	0	0	0	0	0	0	0	10.991	-10.991	19.037	0	0	0	0	0	0	0	0	0	0	0	0	0	-1	0	-2.0278	-17.891	16.968	0	0	0	0	0	0	0	0	0	2
3497	34.97	0	0	0	0	0	0	0	0	0	0	0	0	0	0	0	0	0	0	0	0	0	0	0	0	0	0	0	0	0	0	0	0	0	0	0	0	0	0	0	0	0	0	0	0	0	0	0	0	0	0	0	0	0	0	0	0	0	0	0	0	0	0	0	2
3498	34.98	0	0	0	0	0	0	0	0	0	0	0	0	0	0	0	0	0	0	0	0	0	0	0	0	0	0	0	0	0	0	1	0	0	17.761	2.1499	16.789	0	0	0	0	0	0	0	0	0	0	0	0	0	-1	0	-2.0278	-17.891	16.968	0	0	0	0	0	0	0	0	0	2
3499	34.99	0	0	0	0	0	0	0	0	0	0	0	0	0	0	0	0	0	0	0	0	0	0	0	0	0	0	0	0	0	0	0	0	0	0	0	0	0	0	0	0	0	0	10.996	-10.996	19.046	0	0	0	0	-1	0	-2.0278	-17.891	16.968	0	0	0	0	0	0	0	0	0	2
3500	35	0	0	0	0	0	0	0	0	0	0	0	0	0	0	0	0	0	0	0	0	0	0	0	0	0	0	0	0	0	0	0	0	0	0	0	0	0	0	0	0	0	0	0	0	0	0	0	0	0	-1	0	-2.0278	-17.891	16.968	0	0	0	0	0	0	0	0	0	2
3501	35.01	0	0	0	0	0	0	0	0	0	0	0	0	0	0	0	0	0	0	0	0	0	0	0	0	0	0	0	0	0	0	1	0	0	17.761	2.1499	16.789	0	0	0	0	0	0	0	0	0	0	0	0	0	0	0	10.994	-10.994	19.042	0	0	0	1	0	0	17.47	2.0148	16.554	2
3502	35.02	0	0	0	0	0	0	0	0	0	0	0	0	0	0	0	0	0	0	0	0	0	0	0	0	10.989	-10.989	19.033	0	0	0	0	0	0	0	0	0	0	0	0	0	0	0	0	0	0	0	0	0	0	-1	0	-2.0278	-17.891	16.968	0	0	0	0	0	0	0	0	0	2
3503	35.03	0	0	0	0	0	0	10.917	-10.917	18.908	0	0	0	0	0	0	0	0	0	0	0	0	0	0	0	0	0	0	0	0	0	1	0	0	17.883	2.027	16.961	0	0	0	0	0	0	0	0	0	0	0	0	0	-1	0	-2.0278	-17.891	16.968	0	0	0	0	0	0	0	0	0	2
3504	35.04	0	0	0	0	0	0	0	0	0	0	0	0	0	0	0	0	0	0	0	0	0	0	0	0	0	0	0	0	0	0	1	0	0	17.883	2.027	16.961	0	0	0	0	0	0	0	0	0	0	0	0	0	-1	0	-2.0278	-17.891	16.968	0	0	0	0	0	0	0	0	0	2
3505	35.05	0	0	0	0	0	0	0	0	0	0	0	0	0	0	0	0	0	0	0	0	0	0	0	0	0	0	0	0	0	0	1	0	0	17.761	2.1499	16.789	0	0	0	0	0	0	0	0	0	0	0	0	0	-1	0	-2.0278	-17.891	16.968	0	0	0	0	0	0	0	0	0	2
3506	35.06	0	0	0	0	0	0	10.917	-10.917	18.908	0	0	0	0	0	0	0	0	0	0	0	0	0	0	0	10.989	-10.989	19.033	0	0	0	1	0	0	17.883	2.027	16.961	0	0	0	0	0	0	0	0	0	0	0	0	1	-1	0	7.5503	-27.469	31.921	0	0	0	0	0	0	0	0	0	2
3507	35.07	0	0	0	0	0	0	0	0	0	0	0	0	0	0	0	0	0	0	0	0	0	0	0	0	0	0	0	0	0	0	0	0	0	0	0	0	0	0	0	0	0	0	10.996	-10.996	19.046	0	0	0	0	-1	0	-2.0278	-17.891	16.968	0	0	0	0	0	0	0	0	0	2
3508	35.08	0	0	0	0	0	0	0	0	0	0	0	0	0	0	0	0	0	0	0	0	0	0	0	0	10.989	-10.989	19.033	0	0	0	1	0	0	17.761	2.1499	16.789	0	0	0	0	0	0	0	0	0	0	0	0	0	-1	0	-2.0278	-17.891	16.968	0	0	0	0	0	0	0	0	0	2
3509	35.09	0	0	0	0	0	0	0	0	0	0	0	0	0	0	0	0	0	0	0	0	0	0	0	0	0	0	0	0	0	0	0	0	0	10.991	-10.991	19.037	0	0	0	0	0	0	0	0	0	0	0	0	0	-1	0	-2.0278	-17.891	16.968	0	0	0	0	0	0	0	0	0	2
3510	35.1	0	0	0	0	0	0	0	0	0	0	0	0	0	0	0	0	0	0	0	0	0	0	0	0	0	0	0	0	0	0	1	0	0	17.883	2.027	16.961	0	0	0	0	-1	0	-2.0279	-17.891	16.969	0	0	0	0	-1	0	-2.0278	-17.891	16.968	0	0	0	0	0	0	0	0	0	2
3511	35.11	0	0	0	0	0	0	0	0	0	0	0	0	0	0	0	0	0	0	0	0	0	0	0	0	0	0	0	0	0	0	1	0	0	17.883	2.027	16.961	0	0	0	0	0	0	0	0	0	0	0	0	0	-1	0	-2.0278	-17.891	16.968	0	0	0	1	0	0	17.47	2.0148	16.554	2
3512	35.12	0	0	0	0	0	0	0	0	0	0	0	0	0	0	0	0	0	0	0	0	0	0	0	0	0	0	0	0	0	0	0	0	0	0	0	0	0	0	0	0	0	0	0	0	0	0	0	0	0	-1	0	-2.0278	-17.891	16.968	0	0	0	0	0	0	0	0	0	2
3513	35.13	0	0	0	0	0	0	0	0	0	0	0	0	0	0	0	0	0	0	0	0	0	0	0	0	0	0	0	0	0	0	0	0	0	0	0	0	0	0	0	0	0	0	0	0	0	0	0	0	0	-1	0	-2.0278	-17.891	16.968	0	0	0	1	0	0	17.47	2.0148	16.554	2
3514	35.14	0	0	0	0	0	0	0	0	0	0	0	0	0	0	0	0	0	0	0	0	0	0	0	0	0	0	0	0	0	0	0	0	0	10.991	-10.991	19.037	0	0	0	0	0	0	0	0	0	0	0	0	0	-1	0	-2.0278	-17.891	16.968	0	0	0	0	0	0	0	0	0	2
3515	35.15	0	0	0	0	0	0	0	0	0	0	0	0	0	0	0	0	0	0	0	0	0	0	0	0	10.989	-10.989	19.033	0	0	0	1	0	0	17.883	2.027	16.961	0	0	0	0	0	0	0	0	0	0	0	0	1	-1	0	7.5503	-27.469	31.921	0	0	0	0	0	0	0	0	0	2
3516	35.16	0	0	0	0	0	0	0	0	0	0	0	0	0	0	0	0	0	0	0	0	0	0	0	0	0	0	0	0	0	0	1	0	0	17.883	2.027	16.961	0	0	0	0	0	0	0	0	0	0	0	0	0	0	0	0	0	0	0	0	0	0	0	0	0	0	0	2
3517	35.17	0	0	0	0	0	0	10.917	-10.917	18.908	0	0	0	0	0	0	0	0	0	0	0	0	0	0	0	0	0	0	0	0	0	0	0	0	0	0	0	0	0	0	0	0	0	0	0	0	0	0	0	0	-1	0	-2.0278	-17.891	16.968	0	0	0	0	0	0	0	0	0	2
3518	35.18	0	0	0	0	0	0	0	0	0	0	0	0	0	0	0	0	0	0	0	0	0	0	0	0	0	0	0	0	0	0	1	0	0	17.883	2.027	16.961	0	0	0	0	0	0	0	0	0	0	0	0	1	-1	0	7.5503	-27.469	31.921	0	0	0	0	0	0	0	0	0	2
3519	35.19	0	0	0	0	0	0	0	0	0	0	0	0	0	0	0	0	0	0	0	0	0	0	0	0	0	0	0	0	0	0	0	0	0	0	0	0	0	0	0	0	0	0	0	0	0	0	0	0	0	-1	0	-2.0278	-17.891	16.968	0	0	0	0	0	0	0	0	0	2
3520	35.2	0	0	0	0	0	0	0	0	0	0	0	0	0	0	0	0	0	0	0	0	0	0	0	0	0	0	0	0	0	0	0	0	0	0	0	0	0	0	0	0	0	0	0	0	0	0	0	0	0	0	0	0	0	0	0	0	0	0	0	0	0	0	0	2
3521	35.21	0	0	0	0	0	0	0	0	0	0	0	0	0	0	0	0	0	0	0	0	0	0	0	0	0	0	0	0	0	0	0	0	0	10.991	-10.991	19.037	0	0	0	0	0	0	0	0	0	0	0	0	0	-1	0	-2.0278	-17.891	16.968	0	0	0	0	0	0	0	0	0	2
3522	35.22	0	0	0	0	0	0	0	0	0	0	0	0	0	0	0	0	0	0	0	0	0	0	0	0	0	0	0	0	0	0	0	0	0	0	0	0	0	0	0	0	0	0	0	0	0	0	0	0	0	0	0	0	0	0	0	0	0	0	0	0	0	0	0	0
3523	35.23	0	0	0	0	0	0	0	0	0	0	0	0	0	0	0	0	0	0	0	0	0	0	0	0	0	0	0	0	0	0	1	0	0	17.883	2.027	16.961	0	0	0	0	0	0	0	0	0	0	0	0	0	0	0	0	0	0	0	0	0	0	0	0	0	0	0	2
3524	35.24	0	0	0	0	0	0	0	0	0	0	0	0	0	0	0	0	0	0	0	0	0	0	0	0	10.989	-10.989	19.033	0	0	0	0	0	0	0	0	0	0	0	0	0	0	0	0	0	0	0	0	0	0	-1	0	-2.0278	-17.891	16.968	0	0	0	0	0	0	0	0	0	2
3525	35.25	0	0	0	0	0	0	0	0	0	0	0	0	0	0	0	0	0	0	0	0	0	0	0	0	0	0	0	0	0	0	0	0	0	0	0	0	0	0	0	0	0	0	0	0	0	0	0	0	0	-1	0	-2.0278	-17.891	16.968	0	0	0	0	0	0	0	0	0	2
3526	35.26	0	0	0	0	0	0	10.917	-10.917	18.908	0	0	0	0	0	0	0	0	0	0	0	0	0	0	0	10.989	-10.989	19.033	0	0	0	1	0	0	17.883	2.027	16.961	0	0	0	0	0	0	0	0	0	0	0	0	0	-1	0	-2.0278	-17.891	16.968	0	0	0	1	0	0	17.47	2.0148	16.554	2
3527	35.27	0	0	0	0	0	0	0	0	0	0	0	0	0	0	0	0	0	0	0	0	0	0	0	0	0	0	0	0	0	0	0	0	0	0	0	0	0	0	0	0	0	0	0	0	0	0	0	0	0	0	0	0	0	0	0	0	0	0	0	0	0	0	0	0
3528	35.28	0	0	0	0	0	0	0	0	0	0	0	0	0	0	0	0	0	0	0	0	0	0	0	0	0	0	0	0	0	0	1	0	0	17.883	2.027	16.961	0	0	0	0	0	0	0	0	0	0	0	0	0	-1	0	-2.0278	-17.891	16.968	0	0	0	1	0	0	17.47	2.0148	16.554	2
3529	35.29	0	0	0	0	0	0	0	0	0	0	0	0	0	0	0	0	0	0	0	0	0	0	0	0	0	0	0	0	0	0	1	0	0	17.883	2.027	16.961	0	0	0	0	-1	0	-2.0279	-17.891	16.969	0	0	0	0	-1	0	-2.0278	-17.891	16.968	0	0	0	0	0	0	10.93	-10.93	18.931	2
3530	35.3	0	0	0	0	0	0	0	0	0	0	0	0	0	0	0	0	0	0	0	0	0	0	0	0	0	0	0	0	0	0	1	0	0	17.761	2.1499	16.789	0	0	0	0	0	0	0	0	0	0	0	0	0	0	0	0	0	0	0	0	0	0	0	0	0	0	0	2
3531	35.31	0	0	0	0	0	0	0	0	0	0	0	0	0	0	0	0	0	0	0	0	0	0	0	0	10.989	-10.989	19.033	0	0	0	1	0	0	17.883	2.027	16.961	0	0	0	0	0	0	0	0	0	0	0	0	0	-1	0	-2.0278	-17.891	16.968	0	0	0	0	0	0	0	0	0	2
3532	35.32	0	0	0	0	0	0	0	0	0	0	0	0	0	0	0	0	0	0	0	0	0	0	0	0	0	0	0	0	0	0	0	0	0	0	0	0	0	0	0	0	-1	0	-2.0279	-17.891	16.969	0	0	0	0	-1	0	-2.0278	-17.891	16.968	0	0	0	0	0	0	0	0	0	2
3533	35.33	0	0	0	0	0	0	10.917	-10.917	18.908	0	0	0	0	0	0	0	0	0	0	0	0	0	0	0	0	0	0	0	0	0	0	0	0	0	0	0	0	0	0	0	0	0	0	0	0	0	0	0	0	0	0	0	0	0	0	0	0	1	0	0	17.47	2.0148	16.554	0
3534	35.34	0	0	0	0	0	0	0	0	0	0	0	0	0	0	0	0	0	0	0	0	0	0	0	0	0	0	0	0	0	0	0	0	0	0	0	0	0	0	0	0	-1	0	-2.0279	-17.891	16.969	0	0	0	0	-1	0	-2.0278	-17.891	16.968	0	0	0	0	0	0	0	0	0	2
3535	35.35	0	0	0	0	0	0	0	0	0	0	0	0	0	0	0	0	0	0	0	0	0	0	0	0	0	0	0	0	0	0	0	0	0	0	0	0	0	0	0	0	0	0	0	0	0	0	0	0	0	-1	0	-2.0278	-17.891	16.968	0	0	0	0	0	0	0	0	0	2
3536	35.36	0	0	0	0	0	0	0	0	0	0	0	0	0	0	0	0	0	0	0	0	0	0	0	0	0	0	0	0	0	0	1	0	0	17.761	2.1499	16.789	0	0	0	0	-1	0	-2.0279	-17.891	16.969	0	0	0	0	-1	0	-2.0278	-17.891	16.968	0	0	0	0	0	0	0	0	0	0
3537	35.37	0	0	0	0	0	0	0	0	0	0	0	0	0	0	0	0	0	0	0	0	0	0	0	0	0	0	0	0	0	0	0	0	0	0	0	0	0	0	0	0	-1	0	-2.1508	-17.769	16.797	0	0	0	0	-1	0	-2.0278	-17.891	16.968	0	0	0	0	0	0	0	0	0	2
3538	35.38	0	0	0	0	0	0	0	0	0	0	0	0	0	0	0	0	0	0	0	0	0	0	0	0	0	0	0	0	0	0	0	0	0	0	0	0	0	0	0	0	-1	0	-2.0279	-17.891	16.969	0	0	0	0	-1	0	-2.0278	-17.891	16.968	0	0	0	1	0	0	17.47	2.0148	16.554	2
3539	35.39	0	0	0	0	0	0	0	0	0	0	0	0	0	0	0	0	0	0	0	0	0	0	0	0	0	0	0	0	0	0	0	0	0	0	0	0	0	0	0	0	0	0	0	0	0	0	0	0	0	0	0	0	0	0	0	0	0	0	0	0	0	0	0	0
3540	35.4	0	0	0	0	0	0	0	0	0	0	0	0	0	0	0	0	0	0	0	0	0	0	0	0	0	0	0	0	0	0	0	0	0	0	0	0	0	0	0	0	0	0	0	0	0	0	0	0	0	-1	0	-2.0278	-17.891	16.968	0	0	0	1	0	0	17.47	2.0148	16.554	2
3541	35.41	0	0	0	0	0	0	0	0	0	0	0	0	0	0	0	0	0	0	0	0	0	0	0	0	10.989	-10.989	19.033	0	0	0	0	0	0	0	0	0	0	0	0	0	0	0	0	0	0	0	0	0	0	0	0	0	0	0	0	0	0	0	0	0	0	0	0	2
3542	35.42	0	0	0	0	0	0	0	0	0	0	0	0	0	0	0	0	0	0	0	0	0	0	0	0	0	0	0	0	0	0	0	0	0	0	0	0	0	0	0	0	0	0	0	0	0	0	0	0	0	-1	0	-2.0278	-17.891	16.968	0	0	0	0	0	0	0	0	0	2
3543	35.43	0	0	0	0	0	0	0	0	0	0	0	0	0	0	0	0	0	0	0	0	0	0	0	0	0	0	0	0	0	0	1	-1	0	15.733	-15.728	27.247	0	0	0	0	-1	0	-2.0279	-17.891	16.969	0	0	0	0	-1	0	-2.0278	-17.891	16.968	0	0	0	1	0	0	17.47	2.0148	16.554	2
3544	35.44	0	0	0	0	0	0	0	0	0	0	0	0	0	0	0	0	0	0	0	0	0	0	0	0	0	0	0	0	0	0	1	0	0	17.883	2.027	16.961	0	0	0	0	0	0	0	0	0	0	0	0	0	-1	0	-2.0278	-17.891	16.968	0	0	0	0	0	0	0	0	0	2
3545	35.45	0	0	0	0	0	0	0	0	0	0	0	0	0	0	0	0	0	0	0	0	0	0	0	0	0	0	0	0	0	0	0	0	0	0	0	0	0	0	0	0	0	0	0	0	0	0	0	0	0	0	0	0	0	0	0	0	0	0	0	0	0	0	0	2
3546	35.46	0	0	0	0	0	0	0	0	0	0	0	0	0	0	0	0	0	0	0	0	0	0	0	0	0	0	0	0	0	0	0	0	0	0	0	0	0	0	0	0	0	0	0	0	0	0	0	0	0	-1	0	-2.0278	-17.891	16.968	0	0	0	1	0	0	17.47	2.0148	16.554	2
3547	35.47	0	0	0	0	0	0	0	0	0	0	0	0	0	0	0	0	0	0	0	0	0	0	0	0	0	0	0	0	0	0	0	0	0	0	0	0	0	0	0	0	0	0	0	0	0	0	0	0	0	-1	0	-2.0278	-17.891	16.968	0	0	0	0	0	0	0	0	0	2
3548	35.48	0	0	0	0	0	0	0	0	0	0	0	0	0	0	0	0	0	0	0	0	0	0	0	0	0	0	0	0	0	0	0	0	0	0	0	0	0	0	0	0	0	0	0	0	0	0	0	0	0	-1	0	-2.0278	-17.891	16.968	0	0	0	1	0	0	17.47	2.0148	16.554	0
3549	35.49	0	0	0	0	0	0	0	0	0	0	0	0	0	0	0	0	0	0	0	0	0	0	0	0	0	0	0	0	0	0	1	0	0	17.883	2.027	16.961	0	0	0	0	0	0	0	0	0	0	0	0	0	0	0	0	0	0	0	0	0	0	0	0	0	0	0	0
3550	35.5	0	0	0	0	0	0	0	0	0	0	0	0	0	0	0	0	0	0	0	0	0	0	0	0	0	0	0	0	0	0	0	0	0	0	0	0	0	0	0	0	0	0	0	0	0	0	0	0	0	-1	0	-2.0278	-17.891	16.968	0	0	0	0	0	0	0	0	0	2
3551	35.51	0	0	0	0	0	0	0	0	0	0	0	0	0	0	0	0	0	0	0	0	0	0	0	0	0	0	0	0	0	0	1	0	0	17.761	2.1499	16.789	0	0	0	0	0	0	0	0	0	0	0	0	0	0	0	0	0	0	0	0	0	1	0	0	17.471	2.0135	16.556	0
3552	35.52	0	0	0	0	0	0	0	0	0	0	0	0	0	0	0	0	0	0	0	0	0	0	0	0	0	0	0	0	0	0	0	0	0	0	0	0	0	0	0	0	0	0	0	0	0	0	0	0	0	-1	0	-2.0278	-17.891	16.968	0	0	0	0	0	0	0	0	0	2
3553	35.53	0	0	0	0	0	0	0	0	0	0	0	0	0	0	0	0	0	0	0	0	0	0	0	0	0	0	0	0	0	0	0	0	0	0	0	0	0	0	0	0	0	0	0	0	0	0	0	0	0	-1	0	-2.0278	-17.891	16.968	0	0	0	1	0	0	17.47	2.0148	16.554	0
3554	35.54	0	0	0	0	0	0	10.917	-10.917	18.908	0	0	0	0	0	0	0	0	0	0	0	0	0	0	0	10.989	-10.989	19.033	0	0	0	1	0	0	17.883	2.027	16.961	0	0	0	0	0	0	10.996	-10.996	19.046	0	0	0	0	-1	0	-2.0278	-17.891	16.968	0	0	0	0	0	0	0	0	0	2
3555	35.55	0	0	0	0	0	0	0	0	0	0	0	0	0	0	0	0	0	0	0	0	0	0	0	0	0	0	0	0	0	0	0	0	0	0	0	0	0	0	0	0	0	0	0	0	0	0	0	0	0	-1	0	-2.0278	-17.891	16.968	0	0	0	0	0	0	0	0	0	2
3556	35.56	0	0	0	0	0	0	0	0	0	0	0	0	0	0	0	0	0	0	0	0	0	0	0	0	0	0	0	0	0	0	0	0	0	0	0	0	0	0	0	0	0	0	0	0	0	0	0	0	0	-1	0	-2.0278	-17.891	16.968	0	0	0	1	0	0	17.471	2.0135	16.556	2
3557	35.57	0	0	0	0	0	0	0	0	0	0	0	0	0	0	0	0	0	0	0	0	0	0	0	0	0	0	0	0	0	0	0	0	0	0	0	0	0	0	0	0	0	0	0	0	0	0	0	0	0	0	0	0	0	0	0	0	0	0	0	0	0	0	0	2
3558	35.58	0	0	0	0	0	0	0	0	0	0	0	0	0	0	0	0	0	0	0	0	0	0	0	0	10.989	-10.989	19.033	0	0	0	0	0	0	10.991	-10.991	19.037	0	0	0	0	0	0	0	0	0	0	0	0	0	-1	0	-2.0278	-17.891	16.968	0	0	0	0	0	0	0	0	0	2
3559	35.59	0	0	0	0	0	0	0	0	0	0	0	0	0	0	0	0	0	0	0	0	0	0	0	0	0	0	0	0	0	0	1	0	0	17.883	2.027	16.961	0	0	0	0	0	0	0	0	0	0	0	0	0	0	0	0	0	0	0	0	0	0	0	0	0	0	0	0
3560	35.6	0	0	0	0	0	0	10.917	-10.917	18.908	0	0	0	0	0	0	0	0	0	0	0	0	0	0	0	0	0	0	0	0	0	0	0	0	0	0	0	0	0	0	0	0	0	0	0	0	0	0	0	0	-1	0	-2.0278	-17.891	16.968	0	0	0	0	0	0	0	0	0	2
3561	35.61	0	0	0	0	0	0	0	0	0	0	0	0	0	0	0	0	0	0	0	0	0	0	0	0	0	0	0	0	0	0	1	0	0	17.761	2.1499	16.789	0	0	0	0	0	0	0	0	0	0	0	0	0	-1	0	-2.0278	-17.891	16.968	0	0	0	1	0	0	17.47	2.0148	16.554	0
3562	35.62	0	0	0	0	0	0	10.917	-10.917	18.908	0	0	0	0	0	0	0	0	0	0	0	0	0	0	0	0	0	0	0	0	0	0	0	0	0	0	0	0	0	0	0	0	0	0	0	0	0	0	0	0	0	0	0	0	0	0	0	0	0	0	0	0	0	0	2
3563	35.63	0	0	0	0	0	0	0	0	0	0	0	0	0	0	0	0	0	0	0	0	0	0	0	0	0	0	0	0	0	0	1	0	0	17.883	2.027	16.961	0	0	0	0	0	0	0	0	0	0	0	0	0	-1	0	-2.0278	-17.891	16.968	0	0	0	1	0	0	17.471	2.0135	16.556	2
3564	35.64	0	0	0	0	0	0	0	0	0	0	0	0	0	0	0	0	0	0	0	0	0	0	0	0	0	0	0	0	0	0	0	0	0	0	0	0	0	0	0	0	0	0	0	0	0	0	0	0	0	0	0	0	0	0	0	0	0	0	0	0	0	0	0	2
3565	35.65	0	0	0	0	0	0	0	0	0	0	0	0	0	0	0	0	0	0	0	0	0	0	0	0	0	0	0	0	0	0	0	0	0	0	0	0	0	0	0	0	0	0	0	0	0	0	0	0	0	-1	0	-2.0278	-17.891	16.968	0	0	0	1	0	0	17.47	2.0148	16.554	2
3566	35.66	0	0	0	0	0	0	0	0	0	0	0	0	0	0	0	0	0	0	0	0	0	0	0	0	0	0	0	0	0	0	1	0	0	17.761	2.1499	16.789	0	0	0	0	0	0	0	0	0	0	0	0	0	-1	0	-2.0278	-17.891	16.968	0	0	0	0	0	0	0	0	0	2
3567	35.67	0	0	0	0	0	0	0	0	0	0	0	0	0	0	0	0	0	0	0	0	0	0	0	0	0	0	0	0	0	0	1	0	0	17.883	2.027	16.961	0	0	0	0	0	0	0	0	0	0	0	0	0	-1	0	-2.0278	-17.891	16.968	0	0	0	1	0	0	17.47	2.0148	16.554	2
3568	35.68	0	0	0	0	0	0	0	0	0	0	0	0	0	0	0	0	0	0	0	0	0	0	0	0	0	0	0	0	0	0	0	0	0	0	0	0	0	0	0	0	-1	0	-2.0279	-17.891	16.969	0	0	0	0	-1	0	-2.0278	-17.891	16.968	0	0	0	0	0	0	0	0	0	2
3569	35.69	0	0	0	0	0	0	0	0	0	0	0	0	0	0	0	0	0	0	0	0	0	0	0	0	0	0	0	0	0	0	0	0	0	0	0	0	0	0	0	0	0	0	0	0	0	0	0	0	0	-1	0	-2.0278	-17.891	16.968	0	0	0	0	0	0	0	0	0	2
3570	35.7	0	0	0	0	0	0	10.917	-10.917	18.908	0	0	0	0	0	0	0	0	0	0	0	0	0	0	0	0	0	0	0	0	0	0	0	0	0	0	0	0	0	0	0	0	0	0	0	0	0	0	0	0	-1	0	-2.0278	-17.891	16.968	0	0	0	1	0	0	17.47	2.0148	16.554	2
3571	35.71	0	0	0	0	0	0	0	0	0	0	0	0	0	0	0	0	0	0	0	0	0	0	0	0	0	0	0	0	0	0	1	0	0	17.761	2.1499	16.789	0	0	0	0	0	0	0	0	0	0	0	0	0	0	0	0	0	0	0	0	0	1	0	0	17.47	2.0148	16.554	2
3572	35.72	0	0	0	0	0	0	0	0	0	0	0	0	0	0	0	0	0	0	0	0	0	0	0	0	0	0	0	0	0	0	0	0	0	0	0	0	0	0	0	0	0	0	0	0	0	0	0	0	0	0	0	0	0	0	0	0	0	0	0	0	0	0	0	2
3573	35.73	0	0	0	0	0	0	0	0	0	0	0	0	0	0	0	0	0	0	0	0	0	0	0	0	0	0	0	0	0	0	0	0	0	0	0	0	0	0	0	0	0	0	0	0	0	0	0	0	0	-1	0	-2.0278	-17.891	16.968	0	0	0	0	0	0	0	0	0	2
3574	35.74	0	0	0	0	0	0	0	0	0	0	0	0	0	0	0	0	0	0	0	0	0	0	0	0	0	0	0	0	0	0	1	0	0	17.883	2.027	16.961	0	0	0	0	0	0	0	0	0	0	0	0	0	-1	0	-2.0278	-17.891	16.968	0	0	0	0	0	0	0	0	0	2
3575	35.75	0	0	0	0	0	0	0	0	0	0	0	0	0	0	0	0	0	0	0	0	0	0	0	0	0	0	0	0	0	0	0	0	0	10.991	-10.991	19.037	0	0	0	0	0	0	0	0	0	0	0	0	0	-1	0	-2.0278	-17.891	16.968	0	0	0	0	0	0	0	0	0	0
3576	35.76	0	0	0	0	0	0	0	0	0	0	0	0	0	0	0	0	0	0	0	0	0	0	0	0	0	0	0	0	0	0	0	0	0	0	0	0	0	0	0	0	0	0	0	0	0	0	0	0	0	-1	0	-2.0278	-17.891	16.968	0	0	0	1	0	0	17.47	2.0148	16.554	2
3577	35.77	0	0	0	0	0	0	0	0	0	0	0	0	0	0	0	0	0	0	0	0	0	0	0	0	0	0	0	0	0	0	0	0	0	0	0	0	0	0	0	0	0	0	0	0	0	0	0	0	0	0	0	0	0	0	0	0	0	1	0	0	17.47	2.0148	16.554	2
3578	35.78	0	0	0	0	0	0	0	0	0	0	0	0	0	0	0	0	0	0	0	0	0	0	0	0	0	0	0	0	0	0	0	0	0	0	0	0	0	0	0	0	0	0	0	0	0	0	0	0	0	-1	0	-2.0278	-17.891	16.968	0	0	0	0	0	0	0	0	0	0
3579	35.79	0	0	0	0	0	0	0	0	0	0	0	0	0	0	0	0	0	0	0	0	0	0	0	0	0	0	0	0	0	0	0	0	0	0	0	0	0	0	0	0	0	0	0	0	0	0	0	0	0	-1	0	-2.0278	-17.891	16.968	0	0	0	0	0	0	0	0	0	2
3580	35.8	0	0	0	0	0	0	10.917	-10.917	18.908	0	0	0	0	0	0	0	0	0	0	0	0	0	0	0	0	0	0	0	0	0	0	0	0	10.991	-10.991	19.037	0	0	0	0	0	0	0	0	0	0	0	0	0	-1	0	-2.0278	-17.891	16.968	0	0	0	0	0	0	0	0	0	2
3581	35.81	0	0	0	0	0	0	0	0	0	0	0	0	0	0	0	0	0	0	0	0	0	0	0	0	0	0	0	0	0	0	0	0	0	10.991	-10.991	19.037	0	0	0	0	0	0	0	0	0	0	0	0	0	-1	0	-2.0278	-17.891	16.968	0	0	0	1	0	0	17.47	2.0148	16.554	2
3582	35.82	0	0	0	0	0	0	10.917	-10.917	18.908	0	0	0	0	0	0	0	0	0	0	0	0	0	0	0	0	0	0	0	0	0	1	0	0	17.883	2.027	16.961	0	0	0	0	0	0	0	0	0	0	0	0	0	0	0	0	0	0	0	0	0	0	0	0	0	0	0	2
3583	35.83	0	0	0	0	0	0	0	0	0	0	0	0	0	0	0	0	0	0	0	0	0	0	0	0	0	0	0	0	0	0	0	0	0	0	0	0	0	0	0	0	0	0	0	0	0	0	0	0	0	-1	0	-2.0278	-17.891	16.968	0	0	0	1	0	0	17.47	2.0148	16.554	2
3584	35.84	0	0	0	0	0	0	0	0	0	0	0	0	0	0	0	0	0	0	0	0	0	0	0	0	0	0	0	0	0	0	0	0	0	0	0	0	0	0	0	0	0	0	10.996	-10.996	19.046	0	0	0	0	-1	0	-2.0278	-17.891	16.968	0	0	0	1	0	0	17.47	2.0148	16.554	2
3585	35.85	0	0	0	0	0	0	0	0	0	0	0	0	0	0	0	0	0	0	0	0	0	0	0	0	0	0	0	0	0	0	1	0	0	17.883	2.027	16.961	0	0	0	0	0	0	0	0	0	0	0	0	0	0	0	0	0	0	0	0	0	0	0	0	0	0	0	2
3586	35.86	0	0	0	0	0	0	0	0	0	0	0	0	0	0	0	0	0	0	0	0	0	0	0	0	0	0	0	0	0	0	0	0	0	10.991	-10.991	19.037	0	0	0	0	0	0	0	0	0	0	0	0	0	-1	0	-2.0278	-17.891	16.968	0	0	0	0	0	0	0	0	0	2
3587	35.87	0	0	0	0	0	0	0	0	0	0	0	0	0	0	0	0	0	0	0	0	0	0	0	0	0	0	0	0	0	0	0	0	0	0	0	0	0	0	0	0	0	0	0	0	0	0	0	0	0	-1	0	-2.0278	-17.891	16.968	0	0	0	0	0	0	0	0	0	2
3588	35.88	0	0	0	0	0	0	0	0	0	0	0	0	0	0	0	0	0	0	0	0	0	0	0	0	0	0	0	0	0	0	0	0	0	10.991	-10.991	19.037	0	0	0	0	0	0	0	0	0	0	0	0	0	0	0	0	0	0	0	0	0	0	0	0	0	0	0	0
3589	35.89	0	0	0	0	0	0	0	0	0	0	0	0	0	0	0	0	0	0	0	0	0	0	0	0	0	0	0	0	0	0	0	0	0	10.991	-10.991	19.037	0	0	0	0	0	0	0	0	0	0	0	0	0	-1	0	-2.0278	-17.891	16.968	0	0	0	0	0	0	0	0	0	2
3590	35.9	0	0	0	0	0	0	0	0	0	0	0	0	0	0	0	0	0	0	0	0	0	0	0	0	0	0	0	0	0	0	0	0	0	0	0	0	0	0	0	0	0	0	0	0	0	0	0	0	0	0	0	0	0	0	0	0	0	1	0	0	17.47	2.0148	16.554	2
3591	35.91	0	0	0	0	0	0	0	0	0	0	0	0	0	-1	0	-2.0366	-17.816	16.89	0	0	0	0	0	0	0	0	0	0	0	0	0	0	0	10.991	-10.991	19.037	0	0	0	0	0	0	0	0	0	0	0	0	0	-1	0	-2.0278	-17.891	16.968	0	0	0	1	0	0	17.47	2.0148	16.554	2
3592	35.92	0	0	0	0	0	0	0	0	0	0	0	0	0	0	0	0	0	0	0	0	0	0	0	0	0	0	0	0	0	0	0	0	0	0	0	0	0	0	0	0	0	0	0	0	0	0	0	0	0	-1	0	-2.0278	-17.891	16.968	0	0	0	0	0	0	0	0	0	2
3593	35.93	0	0	0	0	0	0	10.917	-10.917	18.908	0	0	0	0	0	0	0	0	0	0	0	0	0	0	0	0	0	0	0	0	0	0	0	0	10.991	-10.991	19.037	0	0	0	0	0	0	0	0	0	0	0	0	1	-1	0	7.5503	-27.469	31.921	0	0	0	1	0	0	17.47	2.0148	16.554	2
3594	35.94	0	0	0	0	0	0	0	0	0	0	0	0	0	0	0	0	0	0	0	0	0	0	0	0	0	0	0	0	0	0	0	0	0	0	0	0	0	0	0	0	0	0	0	0	0	0	0	0	0	-1	0	-2.0278	-17.891	16.968	0	0	0	0	0	0	0	0	0	2
3595	35.95	0	0	0	0	0	0	0	0	0	0	0	0	0	0	0	0	0	0	0	0	0	0	0	0	0	0	0	0	0	0	0	0	0	0	0	0	0	0	0	0	0	0	0	0	0	0	0	0	0	-1	0	-2.0278	-17.891	16.968	0	0	0	1	0	0	17.47	2.0148	16.554	2
3596	35.96	0	0	0	0	0	0	0	0	0	0	0	0	0	0	0	0	0	0	0	0	0	0	0	0	0	0	0	0	0	0	0	0	0	0	0	0	0	0	0	0	0	0	0	0	0	0	0	0	1	-1	0	7.5503	-27.469	31.921	0	0	0	0	0	0	0	0	0	2
3597	35.97	0	0	0	0	0	0	0	0	0	0	0	0	0	0	0	0	0	0	0	0	0	0	0	0	0	0	0	0	0	0	0	0	0	0	0	0	0	0	0	0	0	0	0	0	0	0	0	0	0	-1	0	-2.0278	-17.891	16.968	0	0	0	0	0	0	0	0	0	0
3598	35.98	0	0	0	0	0	0	0	0	0	0	0	0	0	0	0	0	0	0	0	0	0	0	0	0	0	0	0	0	0	0	0	0	0	10.991	-10.991	19.037	0	0	0	0	0	0	0	0	0	0	0	0	0	0	0	0	0	0	0	0	0	0	0	0	0	0	0	2
3599	35.99	0	0	0	0	0	0	0	0	0	0	0	0	0	0	0	0	0	0	0	0	0	0	0	0	0	0	0	0	0	0	0	0	0	0	0	0	0	0	0	0	0	0	0	0	0	0	0	0	0	-1	0	-2.0278	-17.891	16.968	0	0	0	0	0	0	0	0	0	2
3600	36	0	0	0	0	0	0	0	0	0	0	0	0	0	0	0	0	0	0	0	0	0	0	0	0	0	0	0	0	0	0	0	0	0	0	0	0	0	0	0	0	0	0	0	0	0	0	0	0	0	-1	0	-2.0278	-17.891	16.968	0	0	0	0	0	0	0	0	0	2
3601	36.01	0	0	0	0	0	0	0	0	0	0	0	0	0	0	0	0	0	0	0	0	0	0	0	0	0	0	0	0	0	0	1	0	0	17.761	2.1499	16.789	0	0	0	0	0	0	0	0	0	0	0	0	0	-1	0	-2.0278	-17.891	16.968	0	0	0	0	0	0	0	0	0	2
3602	36.02	0	0	0	0	0	0	0	0	0	0	0	0	0	0	0	0	0	0	0	0	0	0	0	0	0	0	0	0	0	0	0	0	0	0	0	0	0	0	0	0	0	0	0	0	0	0	0	0	0	-1	0	-2.0278	-17.891	16.968	0	0	0	0	0	0	0	0	0	2
3603	36.03	0	0	0	0	0	0	0	0	0	0	0	0	0	0	0	0	0	0	0	0	0	0	0	0	0	0	0	0	0	0	1	0	0	17.883	2.027	16.961	0	0	0	0	0	0	0	0	0	0	0	0	0	-1	0	-2.0278	-17.891	16.968	0	0	0	1	0	0	17.47	2.0148	16.554	2
3604	36.04	0	0	0	0	0	0	0	0	0	0	0	0	0	0	0	0	0	0	0	0	0	0	0	0	0	0	0	0	0	0	1	0	0	17.883	2.027	16.961	0	0	0	0	0	0	10.996	-10.996	19.046	0	0	0	0	0	0	0	0	0	0	0	0	0	0	0	0	0	0	2
3605	36.05	0	0	0	1	-1	0	7.4655	-27.322	31.72	0	0	0	0	0	0	0	0	0	0	0	0	0	0	0	0	0	0	0	0	0	0	0	0	0	0	0	0	0	0	0	0	0	0	0	0	0	0	0	0	-1	0	-2.0278	-17.891	16.968	0	0	0	0	0	0	0	0	0	2
3606	36.06	0	0	0	0	0	0	0	0	0	0	0	0	0	0	0	0	0	0	0	0	0	0	0	0	10.989	-10.989	19.033	0	0	0	1	0	0	17.883	2.027	16.961	0	0	0	0	0	0	0	0	0	0	0	0	0	-1	0	-2.0278	-17.891	16.968	0	0	0	1	0	0	17.47	2.0148	16.554	2
3607	36.07	0	0	0	0	0	0	10.917	-10.917	18.908	0	0	0	0	0	0	0	0	0	0	0	0	0	0	0	0	0	0	0	0	0	0	0	0	0	0	0	0	0	0	0	-1	0	-2.0279	-17.891	16.969	0	0	0	0	-1	0	-2.0278	-17.891	16.968	0	0	0	0	0	0	0	0	0	2
3608	36.08	0	0	0	0	0	0	0	0	0	0	0	0	0	0	0	0	0	0	0	0	0	0	0	0	0	0	0	0	0	0	0	0	0	10.991	-10.991	19.037	0	0	0	0	0	0	0	0	0	0	0	0	0	0	0	0	0	0	0	0	0	0	0	0	0	0	0	2
3609	36.09	0	0	0	0	0	0	0	0	0	0	0	0	0	0	0	0	0	0	0	0	0	0	0	0	0	0	0	0	0	0	0	0	0	10.991	-10.991	19.037	0	0	0	0	0	0	10.996	-10.996	19.046	0	0	0	0	-1	0	-2.0278	-17.891	16.968	0	0	0	0	0	0	0	0	0	2
3610	36.1	0	0	0	0	0	0	0	0	0	0	0	0	0	0	0	0	0	0	0	0	0	0	0	0	0	0	0	0	0	0	0	0	0	10.991	-10.991	19.037	0	0	0	0	0	0	0	0	0	0	0	0	0	-1	0	-2.0278	-17.891	16.968	0	0	0	0	0	0	0	0	0	2
3611	36.11	0	0	0	0	0	0	0	0	0	0	0	0	0	0	0	0	0	0	0	0	0	0	0	0	0	0	0	0	0	0	0	0	0	10.991	-10.991	19.037	0	0	0	0	0	0	0	0	0	0	0	0	0	-1	0	-2.0278	-17.891	16.968	0	0	0	0	0	0	0	0	0	2
3612	36.12	0	0	0	0	0	0	0	0	0	0	0	0	0	0	0	0	0	0	0	0	0	0	0	0	0	0	0	0	0	0	0	0	0	0	0	0	0	0	0	0	0	0	0	0	0	0	0	0	0	-1	0	-2.0278	-17.891	16.968	0	0	0	0	0	0	0	0	0	2
3613	36.13	0	0	0	0	0	0	0	0	0	0	0	0	0	0	0	0	0	0	0	0	0	0	0	0	0	0	0	0	0	0	1	0	0	17.883	2.027	16.961	0	0	0	0	0	0	0	0	0	0	0	0	0	-1	0	-2.0278	-17.891	16.968	0	0	0	0	0	0	0	0	0	0
3614	36.14	0	0	0	0	0	0	0	0	0	0	0	0	0	0	0	0	0	0	0	0	0	0	0	0	0	0	0	0	0	0	0	0	0	0	0	0	0	0	0	0	0	0	0	0	0	0	0	0	0	-1	0	-2.0278	-17.891	16.968	0	0	0	1	0	0	17.47	2.0148	16.554	2
3615	36.15	0	0	0	0	0	0	10.917	-10.917	18.908	0	0	0	0	0	0	0	0	0	0	0	0	0	0	0	0	0	0	0	0	0	1	0	0	17.883	2.027	16.961	0	0	0	0	0	0	0	0	0	0	0	0	0	-1	0	-2.0278	-17.891	16.968	0	0	0	0	0	0	0	0	0	2
3616	36.16	0	0	0	0	0	0	0	0	0	0	0	0	0	0	0	0	0	0	0	0	0	0	0	0	0	0	0	0	0	0	1	0	0	17.883	2.027	16.961	0	0	0	0	0	0	0	0	0	0	0	0	0	-1	0	-2.0278	-17.891	16.968	0	0	0	0	0	0	0	0	0	0
3617	36.17	0	0	0	0	0	0	0	0	0	0	0	0	0	0	0	0	0	0	0	0	0	0	0	0	0	0	0	0	0	0	0	0	0	10.991	-10.991	19.037	0	0	0	0	0	0	0	0	0	0	0	0	0	-1	0	-2.0278	-17.891	16.968	0	0	0	0	0	0	0	0	0	2
3618	36.18	0	0	0	0	0	0	10.917	-10.917	18.908	0	0	0	0	0	0	0	0	0	0	0	0	0	0	0	10.989	-10.989	19.033	0	0	0	1	0	0	17.761	2.1499	16.789	0	0	0	0	0	0	0	0	0	0	0	0	0	-1	0	-2.0278	-17.891	16.968	0	0	0	0	0	0	0	0	0	2
3619	36.19	0	0	0	0	0	0	0	0	0	0	0	0	0	-1	0	-2.0372	-17.821	16.895	0	0	0	0	0	0	0	0	0	0	0	0	0	0	0	10.991	-10.991	19.037	0	0	0	0	0	0	0	0	0	0	0	0	0	-1	0	-2.0278	-17.891	16.968	0	0	0	1	0	0	17.47	2.0148	16.554	2
3620	36.2	0	0	0	0	0	0	10.917	-10.917	18.908	0	0	0	0	0	0	0	0	0	0	0	0	0	0	0	0	0	0	0	0	0	0	0	0	0	0	0	0	0	0	0	-1	0	-2.0279	-17.891	16.969	0	0	0	0	-1	0	-2.0278	-17.891	16.968	0	0	0	0	0	0	0	0	0	2
3621	36.21	0	0	0	0	0	0	0	0	0	0	0	0	0	0	0	0	0	0	0	0	0	0	0	0	0	0	0	0	0	0	0	0	0	10.991	-10.991	19.037	0	0	0	0	0	0	0	0	0	0	0	0	0	-1	0	-2.0278	-17.891	16.968	0	0	0	1	0	0	17.47	2.0148	16.554	2
3622	36.22	0	0	0	0	0	0	0	0	0	0	0	0	0	0	0	0	0	0	0	0	0	0	0	0	0	0	0	0	0	0	0	0	0	0	0	0	0	0	0	0	0	0	0	0	0	0	0	0	0	-1	0	-2.0278	-17.891	16.968	0	0	0	0	0	0	0	0	0	2
3623	36.23	0	0	0	0	0	0	0	0	0	0	0	0	0	0	0	0	0	0	0	0	0	0	0	0	0	0	0	0	0	0	0	0	0	10.991	-10.991	19.037	0	0	0	0	0	0	0	0	0	0	0	0	0	-1	0	-2.0278	-17.891	16.968	0	0	0	0	0	0	0	0	0	2
3624	36.24	0	0	0	0	0	0	0	0	0	0	0	0	0	0	0	0	0	0	0	0	0	0	0	0	0	0	0	0	0	0	0	0	0	0	0	0	0	0	0	0	0	0	0	0	0	0	0	0	0	-1	0	-2.0278	-17.891	16.968	0	0	0	0	0	0	0	0	0	2
3625	36.25	0	0	0	0	0	0	0	0	0	0	0	0	0	-1	0	-2.0372	-17.821	16.895	0	0	0	0	0	0	0	0	0	0	0	0	1	0	0	17.761	2.1499	16.789	0	0	0	0	0	0	10.996	-10.996	19.046	0	0	0	0	-1	0	-2.0278	-17.891	16.968	0	0	0	0	0	0	0	0	0	0
3626	36.26	0	0	0	0	0	0	0	0	0	0	0	0	0	0	0	0	0	0	0	0	0	0	0	0	0	0	0	0	0	0	0	0	0	0	0	0	0	0	0	0	0	0	0	0	0	0	0	0	1	-1	0	7.5503	-27.469	31.921	0	0	0	0	0	0	0	0	0	2
3627	36.27	0	0	0	0	0	0	10.917	-10.917	18.908	0	0	0	0	0	0	0	0	0	0	0	0	0	0	0	0	0	0	0	0	0	0	0	0	0	0	0	0	0	0	0	-1	0	-2.1508	-17.769	16.797	0	0	0	0	-1	0	-2.0278	-17.891	16.968	0	0	0	0	0	0	0	0	0	2
3628	36.28	0	0	0	0	0	0	0	0	0	0	0	0	0	0	0	0	0	0	0	0	0	0	0	0	0	0	0	0	0	0	1	0	0	17.883	2.027	16.961	0	0	0	0	0	0	0	0	0	0	0	0	0	-1	0	-2.0278	-17.891	16.968	0	0	0	0	0	0	0	0	0	0
3629	36.29	0	0	0	0	0	0	0	0	0	0	0	0	0	0	0	0	0	0	0	0	0	0	0	0	0	0	0	0	0	0	1	0	0	17.883	2.027	16.961	0	0	0	0	0	0	0	0	0	0	0	0	0	-1	0	-2.0278	-17.891	16.968	0	0	0	0	0	0	0	0	0	2
3630	36.3	0	0	0	0	0	0	0	0	0	0	0	0	0	0	0	0	0	0	0	0	0	0	0	0	0	0	0	0	0	0	0	0	0	0	0	0	0	0	0	0	0	0	10.996	-10.996	19.046	0	0	0	0	-1	0	-2.0278	-17.891	16.968	0	0	0	1	0	0	17.47	2.0148	16.554	2
3631	36.31	0	0	0	0	0	0	10.917	-10.917	18.908	0	0	0	0	0	0	0	0	0	0	0	0	0	0	0	0	0	0	0	0	0	1	0	0	17.761	2.1499	16.789	0	0	0	0	0	0	0	0	0	0	0	0	0	-1	0	-2.0278	-17.891	16.968	0	0	0	0	0	0	0	0	0	2
3632	36.32	0	0	0	0	0	0	0	0	0	0	0	0	0	0	0	0	0	0	0	0	0	0	0	0	0	0	0	0	0	0	0	0	0	10.991	-10.991	19.037	0	0	0	0	0	0	0	0	0	0	0	0	0	-1	0	-2.0278	-17.891	16.968	0	0	0	0	0	0	0	0	0	2
3633	36.33	0	0	0	0	0	0	0	0	0	0	0	0	0	0	0	0	0	0	0	0	0	0	0	0	0	0	0	0	0	0	0	0	0	0	0	0	0	0	0	0	0	0	0	0	0	0	0	0	0	-1	0	-2.0278	-17.891	16.968	0	0	0	1	0	0	17.47	2.0148	16.554	2
3634	36.34	0	0	0	0	0	0	0	0	0	0	0	0	0	0	0	0	0	0	0	0	0	0	0	0	0	0	0	0	0	0	0	0	0	0	0	0	0	0	0	0	0	0	0	0	0	0	0	0	0	-1	0	-2.0278	-17.891	16.968	0	0	0	0	0	0	0	0	0	2
3635	36.35	0	0	0	0	0	0	0	0	0	0	0	0	0	-1	0	-2.0372	-17.821	16.895	0	0	0	0	0	0	0	0	0	0	0	0	1	0	0	17.883	2.027	16.961	0	0	0	0	0	0	0	0	0	0	0	0	0	-1	0	-2.0278	-17.891	16.968	0	0	0	0	0	0	0	0	0	0
3636	36.36	0	0	0	0	0	0	0	0	0	0	0	0	0	0	0	0	0	0	0	0	0	0	0	0	0	0	0	0	0	0	1	0	0	17.761	2.1499	16.789	0	0	0	0	0	0	0	0	0	0	0	0	0	-1	0	-2.0278	-17.891	16.968	0	0	0	0	0	0	0	0	0	2
3637	36.37	0	0	0	0	0	0	0	0	0	0	0	0	0	0	0	0	0	0	0	0	0	0	0	0	0	0	0	0	0	0	0	0	0	0	0	0	0	0	0	0	0	0	0	0	0	0	0	0	0	-1	0	-2.0278	-17.891	16.968	0	0	0	0	0	0	0	0	0	2
3638	36.38	0	0	0	0	0	0	0	0	0	0	0	0	0	0	0	0	0	0	0	0	0	0	0	0	0	0	0	0	0	0	0	0	0	0	0	0	0	0	0	0	0	0	0	0	0	0	0	0	0	-1	0	-2.0278	-17.891	16.968	0	0	0	0	0	0	0	0	0	0
3639	36.39	0	0	0	0	0	0	10.917	-10.917	18.908	0	0	0	0	0	0	0	0	0	0	0	0	0	0	0	0	0	0	0	0	0	0	0	0	0	0	0	0	0	0	0	0	0	0	0	0	0	0	0	0	-1	0	-2.0278	-17.891	16.968	0	0	0	1	0	0	17.47	2.0148	16.554	2
3640	36.4	0	0	0	0	0	0	0	0	0	0	0	0	0	0	0	0	0	0	0	0	0	0	0	0	0	0	0	0	0	0	1	0	0	17.883	2.027	16.961	0	0	0	0	0	0	0	0	0	0	0	0	0	-1	0	-2.0278	-17.891	16.968	0	0	0	0	0	0	0	0	0	0
3641	36.41	0	0	0	0	0	0	0	0	0	0	0	0	0	0	0	0	0	0	0	0	0	0	0	0	0	0	0	0	0	0	1	0	0	17.761	2.1499	16.789	0	0	0	0	0	0	0	0	0	0	0	0	0	-1	0	-2.0278	-17.891	16.968	0	0	0	0	0	0	0	0	0	2
3642	36.42	0	0	0	0	0	0	0	0	0	0	0	0	0	0	0	0	0	0	0	0	0	0	0	0	0	0	0	0	0	0	0	0	0	0	0	0	0	0	0	0	0	0	0	0	0	0	0	0	0	-1	0	-2.0278	-17.891	16.968	0	0	0	0	0	0	0	0	0	2
3643	36.43	0	0	0	0	0	0	0	0	0	0	0	0	0	0	0	0	0	0	0	0	0	0	0	0	10.989	-10.989	19.033	0	0	0	0	0	0	0	0	0	0	0	0	0	0	0	0	0	0	0	0	0	0	-1	0	-2.0278	-17.891	16.968	0	0	0	1	0	0	17.47	2.0148	16.554	2
3644	36.44	0	0	0	0	0	0	0	0	0	0	0	0	0	0	0	0	0	0	0	0	0	0	0	0	0	0	0	0	0	0	0	0	0	0	0	0	0	0	0	0	0	0	0	0	0	0	0	0	1	-1	0	7.5503	-27.469	31.921	0	0	0	0	0	0	0	0	0	0
3645	36.45	0	0	0	0	0	0	0	0	0	0	0	0	0	0	0	0	0	0	0	0	0	0	0	0	0	0	0	0	0	0	0	0	0	0	0	0	0	0	0	0	0	0	0	0	0	0	0	0	0	-1	0	-2.0278	-17.891	16.968	0	0	0	0	0	0	0	0	0	2
3646	36.46	0	0	0	0	0	0	0	0	0	0	0	0	0	0	0	0	0	0	0	0	0	0	0	0	0	0	0	0	0	0	1	0	0	17.883	2.027	16.961	0	0	0	0	0	0	0	0	0	0	0	0	0	0	0	0	0	0	0	0	0	0	0	0	0	0	0	2
3647	36.47	0	0	0	0	0	0	10.917	-10.917	18.908	0	0	0	0	0	0	0	0	0	0	0	0	0	0	0	0	0	0	0	0	0	0	0	0	0	0	0	0	0	0	0	0	0	0	0	0	0	0	0	0	-1	0	-2.0278	-17.891	16.968	0	0	0	0	0	0	0	0	0	2
3648	36.48	0	0	0	0	0	0	0	0	0	0	0	0	0	0	0	0	0	0	0	0	0	0	0	0	0	0	0	0	0	0	0	0	0	10.991	-10.991	19.037	0	0	0	0	0	0	0	0	0	0	0	0	0	-1	0	-2.0278	-17.891	16.968	0	0	0	1	0	0	17.47	2.0148	16.554	2
3649	36.49	0	0	0	0	0	0	0	0	0	0	0	0	0	0	0	0	0	0	0	0	0	0	0	0	0	0	0	0	0	0	0	0	0	10.991	-10.991	19.037	0	0	0	0	0	0	0	0	0	0	0	0	0	-1	0	-2.0278	-17.891	16.968	0	0	0	1	0	0	17.47	2.0148	16.554	2
3650	36.5	0	0	0	0	0	0	10.917	-10.917	18.908	0	0	0	0	0	0	0	0	0	0	0	0	0	0	0	0	0	0	0	0	0	1	0	0	17.883	2.027	16.961	0	0	0	0	0	0	0	0	0	0	0	0	0	-1	0	-2.0278	-17.891	16.968	0	0	0	0	0	0	0	0	0	0
3651	36.51	0	0	0	0	0	0	0	0	0	0	0	0	0	0	0	0	0	0	0	0	0	0	0	0	0	0	0	0	0	0	0	0	0	0	0	0	0	0	0	0	0	0	10.996	-10.996	19.046	0	0	0	0	-1	0	-2.0278	-17.891	16.968	0	0	0	0	0	0	0	0	0	2
3652	36.52	0	0	0	0	0	0	0	0	0	0	0	0	0	-1	0	-2.0372	-17.821	16.895	0	0	0	0	0	0	0	0	0	0	0	0	1	0	0	17.883	2.027	16.961	0	0	0	0	0	0	0	0	0	0	0	0	0	-1	0	-2.0278	-17.891	16.968	0	0	0	0	0	0	0	0	0	2
3653	36.53	0	0	0	0	0	0	0	0	0	0	0	0	0	0	0	0	0	0	0	0	0	0	0	0	0	0	0	0	0	0	1	0	0	17.761	2.1499	16.789	0	0	0	0	0	0	0	0	0	0	0	0	0	0	0	0	0	0	0	0	0	1	0	0	30.423	8.5595	27.174	0
3654	36.54	0	0	0	0	0	0	0	0	0	0	0	0	0	0	0	0	0	0	0	0	0	0	0	0	0	0	0	0	0	0	1	0	0	17.883	2.027	16.961	0	0	0	0	0	0	0	0	0	0	0	0	1	-1	0	7.5503	-27.469	31.921	0	0	0	0	0	0	0	0	0	2
3655	36.55	0	0	0	0	0	0	0	0	0	0	0	0	0	0	0	0	0	0	0	0	0	0	0	0	0	0	0	0	0	0	1	0	0	17.883	2.027	16.961	0	0	0	0	0	0	10.996	-10.996	19.046	0	0	0	0	-1	0	-2.0278	-17.891	16.968	0	0	0	0	0	0	0	0	0	2
3656	36.56	0	0	0	0	0	0	0	0	0	0	0	0	0	0	0	0	0	0	0	0	0	0	0	0	0	0	0	0	0	0	1	0	0	17.761	2.1499	16.789	0	0	0	0	0	0	0	0	0	0	0	0	0	-1	0	-2.0278	-17.891	16.968	0	0	0	0	0	0	0	0	0	2
3657	36.57	0	0	0	0	0	0	10.917	-10.917	18.908	0	0	0	0	0	0	0	0	0	0	0	0	0	0	0	0	0	0	0	0	0	0	0	0	0	0	0	0	0	0	0	0	0	0	0	0	0	0	0	0	-1	0	-2.0278	-17.891	16.968	0	0	0	0	0	0	0	0	0	2
3658	36.58	0	0	0	0	0	0	0	0	0	0	0	0	0	0	0	0	0	0	0	0	0	0	0	0	0	0	0	0	0	0	1	0	0	17.883	2.027	16.961	0	0	0	0	-1	0	-2.0279	-17.891	16.969	0	0	0	0	-1	0	-2.0278	-17.891	16.968	0	0	0	1	0	0	17.482	2.0162	16.566	0
3659	36.59	0	0	0	0	0	0	0	0	0	0	0	0	0	0	0	0	0	0	0	0	0	0	0	0	0	0	0	0	0	0	1	0	0	17.883	2.027	16.961	0	0	0	0	0	0	0	0	0	0	0	0	0	-1	0	-2.0278	-17.891	16.968	0	0	0	0	0	0	0	0	0	2
3660	36.6	0	0	0	0	0	0	0	0	0	0	0	0	0	0	0	0	0	0	0	0	0	0	0	0	0	0	0	0	0	0	0	0	0	0	0	0	0	0	0	0	0	0	0	0	0	0	0	0	0	-1	0	-2.0278	-17.891	16.968	0	0	0	0	0	0	0	0	0	2
3661	36.61	0	0	0	0	0	0	10.917	-10.917	18.908	0	0	0	0	0	0	0	0	0	0	0	0	0	0	0	0	0	0	0	0	0	1	0	0	17.883	2.027	16.961	0	0	0	0	0	0	0	0	0	0	0	0	0	-1	0	-2.0278	-17.891	16.968	0	0	0	1	0	0	17.47	2.0148	16.554	2
3662	36.62	0	0	0	0	0	0	0	0	0	0	0	0	0	0	0	0	0	0	0	0	0	0	0	0	0	0	0	0	0	0	0	0	0	0	0	0	0	0	0	0	-1	0	-2.1508	-17.769	16.797	0	0	0	0	-1	0	-2.0278	-17.891	16.968	0	0	0	0	0	0	0	0	0	2
3663	36.63	0	0	0	0	0	0	0	0	0	0	0	0	0	0	0	0	0	0	0	0	0	0	0	0	0	0	0	0	0	0	0	0	0	10.991	-10.991	19.037	0	0	0	0	0	0	10.996	-10.996	19.046	0	0	0	0	-1	0	-2.0278	-17.891	16.968	0	0	0	1	0	0	17.47	2.0148	16.554	0
3664	36.64	0	0	0	0	0	0	10.917	-10.917	18.908	0	0	0	0	0	0	0	0	0	0	0	0	0	0	0	0	0	0	0	0	0	0	0	0	0	0	0	0	0	0	0	0	0	0	0	0	0	0	0	0	-1	0	-2.0278	-17.891	16.968	0	0	0	0	0	0	0	0	0	2
3665	36.65	0	0	0	0	0	0	0	0	0	0	0	0	0	0	0	0	0	0	0	0	0	0	0	0	10.989	-10.989	19.033	0	0	0	0	0	0	0	0	0	0	0	0	0	0	0	0	0	0	0	0	0	0	-1	0	-2.0278	-17.891	16.968	0	0	0	0	0	0	0	0	0	2
3666	36.66	0	0	0	0	0	0	0	0	0	0	0	0	0	0	0	0	0	0	0	0	0	0	0	0	10.989	-10.989	19.033	0	0	0	1	0	0	17.883	2.027	16.961	0	0	0	0	0	0	10.996	-10.996	19.046	0	0	0	0	-1	0	-2.0278	-17.891	16.968	0	0	0	0	0	0	0	0	0	2
3667	36.67	0	0	0	0	0	0	0	0	0	0	0	0	0	0	0	0	0	0	0	0	0	0	0	0	0	0	0	0	0	0	0	0	0	0	0	0	0	0	0	0	0	0	0	0	0	0	0	0	0	-1	0	-2.0278	-17.891	16.968	0	0	0	1	0	0	17.47	2.0148	16.554	2
3668	36.68	0	0	0	0	0	0	0	0	0	0	0	0	0	0	0	0	0	0	0	0	0	0	0	0	0	0	0	0	0	0	1	0	0	17.883	2.027	16.961	0	0	0	0	0	0	0	0	0	0	0	0	0	-1	0	-2.0278	-17.891	16.968	0	0	0	0	0	0	10.93	-10.93	18.931	0
3669	36.69	0	0	0	0	0	0	0	0	0	0	0	0	0	0	0	0	0	0	0	0	0	0	0	0	0	0	0	0	0	0	0	0	0	0	0	0	0	0	0	0	0	0	0	0	0	0	0	0	0	-1	0	-2.0278	-17.891	16.968	0	0	0	0	0	0	0	0	0	2
3670	36.7	0	0	0	0	0	0	0	0	0	0	0	0	0	0	0	0	0	0	0	0	0	0	0	0	10.989	-10.989	19.033	0	0	0	0	0	0	0	0	0	0	0	0	0	0	0	0	0	0	0	0	0	0	-1	0	-2.0278	-17.891	16.968	0	0	0	0	0	0	0	0	0	2
3671	36.71	0	0	0	0	0	0	0	0	0	0	0	0	0	0	0	0	0	0	0	0	0	0	0	0	0	0	0	0	0	0	0	0	0	0	0	0	0	0	0	0	0	0	10.996	-10.996	19.046	0	0	0	0	-1	0	-2.0278	-17.891	16.968	0	0	0	1	0	0	17.47	2.0148	16.554	2
3672	36.72	0	0	0	0	0	0	0	0	0	0	0	0	0	0	0	0	0	0	0	0	0	0	0	0	0	0	0	0	0	0	1	0	0	17.883	2.027	16.961	0	0	0	0	0	0	0	0	0	0	0	0	0	0	0	0	0	0	0	0	0	0	0	0	0	0	0	2
3673	36.73	0	0	0	0	0	0	0	0	0	0	0	0	0	0	0	0	0	0	0	0	0	0	0	0	0	0	0	0	0	0	1	0	0	17.761	2.1499	16.789	0	0	0	0	0	0	0	0	0	0	0	0	0	-1	0	-2.0278	-17.891	16.968	0	0	0	1	0	0	17.47	2.0148	16.554	2
3674	36.74	0	0	0	0	0	0	0	0	0	0	0	0	0	0	0	0	0	0	0	0	0	0	0	0	0	0	0	0	0	0	1	0	0	17.883	2.027	16.961	0	0	0	0	0	0	10.996	-10.996	19.046	0	0	0	0	-1	0	-2.0278	-17.891	16.968	0	0	0	0	0	0	0	0	0	2
3675	36.75	0	0	0	0	0	0	0	0	0	0	0	0	0	0	0	0	0	0	0	0	0	0	0	0	0	0	0	0	0	0	1	0	0	17.883	2.027	16.961	0	0	0	0	0	0	10.996	-10.996	19.046	0	0	0	0	-1	0	-2.0278	-17.891	16.968	0	0	0	0	0	0	0	0	0	2
3676	36.76	0	0	0	0	0	0	0	0	0	0	0	0	0	0	0	0	0	0	0	0	0	0	0	0	0	0	0	0	0	0	1	0	0	17.761	2.1499	16.789	0	0	0	0	0	0	0	0	0	0	0	0	0	-1	0	-2.0278	-17.891	16.968	0	0	0	0	0	0	0	0	0	0
3677	36.77	0	0	0	0	0	0	0	0	0	0	0	0	0	0	0	0	0	0	0	0	0	0	0	0	0	0	0	0	0	0	1	0	0	17.883	2.027	16.961	0	0	0	0	-1	0	-2.1508	-17.769	16.797	0	0	0	0	-1	0	-2.0278	-17.891	16.968	0	0	0	0	0	0	0	0	0	2
3678	36.78	0	0	0	0	0	0	0	0	0	0	0	0	0	0	0	0	0	0	0	0	0	0	0	0	10.989	-10.989	19.033	0	0	0	1	0	0	17.883	2.027	16.961	0	0	0	0	0	0	0	0	0	0	0	0	0	-1	0	-2.0278	-17.891	16.968	0	0	0	0	0	0	0	0	0	2
3679	36.79	0	0	0	0	0	0	0	0	0	0	0	0	0	0	0	0	0	0	0	0	0	0	0	0	0	0	0	0	0	0	0	0	0	0	0	0	0	0	0	0	0	0	10.996	-10.996	19.046	0	0	0	0	-1	0	-2.0278	-17.891	16.968	0	0	0	1	0	0	17.47	2.0148	16.554	0
3680	36.8	0	0	0	0	0	0	0	0	0	0	0	0	0	0	0	0	0	0	0	0	0	0	0	0	10.989	-10.989	19.033	0	0	0	1	0	0	17.883	2.027	16.961	0	0	0	0	0	0	10.996	-10.996	19.046	0	0	0	0	-1	0	-2.0278	-17.891	16.968	0	0	0	0	0	0	0	0	0	2
3681	36.81	0	0	0	0	0	0	0	0	0	0	0	0	0	0	0	0	0	0	0	0	0	0	0	0	10.989	-10.989	19.033	0	0	0	1	0	0	17.883	2.027	16.961	0	0	0	0	0	0	0	0	0	0	0	0	0	0	0	10.994	-10.994	19.042	0	0	0	1	0	0	17.47	2.0148	16.554	0
3682	36.82	0	0	0	0	0	0	0	0	0	0	0	0	0	0	0	0	0	0	0	0	0	0	0	0	0	0	0	0	0	0	0	0	0	0	0	0	0	0	0	0	0	0	10.996	-10.996	19.046	0	0	0	0	0	0	0	0	0	0	0	0	0	0	0	0	0	0	2
3683	36.83	0	0	0	0	0	0	0	0	0	0	0	0	0	0	0	0	0	0	0	0	0	0	0	0	0	0	0	0	0	0	1	0	0	17.761	2.1499	16.789	0	0	0	0	0	0	0	0	0	0	0	0	0	0	0	0	0	0	0	0	0	1	0	0	17.47	2.0148	16.554	2
3684	36.84	0	0	0	0	0	0	0	0	0	0	0	0	0	0	0	0	0	0	0	0	0	0	0	0	0	0	0	0	0	0	0	0	0	0	0	0	0	0	0	0	0	0	10.996	-10.996	19.046	0	0	0	0	-1	0	-2.0278	-17.891	16.968	0	0	0	0	0	0	0	0	0	2
3685	36.85	0	0	0	0	0	0	0	0	0	0	0	0	0	0	0	0	0	0	0	0	0	0	0	0	0	0	0	0	0	0	1	0	0	17.883	2.027	16.961	0	0	0	0	0	0	0	0	0	0	0	0	0	-1	0	-2.0278	-17.891	16.968	0	0	0	0	0	0	0	0	0	2
3686	36.86	0	0	0	0	0	0	0	0	0	0	0	0	0	0	0	0	0	0	0	0	0	0	0	0	10.989	-10.989	19.033	0	0	0	0	0	0	0	0	0	0	0	0	0	0	0	10.996	-10.996	19.046	0	0	0	0	-1	0	-2.0278	-17.891	16.968	0	0	0	0	0	0	0	0	0	2
3687	36.87	0	0	0	0	0	0	0	0	0	0	0	0	0	0	0	0	0	0	0	0	0	0	0	0	0	0	0	0	0	0	0	0	0	0	0	0	0	0	0	0	0	0	10.996	-10.996	19.046	0	0	0	0	-1	0	-2.0278	-17.891	16.968	0	0	0	0	0	0	0	0	0	2
3688	36.88	0	0	0	0	0	0	0	0	0	0	0	0	0	0	0	0	0	0	0	0	0	0	0	0	0	0	0	0	0	0	0	0	0	0	0	0	0	0	0	0	0	0	10.996	-10.996	19.046	0	0	0	0	-1	0	-2.0278	-17.891	16.968	0	0	0	0	0	0	0	0	0	0
3689	36.89	0	0	0	0	0	0	0	0	0	0	0	0	0	0	0	0	0	0	0	0	0	0	0	0	0	0	0	0	0	0	0	0	0	0	0	0	0	0	0	0	0	0	0	0	0	0	0	0	0	-1	0	-2.0278	-17.891	16.968	0	0	0	1	0	0	17.47	2.0148	16.554	2
3690	36.9	0	0	0	0	0	0	0	0	0	0	0	0	0	0	0	0	0	0	0	0	0	0	0	0	0	0	0	0	0	0	1	0	0	17.883	2.027	16.961	0	0	0	0	0	0	10.996	-10.996	19.046	0	0	0	0	-1	0	-2.0278	-17.891	16.968	0	0	0	0	0	0	0	0	0	2
3691	36.91	0	0	0	0	0	0	0	0	0	0	0	0	0	0	0	0	0	0	0	0	0	0	0	0	0	0	0	0	0	0	1	0	0	17.883	2.027	16.961	0	0	0	0	0	0	10.996	-10.996	19.046	0	0	0	0	-1	0	-2.0278	-17.891	16.968	0	0	0	0	0	0	0	0	0	2
3692	36.92	0	0	0	0	0	0	0	0	0	0	0	0	0	0	0	0	0	0	0	0	0	0	0	0	0	0	0	0	0	0	0	0	0	0	0	0	0	0	0	0	0	0	0	0	0	0	0	0	0	-1	0	-2.0278	-17.891	16.968	0	0	0	0	0	0	0	0	0	2
3693	36.93	0	0	0	0	0	0	0	0	0	0	0	0	0	-1	0	-2.0372	-17.821	16.895	0	0	0	0	0	0	10.989	-10.989	19.033	0	0	0	0	0	0	10.991	-10.991	19.037	0	0	0	0	0	0	0	0	0	0	0	0	0	-1	0	-2.0278	-17.891	16.968	0	0	0	0	0	0	0	0	0	2
3694	36.94	0	0	0	0	0	0	0	0	0	0	0	0	0	0	0	0	0	0	0	0	0	0	0	0	0	0	0	0	0	0	0	0	0	0	0	0	0	0	0	0	0	0	10.996	-10.996	19.046	0	0	0	0	-1	0	-2.0278	-17.891	16.968	0	0	0	0	0	0	0	0	0	2
3695	36.95	0	0	0	0	0	0	0	0	0	0	0	0	0	0	0	0	0	0	0	0	0	0	0	0	0	0	0	0	0	0	1	0	0	17.883	2.027	16.961	0	0	0	0	0	0	0	0	0	0	0	0	0	-1	0	-2.0278	-17.891	16.968	0	0	0	0	0	0	0	0	0	2
3696	36.96	0	0	0	0	0	0	0	0	0	0	0	0	0	0	0	0	0	0	0	0	0	0	0	0	0	0	0	0	0	0	0	0	0	0	0	0	0	0	0	0	0	0	0	0	0	0	0	0	0	-1	0	-2.0278	-17.891	16.968	0	0	0	1	0	0	17.47	2.0148	16.554	2
3697	36.97	0	0	0	0	0	0	0	0	0	0	0	0	0	0	0	0	0	0	0	0	0	0	0	0	0	0	0	0	0	0	1	0	0	17.883	2.027	16.961	0	0	0	0	0	0	10.996	-10.996	19.046	0	0	0	0	-1	0	-2.0278	-17.891	16.968	0	0	0	0	0	0	0	0	0	2
3698	36.98	0	0	0	0	0	0	0	0	0	0	0	0	0	0	0	0	0	0	0	0	0	0	0	0	10.989	-10.989	19.033	0	0	0	0	0	0	0	0	0	0	0	0	0	0	0	0	0	0	0	0	0	0	-1	0	-2.0278	-17.891	16.968	0	0	0	1	0	0	17.47	2.0148	16.554	2
3699	36.99	0	0	0	0	0	0	0	0	0	0	0	0	0	0	0	0	0	0	0	0	0	0	0	0	10.989	-10.989	19.033	0	0	0	1	0	0	17.883	2.027	16.961	0	0	0	0	0	0	10.996	-10.996	19.046	0	0	0	0	-1	0	-2.0278	-17.891	16.968	0	0	0	0	0	0	0	0	0	2
3700	37	0	0	0	0	0	0	10.917	-10.917	18.908	0	0	0	0	0	0	0	0	0	0	0	0	0	0	0	0	0	0	0	0	0	0	0	0	0	0	0	0	0	0	0	0	0	0	0	0	0	0	0	0	-1	0	-2.0278	-17.891	16.968	0	0	0	0	0	0	0	0	0	2
3701	37.01	0	0	0	0	0	0	0	0	0	0	0	0	0	0	0	0	0	0	0	0	0	0	0	0	0	0	0	0	0	0	0	0	0	0	0	0	0	0	0	0	0	0	0	0	0	0	0	0	0	-1	0	-2.0278	-17.891	16.968	0	0	0	0	0	0	0	0	0	2
3702	37.02	0	0	0	0	0	0	0	0	0	0	0	0	0	0	0	0	0	0	0	0	0	0	0	0	0	0	0	0	0	0	0	0	0	10.991	-10.991	19.037	0	0	0	0	-1	0	-2.1508	-17.769	16.797	0	0	0	0	-1	0	-2.0278	-17.891	16.968	0	0	0	0	0	0	0	0	0	0
3703	37.03	0	0	0	0	0	0	10.917	-10.917	18.908	0	0	0	0	0	0	0	0	0	0	0	0	0	0	0	0	0	0	0	0	0	0	0	0	0	0	0	0	0	0	0	0	0	0	0	0	0	0	0	0	-1	0	-2.0278	-17.891	16.968	0	0	0	1	0	0	17.47	2.0148	16.554	2
3704	37.04	0	0	0	0	0	0	0	0	0	0	0	0	0	0	0	0	0	0	0	0	0	0	0	0	10.989	-10.989	19.033	0	0	0	0	0	0	0	0	0	0	0	0	0	0	0	10.996	-10.996	19.046	0	0	0	0	-1	0	-2.0278	-17.891	16.968	0	0	0	0	0	0	0	0	0	0
3705	37.05	0	0	0	0	0	0	10.917	-10.917	18.908	0	0	0	0	0	0	0	0	0	0	0	0	0	0	0	0	0	0	0	0	0	1	0	0	17.883	2.027	16.961	0	0	0	0	0	0	10.996	-10.996	19.046	0	0	0	0	-1	0	-2.0278	-17.891	16.968	0	0	0	0	0	0	0	0	0	2
3706	37.06	0	0	0	0	-1	0	-2.0364	-17.814	16.888	0	0	0	0	0	0	0	0	0	0	0	0	0	0	0	0	0	0	0	0	0	1	0	0	17.761	2.1499	16.789	0	0	0	0	0	0	0	0	0	0	0	0	0	-1	0	-2.0278	-17.891	16.968	0	0	0	1	0	0	17.47	2.0148	16.554	0
3707	37.07	0	0	0	0	0	0	0	0	0	0	0	0	0	0	0	0	0	0	0	0	0	0	0	0	0	0	0	0	0	0	0	0	0	0	0	0	0	0	0	0	0	0	0	0	0	0	0	0	0	-1	0	-2.0278	-17.891	16.968	0	0	0	0	0	0	0	0	0	2
3708	37.08	0	0	0	0	0	0	0	0	0	0	0	0	0	0	0	0	0	0	0	0	0	0	0	0	0	0	0	0	0	0	1	0	0	17.883	2.027	16.961	0	0	0	0	0	0	0	0	0	0	0	0	0	-1	0	-2.0278	-17.891	16.968	0	0	0	0	0	0	0	0	0	2
3709	37.09	0	0	0	0	0	0	0	0	0	0	0	0	0	0	0	0	0	0	0	0	0	0	0	0	0	0	0	0	0	0	1	0	0	17.883	2.027	16.961	0	0	0	0	0	0	0	0	0	0	0	0	0	0	0	0	0	0	0	0	0	0	0	0	0	0	0	2
3710	37.1	0	0	0	0	0	0	0	0	0	0	0	0	0	0	0	0	0	0	0	0	0	0	0	0	0	0	0	0	0	0	0	0	0	0	0	0	0	0	0	0	0	0	10.996	-10.996	19.046	0	0	0	0	-1	0	-2.0278	-17.891	16.968	0	0	0	0	0	0	0	0	0	2
3711	37.11	0	0	0	0	0	0	0	0	0	0	0	0	0	0	0	0	0	0	0	0	0	0	0	0	10.989	-10.989	19.033	0	0	0	1	0	0	17.883	2.027	16.961	0	0	0	0	0	0	10.996	-10.996	19.046	0	0	0	0	-1	0	-2.0278	-17.891	16.968	0	0	0	0	0	0	0	0	0	2
3712	37.12	0	0	0	0	0	0	0	0	0	0	0	0	0	0	0	0	0	0	0	0	0	0	0	0	0	0	0	0	0	0	0	0	0	0	0	0	0	0	0	0	0	0	0	0	0	0	0	0	0	-1	0	-2.0278	-17.891	16.968	0	0	0	0	0	0	0	0	0	2
3713	37.13	0	0	0	0	0	0	0	0	0	0	0	0	0	0	0	0	0	0	0	0	0	0	0	0	0	0	0	0	0	0	1	0	0	17.883	2.027	16.961	0	0	0	0	0	0	0	0	0	0	0	0	0	-1	0	-2.0278	-17.891	16.968	0	0	0	0	0	0	0	0	0	0
3714	37.14	0	0	0	0	0	0	0	0	0	0	0	0	0	0	0	0	0	0	0	0	0	0	0	0	10.989	-10.989	19.033	0	0	0	1	0	0	17.883	2.027	16.961	0	0	0	0	0	0	0	0	0	0	0	0	0	-1	0	-2.0278	-17.891	16.968	0	0	0	1	0	0	17.47	2.0148	16.554	2
3715	37.15	0	0	0	0	0	0	0	0	0	0	0	0	0	0	0	0	0	0	0	0	0	0	0	0	0	0	0	0	0	0	1	0	0	17.883	2.027	16.961	0	0	0	0	0	0	0	0	0	0	0	0	0	0	0	0	0	0	0	0	0	0	0	0	0	0	0	2
3716	37.16	0	0	0	0	0	0	10.917	-10.917	18.908	0	0	0	0	0	0	0	0	0	0	0	0	0	0	0	10.989	-10.989	19.033	0	0	0	0	0	0	0	0	0	0	0	0	0	0	0	10.996	-10.996	19.046	0	0	0	0	-1	0	-2.0278	-17.891	16.968	0	0	0	1	0	0	17.47	2.0148	16.554	2
3717	37.17	0	0	0	0	0	0	0	0	0	0	0	0	0	0	0	0	0	0	0	0	0	0	0	0	0	0	0	0	0	0	1	0	0	17.883	2.027	16.961	0	0	0	0	0	0	10.996	-10.996	19.046	0	0	0	0	-1	0	-2.0278	-17.891	16.968	0	0	0	0	0	0	0	0	0	0
3718	37.18	0	0	0	0	0	0	10.917	-10.917	18.908	0	0	0	0	0	0	0	0	0	0	0	0	0	0	0	0	0	0	0	0	0	1	0	0	17.883	2.027	16.961	0	0	0	0	0	0	0	0	0	0	0	0	0	-1	0	-2.0278	-17.891	16.968	0	0	0	0	0	0	10.93	-10.93	18.931	2
3719	37.19	0	0	0	0	0	0	10.917	-10.917	18.908	0	0	0	0	0	0	0	0	0	0	0	0	0	0	0	0	0	0	0	0	0	1	0	0	17.883	2.027	16.961	0	0	0	0	0	0	0	0	0	0	0	0	0	-1	0	-2.0278	-17.891	16.968	0	0	0	0	0	0	0	0	0	2
3720	37.2	0	0	0	0	0	0	0	0	0	0	0	0	0	0	0	0	0	0	0	0	0	0	0	0	0	0	0	0	0	0	0	0	0	0	0	0	0	0	0	0	0	0	10.996	-10.996	19.046	0	0	0	0	-1	0	-2.0278	-17.891	16.968	0	0	0	0	0	0	0	0	0	0
3721	37.21	0	0	0	0	0	0	0	0	0	0	0	0	0	0	0	0	0	0	0	0	0	0	0	0	10.989	-10.989	19.033	0	0	0	1	0	0	17.883	2.027	16.961	0	0	0	0	-1	0	-2.0279	-17.891	16.969	0	0	0	0	-1	0	-2.0278	-17.891	16.968	0	0	0	1	0	0	17.47	2.0148	16.554	2
3722	37.22	0	0	0	0	0	0	0	0	0	0	0	0	0	0	0	0	0	0	0	0	0	0	0	0	0	0	0	0	0	0	0	0	0	0	0	0	0	0	0	0	0	0	10.996	-10.996	19.046	0	0	0	0	-1	0	-2.0278	-17.891	16.968	0	0	0	0	0	0	0	0	0	2
3723	37.23	0	0	0	0	0	0	0	0	0	0	0	0	0	0	0	0	0	0	0	0	0	1	0	0	17.755	2.1475	16.785	0	0	0	1	0	0	17.883	2.027	16.961	0	0	0	0	0	0	0	0	0	0	0	0	0	-1	0	-2.0278	-17.891	16.968	0	0	0	0	0	0	0	0	0	0
3724	37.24	0	0	0	0	0	0	0	0	0	0	0	0	0	0	0	0	0	0	0	0	0	0	0	0	0	0	0	0	0	0	1	0	0	17.883	2.027	16.961	0	0	0	0	0	0	10.996	-10.996	19.046	0	0	0	0	-1	0	-2.0278	-17.891	16.968	0	0	0	0	0	0	0	0	0	2
3725	37.25	0	0	0	0	0	0	0	0	0	0	0	0	0	0	0	0	0	0	0	0	0	0	0	0	10.989	-10.989	19.033	0	0	0	1	0	0	17.883	2.027	16.961	0	0	0	0	0	0	10.996	-10.996	19.046	0	0	0	0	-1	0	-2.0278	-17.891	16.968	0	0	0	0	0	0	0	0	0	2
3726	37.26	0	0	0	0	0	0	10.917	-10.917	18.908	0	0	0	0	0	0	0	0	0	0	0	0	0	0	0	10.989	-10.989	19.033	0	0	0	1	0	0	17.761	2.1499	16.789	0	0	0	0	-1	0	-2.0279	-17.891	16.969	0	0	0	0	0	0	0	0	0	0	0	0	1	0	0	17.47	2.0148	16.554	2
3727	37.27	0	0	0	0	0	0	0	0	0	0	0	0	0	0	0	0	0	0	0	0	0	0	0	0	0	0	0	0	0	0	0	0	0	0	0	0	0	0	0	0	-1	0	-2.1508	-17.769	16.797	0	0	0	0	-1	0	-2.0278	-17.891	16.968	0	0	0	0	0	0	0	0	0	2
3728	37.28	0	0	0	0	0	0	0	0	0	0	0	0	0	0	0	0	0	0	0	0	0	0	0	0	0	0	0	0	0	0	1	0	0	17.883	2.027	16.961	0	0	0	0	0	0	0	0	0	0	0	0	0	-1	0	-2.0278	-17.891	16.968	0	0	0	0	0	0	0	0	0	2
3729	37.29	0	0	0	0	0	0	0	0	0	0	0	0	0	0	0	0	0	0	0	0	0	0	0	0	0	0	0	0	0	0	1	0	0	17.883	2.027	16.961	0	0	0	0	0	0	0	0	0	0	0	0	0	-1	0	-2.0278	-17.891	16.968	0	0	0	0	0	0	0	0	0	2
3730	37.3	0	0	0	0	0	0	10.917	-10.917	18.908	0	0	0	0	0	0	0	0	0	0	0	0	0	0	0	0	0	0	0	0	0	0	0	0	0	0	0	0	0	0	0	-1	0	-2.1508	-17.769	16.797	0	0	0	0	-1	0	-2.0278	-17.891	16.968	0	0	0	0	0	0	0	0	0	2
3731	37.31	0	0	0	0	0	0	0	0	0	0	0	0	0	0	0	0	0	0	0	0	0	0	0	0	0	0	0	0	0	0	1	0	0	17.761	2.1499	16.789	0	0	0	0	0	0	0	0	0	0	0	0	0	-1	0	-2.0278	-17.891	16.968	0	0	0	0	0	0	0	0	0	2
3732	37.32	0	0	0	0	0	0	0	0	0	0	0	0	0	0	0	0	0	0	0	0	0	0	0	0	0	0	0	0	0	0	0	0	0	0	0	0	0	0	0	0	0	0	10.996	-10.996	19.046	0	0	0	0	-1	0	-2.0278	-17.891	16.968	0	0	0	0	0	0	0	0	0	2
3733	37.33	0	0	0	0	0	0	0	0	0	0	0	0	0	0	0	0	0	0	0	0	0	0	0	0	0	0	0	0	0	0	0	0	0	10.991	-10.991	19.037	0	0	0	0	0	0	0	0	0	0	0	0	0	-1	0	-2.0278	-17.891	16.968	0	0	0	0	0	0	0	0	0	2
3734	37.34	0	0	0	0	0	0	0	0	0	0	0	0	0	0	0	0	0	0	0	0	0	0	0	0	0	0	0	0	0	0	1	0	0	17.883	2.027	16.961	0	0	0	0	0	0	0	0	0	0	0	0	0	-1	0	-2.0278	-17.891	16.968	0	0	0	0	0	0	0	0	0	2
3735	37.35	0	0	0	0	0	0	0	0	0	0	0	0	0	0	0	0	0	0	0	0	0	0	0	0	0	0	0	0	0	0	0	0	0	0	0	0	0	0	0	0	0	0	10.996	-10.996	19.046	0	0	0	0	-1	0	-2.0278	-17.891	16.968	0	0	0	0	0	0	0	0	0	0
3736	37.36	0	0	0	0	0	0	0	0	0	0	0	0	0	0	0	0	0	0	0	0	0	0	0	0	0	0	0	0	0	0	0	0	0	0	0	0	0	0	0	0	0	0	0	0	0	0	0	0	0	-1	0	-2.0278	-17.891	16.968	0	0	0	1	0	0	17.47	2.0148	16.554	2
3737	37.37	0	0	0	0	0	0	0	0	0	0	0	0	0	0	0	0	0	0	0	0	0	0	-1	0	-2.0266	-17.88	16.957	0	0	0	0	0	0	0	0	0	0	0	0	0	0	0	10.996	-10.996	19.046	0	0	0	0	-1	0	-2.0278	-17.891	16.968	0	0	0	0	0	0	0	0	0	2
3738	37.38	0	0	0	0	0	0	0	0	0	0	0	0	0	0	0	0	0	0	0	0	0	0	0	0	10.989	-10.989	19.033	0	0	0	1	0	0	17.883	2.027	16.961	0	0	0	0	0	0	0	0	0	0	0	0	0	-1	0	-2.0278	-17.891	16.968	0	0	0	0	0	0	0	0	0	0
3739	37.39	0	0	0	0	0	0	0	0	0	0	0	0	0	0	0	0	0	0	0	0	0	0	0	0	0	0	0	0	0	0	0	0	0	0	0	0	0	0	0	0	0	0	0	0	0	0	0	0	0	-1	0	-2.0278	-17.891	16.968	0	0	0	0	0	0	0	0	0	0
3740	37.4	0	0	0	0	0	0	10.917	-10.917	18.908	0	0	0	0	0	0	0	0	0	0	0	0	0	0	0	0	0	0	0	0	0	0	0	0	0	0	0	0	0	0	0	0	0	10.996	-10.996	19.046	0	0	0	0	-1	0	-2.0278	-17.891	16.968	0	0	0	0	0	0	0	0	0	2
3741	37.41	0	0	0	0	0	0	0	0	0	0	0	0	0	0	0	0	0	0	0	0	0	0	0	0	0	0	0	0	0	0	0	0	0	10.991	-10.991	19.037	0	0	0	0	0	0	0	0	0	0	0	0	0	-1	0	-2.0278	-17.891	16.968	0	0	0	1	0	0	17.471	2.0135	16.556	2
3742	37.42	0	0	0	0	0	0	0	0	0	0	0	0	0	-1	0	-2.0372	-17.821	16.895	0	0	0	0	0	0	0	0	0	0	0	0	0	0	0	0	0	0	0	0	0	0	0	0	10.996	-10.996	19.046	0	0	0	0	-1	0	-2.0278	-17.891	16.968	0	0	0	0	0	0	0	0	0	2
3743	37.43	0	0	0	0	0	0	0	0	0	0	0	0	0	0	0	0	0	0	0	0	0	0	0	0	0	0	0	0	0	0	0	0	0	0	0	0	0	0	0	0	0	0	0	0	0	0	0	0	0	-1	0	-2.0278	-17.891	16.968	0	0	0	0	0	0	0	0	0	2
3744	37.44	0	0	0	0	0	0	0	0	0	0	0	0	0	0	0	0	0	0	0	0	0	0	0	0	0	0	0	0	0	0	1	0	0	17.883	2.027	16.961	0	0	0	0	-1	0	-2.1508	-17.769	16.797	0	0	0	0	-1	0	-2.0278	-17.891	16.968	0	0	0	0	0	0	0	0	0	2
3745	37.45	0	0	0	0	0	0	0	0	0	0	0	0	0	0	0	0	0	0	0	0	0	0	0	0	0	0	0	0	0	0	0	0	0	0	0	0	0	0	0	0	-1	0	-2.0279	-17.891	16.969	0	0	0	0	-1	0	-2.0278	-17.891	16.968	0	0	0	0	0	0	0	0	0	0
3746	37.46	0	0	0	0	0	0	0	0	0	0	0	0	0	0	0	0	0	0	0	0	0	0	0	0	0	0	0	0	0	0	1	0	0	17.761	2.1499	16.789	0	0	0	0	0	0	0	0	0	0	0	0	0	-1	0	-2.0278	-17.891	16.968	0	0	0	0	0	0	0	0	0	2
3747	37.47	0	0	0	0	0	0	0	0	0	0	0	0	0	0	0	0	0	0	0	0	0	0	0	0	10.989	-10.989	19.033	0	0	0	0	0	0	0	0	0	0	0	0	0	-1	0	-2.1508	-17.769	16.797	0	0	0	0	-1	0	-2.0278	-17.891	16.968	0	0	0	0	0	0	0	0	0	2
3748	37.48	0	0	0	0	0	0	0	0	0	0	0	0	0	0	0	0	0	0	0	0	0	0	0	0	0	0	0	0	0	0	1	0	0	17.883	2.027	16.961	0	0	0	0	0	0	10.996	-10.996	19.046	0	0	0	0	-1	0	-2.0278	-17.891	16.968	0	0	0	0	0	0	0	0	0	2
3749	37.49	0	0	0	0	0	0	0	0	0	0	0	0	0	0	0	0	0	0	0	0	0	0	0	0	0	0	0	0	0	0	0	0	0	0	0	0	0	0	0	0	0	0	10.996	-10.996	19.046	0	0	0	0	-1	0	-2.0278	-17.891	16.968	0	0	0	0	0	0	0	0	0	2
3750	37.5	0	0	0	0	0	0	0	0	0	0	0	0	0	0	0	0	0	0	0	0	0	0	0	0	0	0	0	0	0	0	0	0	0	0	0	0	0	0	0	0	0	0	10.996	-10.996	19.046	0	0	0	0	-1	0	-2.0278	-17.891	16.968	0	0	0	0	0	0	0	0	0	2
3751	37.51	0	0	0	0	0	0	0	0	0	0	0	0	0	0	0	0	0	0	0	0	0	0	0	0	0	0	0	0	0	0	1	0	0	17.883	2.027	16.961	0	0	0	0	0	0	10.996	-10.996	19.046	0	0	0	0	-1	0	-2.0278	-17.891	16.968	0	0	0	1	0	0	17.47	2.0148	16.554	2
3752	37.52	0	0	0	0	0	0	0	0	0	0	0	0	0	0	0	0	0	0	0	0	0	0	0	0	0	0	0	0	0	0	0	0	0	11.258	-11.253	19.496	0	0	0	0	0	0	10.996	-10.996	19.046	0	0	0	0	-1	0	-2.0278	-17.891	16.968	0	0	0	0	0	0	0	0	0	0
3753	37.53	0	0	0	0	0	0	0	0	0	0	0	0	0	0	0	0	0	0	0	0	0	0	0	0	0	0	0	0	0	0	1	0	0	17.883	2.027	16.961	0	0	0	0	0	0	0	0	0	0	0	0	0	-1	0	-2.0278	-17.891	16.968	0	0	0	1	0	0	17.47	2.0148	16.554	2
3754	37.54	0	0	0	0	0	0	0	0	0	0	0	0	0	0	0	0	0	0	0	0	0	0	0	0	0	0	0	0	0	0	1	0	0	17.883	2.027	16.961	0	0	0	0	0	0	10.996	-10.996	19.046	0	0	0	0	-1	0	-2.0278	-17.891	16.968	0	0	0	0	0	0	0	0	0	2
3755	37.55	0	0	0	0	0	0	0	0	0	0	0	0	0	0	0	0	0	0	0	0	0	0	0	0	0	0	0	0	0	0	1	0	0	17.883	2.027	16.961	0	0	0	0	0	0	0	0	0	0	0	0	0	-1	0	-2.0278	-17.891	16.968	0	0	0	1	0	0	17.47	2.0148	16.554	2
3756	37.56	0	0	0	0	0	0	0	0	0	0	0	0	0	0	0	0	0	0	0	0	0	0	0	0	0	0	0	0	0	0	1	0	0	17.883	2.027	16.961	0	0	0	0	0	0	0	0	0	0	0	0	0	-1	0	-2.0278	-17.891	16.968	0	0	0	1	0	0	17.47	2.0148	16.554	0
3757	37.57	0	0	0	0	0	0	0	0	0	0	0	0	0	0	0	0	0	0	0	0	0	0	0	0	0	0	0	0	0	0	0	0	0	0	0	0	0	0	0	0	0	0	10.996	-10.996	19.046	0	0	0	0	-1	0	-2.0278	-17.891	16.968	0	0	0	0	0	0	0	0	0	2
3758	37.58	0	0	0	0	0	0	0	0	0	0	0	0	0	0	0	0	0	0	0	0	0	0	0	0	10.989	-10.989	19.033	0	0	0	1	0	0	17.883	2.027	16.961	0	0	0	0	0	0	0	0	0	0	0	0	0	-1	0	-2.0278	-17.891	16.968	0	0	0	1	0	0	17.471	2.0135	16.556	2
3759	37.59	0	0	0	0	0	0	0	0	0	0	0	0	0	0	0	0	0	0	0	0	0	0	0	0	0	0	0	0	0	0	0	0	0	0	0	0	0	0	0	0	0	0	0	0	0	0	0	0	0	-1	0	-2.0278	-17.891	16.968	0	0	0	0	0	0	0	0	0	2
3760	37.6	0	0	0	0	0	0	0	0	0	0	0	0	0	0	0	0	0	0	0	0	0	0	0	0	0	0	0	0	0	0	0	0	0	0	0	0	0	0	0	0	0	0	10.996	-10.996	19.046	0	0	0	0	-1	0	-2.0278	-17.891	16.968	0	0	0	1	0	0	17.47	2.0148	16.554	2
3761	37.61	0	0	0	0	0	0	0	0	0	0	0	0	0	0	0	0	0	0	0	0	0	0	0	0	10.989	-10.989	19.033	0	0	0	0	0	0	0	0	0	0	0	0	0	0	0	0	0	0	0	0	0	0	-1	0	-2.0278	-17.891	16.968	0	0	0	1	0	0	17.47	2.0148	16.554	2
3762	37.62	0	0	0	0	0	0	0	0	0	0	0	0	0	0	0	0	0	0	0	0	0	0	0	0	0	0	0	0	0	0	0	0	0	0	0	0	0	0	0	0	0	0	10.996	-10.996	19.046	0	0	0	0	-1	0	-2.0278	-17.891	16.968	0	0	0	0	0	0	0	0	0	2
3763	37.63	0	0	0	0	0	0	0	0	0	0	0	0	0	0	0	0	0	0	0	0	0	0	0	0	10.989	-10.989	19.033	0	0	0	1	0	0	17.883	2.027	16.961	0	0	0	0	0	0	0	0	0	0	0	0	0	-1	0	-2.0278	-17.891	16.968	0	0	0	0	0	0	10.93	-10.93	18.931	2
3764	37.64	0	0	0	0	0	0	0	0	0	0	0	0	0	0	0	0	0	0	0	0	0	0	0	0	0	0	0	0	0	0	0	0	0	0	0	0	0	0	0	0	0	0	0	0	0	0	0	0	0	-1	0	-2.0278	-17.891	16.968	0	0	0	0	0	0	0	0	0	2
3765	37.65	0	0	0	0	0	0	0	0	0	0	0	0	0	0	0	0	0	0	0	0	0	0	0	0	0	0	0	0	0	0	0	0	0	0	0	0	0	0	0	0	0	0	10.996	-10.996	19.046	0	0	0	0	-1	0	-2.0278	-17.891	16.968	0	0	0	0	0	0	0	0	0	0
3766	37.66	0	0	0	0	0	0	0	0	0	0	0	0	0	0	0	0	0	0	0	0	0	0	0	0	0	0	0	0	0	0	1	0	0	17.883	2.027	16.961	0	0	0	0	0	0	0	0	0	0	0	0	0	-1	0	-2.0278	-17.891	16.968	0	0	0	0	0	0	0	0	0	2
3767	37.67	0	0	0	0	0	0	10.917	-10.917	18.908	0	0	0	0	0	0	0	0	0	0	0	0	0	0	0	0	0	0	0	0	0	0	0	0	0	0	0	0	0	0	0	0	0	10.996	-10.996	19.046	0	0	0	0	-1	0	-2.0278	-17.891	16.968	0	0	0	0	0	0	0	0	0	2
3768	37.68	0	0	0	0	0	0	0	0	0	0	0	0	0	0	0	0	0	0	0	0	0	0	0	0	10.989	-10.989	19.033	0	0	0	1	0	0	17.883	2.027	16.961	0	0	0	0	0	0	0	0	0	0	0	0	0	-1	0	-2.0278	-17.891	16.968	0	0	0	1	0	0	17.47	2.0148	16.554	2
3769	37.69	0	0	0	0	0	0	0	0	0	0	0	0	0	0	0	0	0	0	0	0	0	0	0	0	0	0	0	0	0	0	1	0	0	17.883	2.027	16.961	0	0	0	0	0	0	0	0	0	0	0	0	0	-1	0	-2.0278	-17.891	16.968	0	0	0	0	0	0	0	0	0	2
3770	37.7	0	0	0	0	0	0	0	0	0	0	0	0	0	0	0	0	0	0	0	0	0	0	0	0	10.989	-10.989	19.033	0	0	0	0	0	0	0	0	0	0	0	0	0	0	0	10.996	-10.996	19.046	0	0	0	0	-1	0	-2.0278	-17.891	16.968	0	0	0	0	0	0	0	0	0	0
3771	37.71	0	0	0	0	0	0	0	0	0	0	0	0	0	0	0	0	0	0	0	0	0	0	0	0	0	0	0	0	0	0	1	0	0	17.883	2.027	16.961	0	0	0	0	0	0	10.996	-10.996	19.046	0	0	0	0	-1	0	-2.0278	-17.891	16.968	0	0	0	1	0	0	17.47	2.0148	16.554	2
3772	37.72	0	0	0	0	0	0	0	0	0	0	0	0	0	0	0	0	0	0	0	0	0	0	0	0	0	0	0	0	0	0	0	0	0	0	0	0	0	0	0	0	-1	0	-2.1508	-17.769	16.797	0	0	0	0	-1	0	-2.0278	-17.891	16.968	0	0	0	0	0	0	0	0	0	2
3773	37.73	0	0	0	0	0	0	0	0	0	0	0	0	0	0	0	0	0	0	0	0	0	0	0	0	0	0	0	0	0	0	0	0	0	0	0	0	0	0	0	0	0	0	0	0	0	0	0	0	0	-1	0	-2.0278	-17.891	16.968	0	0	0	1	0	0	17.47	2.0148	16.554	2
3774	37.74	0	0	0	0	0	0	0	0	0	0	0	0	0	0	0	0	0	0	0	0	0	0	0	0	0	0	0	0	0	0	1	0	0	17.883	2.027	16.961	0	0	0	0	0	0	0	0	0	0	0	0	0	0	0	0	0	0	0	0	0	0	0	0	0	0	0	2
3775	37.75	0	0	0	0	0	0	0	0	0	0	0	0	0	0	0	0	0	0	0	0	0	0	0	0	0	0	0	0	0	0	0	0	0	0	0	0	0	0	0	0	0	0	0	0	0	0	0	0	0	-1	0	-2.0278	-17.891	16.968	0	0	0	0	0	0	0	0	0	2
3776	37.76	0	0	0	0	0	0	0	0	0	0	0	0	0	0	0	0	0	0	0	0	0	0	0	0	0	0	0	0	0	0	1	0	0	17.883	2.027	16.961	0	0	0	0	0	0	0	0	0	0	0	0	1	-1	0	7.5503	-27.469	31.921	0	0	0	0	0	0	10.93	-10.93	18.931	2
3777	37.77	0	0	0	0	0	0	0	0	0	0	0	0	0	0	0	0	0	0	0	0	0	0	0	0	0	0	0	0	0	0	0	0	0	0	0	0	0	0	0	0	0	0	0	0	0	0	0	0	0	-1	0	-2.0278	-17.891	16.968	0	0	0	0	0	0	0	0	0	2
3778	37.78	0	0	0	0	0	0	0	0	0	0	0	0	0	0	0	0	0	0	0	0	0	0	0	0	0	0	0	0	0	0	1	0	0	17.761	2.1499	16.789	0	0	0	0	0	0	0	0	0	0	0	0	0	-1	0	-2.0278	-17.891	16.968	0	0	0	0	0	0	10.93	-10.93	18.931	2
3779	37.79	0	0	0	0	0	0	0	0	0	0	0	0	0	0	0	0	0	0	0	0	0	0	0	0	0	0	0	0	0	0	0	0	0	0	0	0	0	0	0	0	0	0	10.996	-10.996	19.046	0	0	0	0	-1	0	-2.0278	-17.891	16.968	0	0	0	0	0	0	10.93	-10.93	18.931	2
3780	37.8	0	0	0	0	0	0	0	0	0	0	0	0	0	0	0	0	0	0	0	0	0	0	0	0	0	0	0	0	0	0	0	0	0	10.991	-10.991	19.037	0	0	0	0	0	0	10.996	-10.996	19.046	0	0	0	0	-1	0	-2.0278	-17.891	16.968	0	0	0	0	0	0	0	0	0	0
3781	37.81	0	0	0	0	0	0	0	0	0	0	0	0	0	0	0	0	0	0	0	0	0	0	0	0	0	0	0	0	0	0	1	0	0	17.883	2.027	16.961	0	0	0	0	0	0	10.996	-10.996	19.046	0	0	0	0	-1	0	-2.0278	-17.891	16.968	0	0	0	0	0	0	0	0	0	2
3782	37.82	0	0	0	0	0	0	0	0	0	0	0	0	0	0	0	0	0	0	0	0	0	0	0	0	0	0	0	0	0	0	1	0	0	17.883	2.027	16.961	0	0	0	0	0	0	0	0	0	0	0	0	0	-1	0	-2.0278	-17.891	16.968	0	0	0	0	0	0	0	0	0	2
3783	37.83	0	0	0	0	0	0	0	0	0	0	0	0	0	0	0	0	0	0	0	0	0	0	0	0	0	0	0	0	0	0	1	0	0	17.883	2.027	16.961	0	0	0	0	0	0	0	0	0	0	0	0	0	-1	0	-2.0278	-17.891	16.968	0	0	0	0	0	0	0	0	0	2
3784	37.84	0	0	0	0	0	0	0	0	0	0	0	0	0	0	0	0	0	0	0	0	0	0	0	0	10.989	-10.989	19.033	0	0	0	0	0	0	0	0	0	0	0	0	0	0	0	0	0	0	0	0	0	0	-1	0	-2.0278	-17.891	16.968	0	0	0	0	0	0	0	0	0	2
3785	37.85	0	0	0	0	0	0	0	0	0	0	0	0	0	0	0	0	0	0	0	0	0	0	0	0	0	0	0	0	0	0	1	0	0	17.761	2.1499	16.789	0	0	0	0	0	0	10.996	-10.996	19.046	0	0	0	1	-1	0	7.5503	-27.469	31.921	0	0	0	0	0	0	0	0	0	2
3786	37.86	0	0	0	0	0	0	0	0	0	0	0	0	0	0	0	0	0	0	0	0	0	0	0	0	0	0	0	0	0	0	0	0	0	10.991	-10.991	19.037	0	0	0	0	0	0	0	0	0	0	0	0	0	-1	0	-2.0278	-17.891	16.968	0	0	0	0	0	0	0	0	0	2
3787	37.87	0	0	0	0	0	0	0	0	0	0	0	0	0	0	0	0	0	0	0	0	0	0	0	0	0	0	0	0	0	0	0	0	0	0	0	0	0	0	0	0	0	0	10.996	-10.996	19.046	0	0	0	0	-1	0	-2.0278	-17.891	16.968	0	0	0	0	0	0	0	0	0	2
3788	37.88	0	0	0	0	0	0	0	0	0	0	0	0	0	0	0	0	0	0	0	0	0	0	0	0	0	0	0	0	0	0	0	0	0	0	0	0	0	0	0	0	0	0	0	0	0	0	0	0	0	-1	0	-2.0278	-17.891	16.968	0	0	0	1	0	0	17.471	2.0135	16.556	2
3789	37.89	0	0	0	0	0	0	0	0	0	0	0	0	0	0	0	0	0	0	0	0	0	0	0	0	10.989	-10.989	19.033	0	0	0	0	0	0	0	0	0	0	0	0	0	0	0	10.996	-10.996	19.046	0	0	0	1	-1	0	7.5503	-27.469	31.921	0	0	0	0	0	0	0	0	0	2
3790	37.9	0	0	0	0	0	0	0	0	0	0	0	0	0	0	0	0	0	0	0	0	0	0	0	0	0	0	0	0	0	0	0	0	0	0	0	0	0	0	0	0	0	0	0	0	0	0	0	0	0	-1	0	-2.0278	-17.891	16.968	0	0	0	0	0	0	0	0	0	2
3791	37.91	0	0	0	0	0	0	10.917	-10.917	18.908	0	0	0	0	0	0	0	0	0	0	0	0	0	0	0	10.989	-10.989	19.033	0	0	0	1	0	0	17.883	2.027	16.961	0	0	0	0	0	0	0	0	0	0	0	0	1	-1	0	7.5503	-27.469	31.921	0	0	0	0	0	0	0	0	0	2
3792	37.92	0	0	0	0	0	0	0	0	0	0	0	0	0	0	0	0	0	0	0	0	0	0	0	0	0	0	0	0	0	0	0	0	0	0	0	0	0	0	0	0	0	0	10.996	-10.996	19.046	0	0	0	0	-1	0	-2.0278	-17.891	16.968	0	0	0	0	0	0	0	0	0	2
3793	37.93	0	0	0	0	0	0	0	0	0	0	0	0	0	0	0	0	0	0	0	0	0	0	0	0	10.989	-10.989	19.033	0	0	0	1	0	0	17.883	2.027	16.961	0	0	0	0	0	0	0	0	0	0	0	0	0	-1	0	-2.0278	-17.891	16.968	0	0	0	0	0	0	0	0	0	0
3794	37.94	0	0	0	0	0	0	0	0	0	0	0	0	0	0	0	0	0	0	0	0	0	0	0	0	0	0	0	0	0	0	0	0	0	0	0	0	0	0	0	0	-1	0	-2.0279	-17.891	16.969	0	0	0	0	-1	0	-2.0278	-17.891	16.968	0	0	0	0	0	0	0	0	0	2
3795	37.95	0	0	0	0	0	0	0	0	0	0	0	0	0	0	0	0	0	0	0	0	0	0	0	0	10.989	-10.989	19.033	0	0	0	0	0	0	0	0	0	0	0	0	0	0	0	0	0	0	0	0	0	0	-1	0	-2.0278	-17.891	16.968	0	0	0	0	0	0	0	0	0	2
3796	37.96	0	0	0	0	0	0	0	0	0	0	0	0	0	0	0	0	0	0	0	0	0	0	0	0	0	0	0	0	0	0	1	0	0	17.883	2.027	16.961	0	0	0	0	0	0	10.996	-10.996	19.046	0	0	0	0	-1	0	-2.0278	-17.891	16.968	0	0	0	1	0	0	17.47	2.0148	16.554	2
3797	37.97	0	0	0	0	0	0	0	0	0	0	0	0	0	0	0	0	0	0	0	0	0	0	0	0	0	0	0	0	0	0	0	0	0	0	0	0	0	0	0	0	0	0	10.996	-10.996	19.046	0	0	0	0	-1	0	-2.0278	-17.891	16.968	0	0	0	0	0	0	0	0	0	2
3798	37.98	0	0	0	0	0	0	0	0	0	0	0	0	0	0	0	0	0	0	0	0	0	0	0	0	10.989	-10.989	19.033	0	0	0	1	0	0	17.883	2.027	16.961	0	0	0	0	0	0	10.996	-10.996	19.046	0	0	0	0	-1	0	-2.0278	-17.891	16.968	0	0	0	0	0	0	0	0	0	2
3799	37.99	0	0	0	0	0	0	0	0	0	0	0	0	0	0	0	0	0	0	0	0	0	0	0	0	0	0	0	0	0	0	0	0	0	0	0	0	0	0	0	0	0	0	0	0	0	0	0	0	0	-1	0	-2.0278	-17.891	16.968	0	0	0	1	0	0	17.47	2.0148	16.554	2
3800	38	0	0	0	0	0	0	0	0	0	0	0	0	0	0	0	0	0	0	0	0	0	0	0	0	0	0	0	0	0	0	0	0	0	10.991	-10.991	19.037	0	0	0	0	0	0	10.996	-10.996	19.046	0	0	0	0	-1	0	-2.0278	-17.891	16.968	0	0	0	0	0	0	0	0	0	2
3801	38.01	0	0	0	0	0	0	0	0	0	0	0	0	0	0	0	0	0	0	0	0	0	0	0	0	0	0	0	0	0	0	1	0	0	17.883	2.027	16.961	0	0	0	0	0	0	0	0	0	0	0	0	0	-1	0	-2.0278	-17.891	16.968	0	0	0	1	0	0	17.47	2.0148	16.554	2
3802	38.02	0	0	0	0	0	0	0	0	0	0	0	0	0	0	0	0	0	0	0	0	0	0	0	0	0	0	0	0	0	0	1	0	0	17.883	2.027	16.961	0	0	0	0	0	0	10.996	-10.996	19.046	0	0	0	0	-1	0	-2.0278	-17.891	16.968	0	0	0	0	0	0	0	0	0	2
3803	38.03	0	0	0	0	0	0	0	0	0	0	0	0	0	0	0	0	0	0	0	0	0	0	0	0	0	0	0	0	0	0	1	0	0	17.883	2.027	16.961	0	0	0	0	0	0	10.996	-10.996	19.046	0	0	0	1	-1	0	7.5503	-27.469	31.921	0	0	0	0	0	0	0	0	0	2
3804	38.04	0	0	0	0	0	0	0	0	0	0	0	0	0	0	0	0	0	0	0	0	0	0	0	0	0	0	0	0	0	0	0	-1	0	-2.0265	-17.879	16.957	0	0	0	0	0	0	10.996	-10.996	19.046	0	0	0	0	-1	0	-2.0278	-17.891	16.968	0	0	0	1	0	0	17.47	2.0148	16.554	2
3805	38.05	0	0	0	0	0	0	0	0	0	0	0	0	0	0	0	0	0	0	0	0	0	0	0	0	0	0	0	0	0	0	1	0	0	17.883	2.027	16.961	0	0	0	0	0	0	10.996	-10.996	19.046	0	0	0	0	-1	0	-2.0278	-17.891	16.968	0	0	0	0	0	0	0	0	0	2
3806	38.06	0	0	0	0	0	0	0	0	0	0	0	0	0	0	0	0	0	0	0	0	0	0	0	0	10.989	-10.989	19.033	0	0	0	1	0	0	17.883	2.027	16.961	0	0	0	0	0	0	10.996	-10.996	19.046	0	0	0	0	-1	0	-2.0278	-17.891	16.968	0	0	0	0	0	0	0	0	0	0
3807	38.07	0	0	0	0	0	0	0	0	0	0	0	0	0	0	0	0	0	0	0	0	0	0	0	0	0	0	0	0	0	0	1	0	0	17.883	2.027	16.961	0	0	0	0	0	0	0	0	0	0	0	0	0	-1	0	-2.0278	-17.891	16.968	0	0	0	0	0	0	0	0	0	2
3808	38.08	0	0	0	0	0	0	0	0	0	0	0	0	0	0	0	0	0	0	0	0	0	0	0	0	0	0	0	0	0	0	0	0	0	0	0	0	0	0	0	0	0	0	0	0	0	0	0	0	0	0	0	0	0	0	0	0	0	0	0	0	0	0	0	2
3809	38.09	0	0	0	0	0	0	0	0	0	0	0	0	0	0	0	0	0	0	0	0	0	0	0	0	0	0	0	0	0	0	0	0	0	0	0	0	0	0	0	0	0	0	0	0	0	0	0	0	0	-1	0	-2.0278	-17.891	16.968	0	0	0	0	0	0	0	0	0	0
3810	38.1	0	0	0	0	0	0	0	0	0	0	0	0	0	0	0	0	0	0	0	0	0	0	0	0	0	0	0	0	0	0	1	0	0	17.883	2.027	16.961	0	0	0	0	0	0	0	0	0	0	0	0	0	-1	0	-2.0278	-17.891	16.968	0	0	0	0	0	0	10.93	-10.93	18.931	2
3811	38.11	0	0	0	0	0	0	0	0	0	0	0	0	0	0	0	0	0	0	0	0	0	0	0	0	10.989	-10.989	19.033	0	0	0	1	0	0	17.883	2.027	16.961	0	0	0	0	0	0	0	0	0	0	0	0	0	-1	0	-2.0278	-17.891	16.968	0	0	0	1	0	0	17.47	2.0148	16.554	2
3812	38.12	0	0	0	0	0	0	0	0	0	0	0	0	0	0	0	0	0	0	0	0	0	0	0	0	0	0	0	0	0	0	1	0	0	17.883	2.027	16.961	0	0	0	0	0	0	0	0	0	0	0	0	0	-1	0	-2.0278	-17.891	16.968	0	0	0	0	0	0	0	0	0	2
3813	38.13	0	0	0	0	0	0	0	0	0	0	0	0	0	0	0	0	0	0	0	0	0	0	0	0	10.989	-10.989	19.033	0	0	0	0	0	0	0	0	0	0	0	0	0	0	0	0	0	0	0	0	0	0	-1	0	-2.0278	-17.891	16.968	0	0	0	1	0	0	17.47	2.0148	16.554	2
3814	38.14	0	0	0	0	0	0	0	0	0	0	0	0	0	0	0	0	0	0	0	0	0	0	0	0	0	0	0	0	0	0	1	0	0	17.883	2.027	16.961	0	0	0	0	0	0	10.996	-10.996	19.046	0	0	0	1	-1	0	7.5503	-27.469	31.921	0	0	0	0	0	0	0	0	0	2
3815	38.15	0	0	0	0	0	0	10.917	-10.917	18.908	0	0	0	0	0	0	0	0	0	0	0	0	0	0	0	0	0	0	0	0	0	0	0	0	0	0	0	0	0	0	0	0	0	0	0	0	0	0	0	0	-1	0	-2.0278	-17.891	16.968	0	0	0	0	0	0	0	0	0	0
3816	38.16	0	0	0	0	0	0	10.917	-10.917	18.908	0	0	0	0	0	0	0	0	0	0	0	0	0	0	0	0	0	0	0	0	0	1	0	0	17.761	2.1499	16.789	0	0	0	0	0	0	10.996	-10.996	19.046	0	0	0	0	-1	0	-2.0278	-17.891	16.968	0	0	0	1	0	0	17.47	2.0148	16.554	2
3817	38.17	0	0	0	0	0	0	0	0	0	0	0	0	0	0	0	0	0	0	0	0	0	0	0	0	0	0	0	0	0	0	1	0	0	17.883	2.027	16.961	0	0	0	0	0	0	0	0	0	0	0	0	0	-1	0	-2.0278	-17.891	16.968	0	0	0	0	0	0	0	0	0	2
3818	38.18	0	0	0	0	0	0	0	0	0	0	0	0	0	0	0	0	0	0	0	0	0	0	0	0	0	0	0	0	0	0	1	0	0	17.883	2.027	16.961	0	0	0	0	0	0	0	0	0	0	0	0	0	-1	0	-2.0278	-17.891	16.968	0	0	0	0	0	0	0	0	0	2
3819	38.19	0	0	0	0	0	0	0	0	0	0	0	0	0	0	0	0	0	0	0	0	0	0	0	0	0	0	0	0	0	0	0	0	0	10.991	-10.991	19.037	0	0	0	0	0	0	10.996	-10.996	19.046	0	0	0	0	-1	0	-2.0278	-17.891	16.968	0	0	0	0	0	0	0	0	0	2
3820	38.2	0	0	0	0	0	0	0	0	0	0	0	0	0	0	0	0	0	0	0	0	0	0	0	0	0	0	0	0	0	0	0	0	0	0	0	0	0	0	0	0	0	0	0	0	0	0	0	0	0	-1	0	-2.0278	-17.891	16.968	0	0	0	0	0	0	0	0	0	2
3821	38.21	0	0	0	0	0	0	0	0	0	0	0	0	0	0	0	0	0	0	0	0	0	0	0	0	10.989	-10.989	19.033	0	0	0	1	0	0	17.761	2.1499	16.789	0	0	0	0	0	0	10.996	-10.996	19.046	0	0	0	0	-1	0	-2.0278	-17.891	16.968	0	0	0	1	0	0	17.47	2.0148	16.554	2
3822	38.22	0	0	0	0	0	0	0	0	0	0	0	0	0	0	0	0	0	0	0	0	0	0	0	0	10.989	-10.989	19.033	0	0	0	0	0	0	0	0	0	0	0	0	0	0	0	10.996	-10.996	19.046	0	0	0	0	-1	0	-2.0278	-17.891	16.968	0	0	0	0	0	0	0	0	0	2
3823	38.23	0	0	0	0	0	0	0	0	0	0	0	0	0	0	0	0	0	0	0	0	0	0	0	0	0	0	0	0	0	0	1	0	0	17.883	2.027	16.961	0	0	0	0	0	0	0	0	0	0	0	0	0	-1	0	-2.0278	-17.891	16.968	0	0	0	1	0	0	17.47	2.0148	16.554	2
3824	38.24	0	0	0	0	0	0	0	0	0	0	0	0	0	0	0	0	0	0	0	0	0	0	0	0	0	0	0	0	0	0	0	0	0	0	0	0	0	0	0	0	0	0	10.996	-10.996	19.046	0	0	0	0	-1	0	-2.0278	-17.891	16.968	0	0	0	0	0	0	0	0	0	2
3825	38.25	0	0	0	0	0	0	0	0	0	0	0	0	0	0	0	0	0	0	0	0	0	0	0	0	0	0	0	0	0	0	1	0	0	17.883	2.027	16.961	0	0	0	0	0	0	10.996	-10.996	19.046	0	0	0	0	-1	0	-2.0278	-17.891	16.968	0	0	0	1	0	0	17.47	2.0148	16.554	2
3826	38.26	0	0	0	0	0	0	0	0	0	0	0	0	0	0	0	0	0	0	0	0	0	0	0	0	0	0	0	0	0	0	0	0	0	10.991	-10.991	19.037	0	0	0	0	0	0	0	0	0	0	0	0	0	-1	0	-2.0278	-17.891	16.968	0	0	0	0	0	0	0	0	0	2
3827	38.27	0	0	0	0	0	0	0	0	0	0	0	0	0	0	0	0	0	0	0	0	0	0	0	0	0	0	0	0	0	0	1	0	0	17.883	2.027	16.961	0	0	0	0	0	0	0	0	0	0	0	0	0	-1	0	-2.0278	-17.891	16.968	0	0	0	0	0	0	0	0	0	0
3828	38.28	0	0	0	0	0	0	0	0	0	0	0	0	0	0	0	0	0	0	0	0	0	0	0	0	0	0	0	0	0	0	1	0	0	17.883	2.027	16.961	0	0	0	0	0	0	0	0	0	0	0	0	1	-1	0	7.5503	-27.469	31.921	0	0	0	1	0	0	17.47	2.0148	16.554	2
3829	38.29	0	0	0	0	0	0	0	0	0	0	0	0	0	0	0	0	0	0	0	0	0	0	0	0	0	0	0	0	0	0	0	0	0	10.991	-10.991	19.037	0	0	0	0	0	0	10.996	-10.996	19.046	0	0	0	0	-1	0	-2.0278	-17.891	16.968	0	0	0	0	0	0	0	0	0	2
3830	38.3	0	0	0	0	0	0	0	0	0	0	0	0	0	0	0	0	0	0	0	0	0	0	0	0	0	0	0	0	0	0	0	0	0	0	0	0	0	0	0	0	0	0	0	0	0	0	0	0	0	-1	0	-2.0278	-17.891	16.968	0	0	0	0	0	0	0	0	0	2
3831	38.31	0	0	0	0	0	0	0	0	0	0	0	0	0	0	0	0	0	0	0	0	0	0	0	0	0	0	0	0	0	0	0	0	0	0	0	0	0	0	0	0	0	0	0	0	0	0	0	0	0	-1	0	-2.0278	-17.891	16.968	0	0	0	0	0	0	0	0	0	2
3832	38.32	0	0	0	0	0	0	0	0	0	0	0	0	0	0	0	0	0	0	0	0	0	0	0	0	0	0	0	0	0	0	0	0	0	0	0	0	0	0	0	0	0	0	10.996	-10.996	19.046	0	0	0	0	-1	0	-2.0278	-17.891	16.968	0	0	0	0	0	0	0	0	0	2
3833	38.33	0	0	0	0	0	0	0	0	0	0	0	0	0	0	0	0	0	0	0	0	0	0	0	0	0	0	0	0	0	0	1	0	0	17.883	2.027	16.961	0	0	0	0	0	0	0	0	0	0	0	0	0	-1	0	-2.0278	-17.891	16.968	0	0	0	0	0	0	10.93	-10.93	18.931	2
3834	38.34	0	0	0	0	0	0	10.917	-10.917	18.908	0	0	0	0	0	0	0	0	0	0	0	0	0	0	0	10.989	-10.989	19.033	0	0	0	0	0	0	0	0	0	0	0	0	0	0	0	0	0	0	0	0	0	0	-1	0	-2.0278	-17.891	16.968	0	0	0	1	0	0	17.47	2.0148	16.554	2
3835	38.35	0	0	0	0	0	0	0	0	0	0	0	0	0	0	0	0	0	0	0	0	0	0	0	0	0	0	0	0	0	0	1	0	0	17.883	2.027	16.961	0	0	0	0	0	0	10.996	-10.996	19.046	0	0	0	0	-1	0	-2.0278	-17.891	16.968	0	0	0	0	0	0	0	0	0	2
3836	38.36	0	0	0	0	0	0	10.917	-10.917	18.908	0	0	0	0	0	0	0	0	0	0	0	0	0	0	0	10.989	-10.989	19.033	0	0	0	0	0	0	0	0	0	0	0	0	0	0	0	0	0	0	0	0	0	0	-1	0	-2.0278	-17.891	16.968	0	0	0	0	0	0	0	0	0	2
3837	38.37	0	0	0	0	0	0	0	0	0	0	0	0	0	0	0	0	0	0	0	0	0	0	0	0	0	0	0	0	0	0	1	0	0	17.883	2.027	16.961	0	0	0	0	0	0	0	0	0	0	0	0	0	-1	0	-2.0278	-17.891	16.968	0	0	0	0	0	0	0	0	0	2
3838	38.38	0	0	0	0	0	0	10.917	-10.917	18.908	0	0	0	0	0	0	0	0	0	0	0	0	0	0	0	0	0	0	0	0	0	1	0	0	17.883	2.027	16.961	0	0	0	0	0	0	0	0	0	0	0	0	0	0	0	0	0	0	0	0	0	0	0	0	0	0	0	0
3839	38.39	0	0	0	0	0	0	0	0	0	0	0	0	0	0	0	0	0	0	0	0	0	0	0	0	0	0	0	0	0	0	0	0	0	0	0	0	0	0	0	0	0	0	0	0	0	0	0	0	0	-1	0	-2.0278	-17.891	16.968	0	0	0	0	0	0	0	0	0	2
3840	38.4	0	0	0	0	0	0	0	0	0	0	0	0	0	0	0	0	0	0	0	0	0	0	0	0	0	0	0	0	0	0	1	0	0	17.883	2.027	16.961	0	0	0	0	0	0	0	0	0	0	0	0	0	-1	0	-2.0278	-17.891	16.968	0	0	0	0	0	0	0	0	0	0
3841	38.41	0	0	0	0	0	0	0	0	0	0	0	0	0	0	0	0	0	0	0	0	0	0	0	0	0	0	0	0	0	0	1	0	0	17.883	2.027	16.961	0	0	0	0	0	0	10.996	-10.996	19.046	0	0	0	0	-1	0	-2.0278	-17.891	16.968	0	0	0	1	0	0	17.47	2.0148	16.554	2
3842	38.42	0	0	0	0	0	0	0	0	0	0	0	0	0	0	0	0	0	0	0	0	0	0	0	0	0	0	0	0	0	0	0	0	0	0	0	0	0	0	0	0	0	0	10.996	-10.996	19.046	0	0	0	0	-1	0	-2.0278	-17.891	16.968	0	0	0	0	0	0	0	0	0	2
3843	38.43	0	0	0	0	0	0	0	0	0	0	0	0	0	0	0	0	0	0	0	0	0	0	0	0	0	0	0	0	0	0	1	0	0	17.883	2.027	16.961	0	0	0	0	0	0	0	0	0	0	0	0	0	-1	0	-2.0278	-17.891	16.968	0	0	0	0	0	0	0	0	0	2
3844	38.44	0	0	0	0	0	0	0	0	0	0	0	0	0	0	0	0	0	0	0	0	0	0	0	0	0	0	0	0	0	0	0	0	0	0	0	0	0	0	0	0	0	0	10.996	-10.996	19.046	0	0	0	0	-1	0	-2.0278	-17.891	16.968	0	0	0	1	0	0	17.47	2.0148	16.554	2
3845	38.45	0	0	0	0	0	0	0	0	0	0	0	0	0	0	0	0	0	0	0	0	0	0	0	0	0	0	0	0	0	0	0	0	0	0	0	0	0	0	0	0	0	0	10.996	-10.996	19.046	0	0	0	0	0	0	0	0	0	0	0	0	0	0	0	0	0	0	2
3846	38.46	0	0	0	0	0	0	0	0	0	0	0	0	0	0	0	0	0	0	0	0	0	0	0	0	0	0	0	0	0	0	1	0	0	17.883	2.027	16.961	0	0	0	0	0	0	10.996	-10.996	19.046	0	0	0	0	-1	0	-2.0278	-17.891	16.968	0	0	0	1	0	0	17.471	2.0135	16.556	0
3847	38.47	0	0	0	0	0	0	0	0	0	0	0	0	0	0	0	0	0	0	0	0	0	0	0	0	0	0	0	0	0	0	1	0	0	17.883	2.027	16.961	0	0	0	0	0	0	10.996	-10.996	19.046	0	0	0	0	-1	0	-2.0278	-17.891	16.968	0	0	0	0	0	0	0	0	0	2
3848	38.48	0	0	0	0	0	0	0	0	0	0	0	0	0	0	0	0	0	0	0	0	0	0	0	0	0	0	0	0	0	0	1	0	0	17.883	2.027	16.961	0	0	0	0	0	0	0	0	0	0	0	0	0	-1	0	-2.0278	-17.891	16.968	0	0	0	1	0	0	17.47	2.0148	16.554	2
3849	38.49	0	0	0	0	0	0	0	0	0	0	0	0	0	0	0	0	0	0	0	0	0	0	0	0	0	0	0	0	0	0	1	0	0	17.883	2.027	16.961	0	0	0	0	0	0	10.996	-10.996	19.046	0	0	0	0	-1	0	-2.0278	-17.891	16.968	0	0	0	0	0	0	0	0	0	0
3850	38.5	0	0	0	0	0	0	0	0	0	0	0	0	0	0	0	0	0	0	0	0	0	0	0	0	0	0	0	0	0	0	0	0	0	0	0	0	0	0	0	0	0	0	0	0	0	0	0	0	0	-1	0	-2.0278	-17.891	16.968	0	0	0	0	0	0	0	0	0	2
3851	38.51	0	0	0	0	0	0	0	0	0	0	0	0	0	0	0	0	0	0	0	0	0	0	0	0	10.989	-10.989	19.033	0	0	0	1	0	0	17.761	2.1499	16.789	0	0	0	0	0	0	0	0	0	0	0	0	0	-1	0	-2.0278	-17.891	16.968	0	0	0	1	0	0	17.47	2.0148	16.554	2
3852	38.52	0	0	0	0	0	0	0	0	0	0	0	0	0	0	0	0	0	0	0	0	0	0	0	0	0	0	0	0	0	0	0	0	0	0	0	0	0	0	0	0	0	0	10.996	-10.996	19.046	0	0	0	0	-1	0	-2.0278	-17.891	16.968	0	0	0	0	0	0	0	0	0	2
3853	38.53	0	0	0	0	0	0	0	0	0	0	0	0	0	0	0	0	0	0	0	0	0	0	0	0	0	0	0	0	0	0	1	0	0	17.883	2.027	16.961	0	0	0	0	0	0	10.996	-10.996	19.046	0	0	0	0	-1	0	-2.0278	-17.891	16.968	0	0	0	0	0	0	0	0	0	0
3854	38.54	0	0	0	0	0	0	0	0	0	0	0	0	0	0	0	0	0	0	0	0	0	0	0	0	0	0	0	0	0	0	1	0	0	17.883	2.027	16.961	0	0	0	0	0	0	0	0	0	0	0	0	0	-1	0	-2.0278	-17.891	16.968	0	0	0	1	0	0	17.47	2.0148	16.554	2
3855	38.55	0	0	0	0	0	0	0	0	0	0	0	0	0	0	0	0	0	0	0	0	0	0	0	0	0	0	0	0	0	0	0	0	0	0	0	0	0	0	0	0	0	0	0	0	0	0	0	0	0	-1	0	-2.0278	-17.891	16.968	0	0	0	0	0	0	0	0	0	2
3856	38.56	0	0	0	0	0	0	0	0	0	0	0	0	0	0	0	0	0	0	0	0	0	0	0	0	10.989	-10.989	19.033	0	0	0	1	0	0	17.761	2.1499	16.789	0	0	0	0	0	0	0	0	0	0	0	0	0	-1	0	-2.0278	-17.891	16.968	0	0	0	1	0	0	17.47	2.0148	16.554	2
3857	38.57	0	0	0	0	0	0	0	0	0	0	0	0	0	0	0	0	0	0	0	0	0	0	0	0	0	0	0	0	0	0	0	0	0	0	0	0	0	0	0	0	-1	0	-2.1508	-17.769	16.797	0	0	0	0	-1	0	-2.0278	-17.891	16.968	0	0	0	0	0	0	0	0	0	0
3858	38.58	0	0	0	1	-1	0	7.4655	-27.322	31.72	0	0	0	0	0	0	0	0	0	0	0	0	0	0	0	0	0	0	0	0	0	1	0	0	17.883	2.027	16.961	0	0	0	0	0	0	0	0	0	0	0	0	0	-1	0	-2.0278	-17.891	16.968	0	0	0	0	0	0	0	0	0	2
3859	38.59	0	0	0	0	0	0	0	0	0	0	0	0	0	0	0	0	0	0	0	0	0	0	0	0	0	0	0	0	0	0	1	0	0	17.883	2.027	16.961	0	0	0	0	0	0	0	0	0	0	0	0	0	-1	0	-2.0278	-17.891	16.968	0	0	0	0	0	0	0	0	0	2
3860	38.6	0	0	0	0	0	0	0	0	0	0	0	0	0	0	0	0	0	0	0	0	0	0	0	0	0	0	0	0	0	0	1	0	0	17.883	2.027	16.961	0	0	0	0	0	0	0	0	0	0	0	0	0	-1	0	-2.0278	-17.891	16.968	0	0	0	0	0	0	0	0	0	2
3861	38.61	0	0	0	0	0	0	0	0	0	0	0	0	0	0	0	0	0	0	0	0	0	0	0	0	10.989	-10.989	19.033	0	0	0	1	0	0	17.761	2.1499	16.789	0	0	0	0	0	0	0	0	0	0	0	0	0	-1	0	-2.0278	-17.891	16.968	0	0	0	0	0	0	0	0	0	0
3862	38.62	0	0	0	0	0	0	0	0	0	0	0	0	0	0	0	0	0	0	0	0	0	0	0	0	0	0	0	0	0	0	1	0	0	17.883	2.027	16.961	0	0	0	0	0	0	10.996	-10.996	19.046	0	0	0	0	-1	0	-2.0278	-17.891	16.968	0	0	0	0	0	0	0	0	0	2
3863	38.63	0	0	0	0	0	0	0	0	0	0	0	0	0	0	0	0	0	0	0	0	0	0	0	0	0	0	0	0	0	0	0	0	0	0	0	0	0	0	0	0	0	0	0	0	0	0	0	0	0	-1	0	-2.0278	-17.891	16.968	0	0	0	1	0	0	17.47	2.0148	16.554	2
3864	38.64	0	0	0	0	0	0	0	0	0	0	0	0	0	0	0	0	0	0	0	0	0	0	0	0	0	0	0	0	0	0	0	0	0	0	0	0	0	0	0	0	0	0	0	0	0	0	0	0	0	-1	0	-2.0278	-17.891	16.968	0	0	0	0	0	0	0	0	0	2
3865	38.65	0	0	0	0	0	0	0	0	0	0	0	0	0	0	0	0	0	0	0	0	0	0	0	0	0	0	0	0	0	0	0	0	0	0	0	0	0	0	0	0	-1	0	-2.0279	-17.891	16.969	0	0	0	0	-1	0	-2.0278	-17.891	16.968	0	0	0	0	0	0	0	0	0	2
3866	38.66	0	0	0	0	0	0	0	0	0	0	0	0	0	0	0	0	0	0	0	0	0	0	0	0	0	0	0	0	0	0	1	0	0	17.761	2.1499	16.789	0	0	0	0	0	0	0	0	0	0	0	0	0	-1	0	-2.0278	-17.891	16.968	0	0	0	1	0	0	17.471	2.0135	16.556	2
3867	38.67	0	0	0	0	0	0	0	0	0	0	0	0	0	0	0	0	0	0	0	0	0	0	0	0	0	0	0	0	0	0	1	0	0	17.883	2.027	16.961	0	0	0	0	0	0	10.996	-10.996	19.046	0	0	0	0	-1	0	-2.0278	-17.891	16.968	0	0	0	0	0	0	0	0	0	0
3868	38.68	0	0	0	0	0	0	0	0	0	0	0	0	0	0	0	0	0	0	0	0	0	0	0	0	0	0	0	0	0	0	0	0	0	10.991	-10.991	19.037	0	0	0	0	0	0	0	0	0	0	0	0	0	-1	0	-2.0278	-17.891	16.968	0	0	0	0	0	0	0	0	0	2
3869	38.69	0	0	0	0	0	0	0	0	0	0	0	0	0	0	0	0	0	0	0	0	0	0	0	0	10.989	-10.989	19.033	0	0	0	1	0	0	17.883	2.027	16.961	0	0	0	0	0	0	0	0	0	0	0	0	1	-1	0	7.5503	-27.469	31.921	0	0	0	0	0	0	0	0	0	2
3870	38.7	0	0	0	0	0	0	0	0	0	0	0	0	0	0	0	0	0	0	0	0	0	0	0	0	0	0	0	0	0	0	1	0	0	17.883	2.027	16.961	0	0	0	0	0	0	0	0	0	0	0	0	0	-1	0	-2.0278	-17.891	16.968	0	0	0	0	0	0	0	0	0	2
3871	38.71	0	0	0	0	0	0	0	0	0	0	0	0	0	0	0	0	0	0	0	0	0	0	0	0	10.989	-10.989	19.033	0	0	0	0	0	0	0	0	0	0	0	0	0	0	0	0	0	0	0	0	0	0	-1	0	-2.0278	-17.891	16.968	0	0	0	1	0	0	17.47	2.0148	16.554	0
3872	38.72	0	0	0	0	0	0	0	0	0	0	0	0	0	0	0	0	0	0	0	0	0	0	0	0	0	0	0	0	0	0	1	0	0	17.883	2.027	16.961	0	0	0	0	0	0	0	0	0	0	0	0	0	-1	0	-2.0278	-17.891	16.968	0	0	0	0	0	0	0	0	0	2
3873	38.73	0	0	0	0	0	0	0	0	0	0	0	0	0	0	0	0	0	0	0	0	0	0	0	0	10.989	-10.989	19.033	0	0	0	1	0	0	17.883	2.027	16.961	0	0	0	0	0	0	0	0	0	0	0	0	0	-1	0	-2.0278	-17.891	16.968	0	0	0	0	0	0	0	0	0	0
3874	38.74	0	0	0	0	0	0	10.917	-10.917	18.908	0	0	0	0	0	0	0	0	0	0	0	0	0	0	0	0	0	0	0	0	0	0	0	0	0	0	0	0	0	0	0	0	0	10.996	-10.996	19.046	0	0	0	0	-1	0	-2.0278	-17.891	16.968	0	0	0	0	0	0	0	0	0	2
3875	38.75	0	0	0	0	0	0	0	0	0	0	0	0	0	0	0	0	0	0	0	0	0	0	0	0	0	0	0	0	0	0	0	0	0	0	0	0	0	0	0	0	0	0	0	0	0	0	0	0	0	-1	0	-2.0278	-17.891	16.968	0	0	0	1	0	0	17.47	2.0148	16.554	0
3876	38.76	0	0	0	0	0	0	0	0	0	0	0	0	0	0	0	0	0	0	0	0	0	0	0	0	0	0	0	0	0	0	0	0	0	0	0	0	0	0	0	0	0	0	0	0	0	0	0	0	0	-1	0	-2.0278	-17.891	16.968	0	0	0	0	0	0	0	0	0	2
3877	38.77	0	0	0	0	0	0	0	0	0	0	0	0	0	0	0	0	0	0	0	0	0	0	0	0	0	0	0	0	0	0	0	0	0	0	0	0	0	0	0	0	-1	0	-2.0279	-17.891	16.969	0	0	0	0	-1	0	-2.0278	-17.891	16.968	0	0	0	0	0	0	0	0	0	2
3878	38.78	0	0	0	0	0	0	0	0	0	0	0	0	0	0	0	0	0	0	0	0	0	0	0	0	0	0	0	0	0	0	1	0	0	17.883	2.027	16.961	0	0	0	0	0	0	0	0	0	0	0	0	0	-1	0	-2.0278	-17.891	16.968	0	0	0	0	0	0	0	0	0	2
3879	38.79	0	0	0	0	0	0	0	0	0	0	0	0	0	0	0	0	0	0	0	0	0	0	0	0	0	0	0	0	0	0	1	0	0	17.883	2.027	16.961	0	0	0	0	0	0	0	0	0	0	0	0	0	-1	0	-2.0278	-17.891	16.968	0	0	0	0	0	0	0	0	0	2
3880	38.8	0	0	0	0	0	0	0	0	0	0	0	0	0	0	0	0	0	0	0	0	0	0	0	0	0	0	0	0	0	0	1	0	0	17.883	2.027	16.961	0	0	0	0	0	0	0	0	0	0	0	0	0	-1	0	-2.0278	-17.891	16.968	0	0	0	0	0	0	0	0	0	2
3881	38.81	0	0	0	0	0	0	0	0	0	0	0	0	0	0	0	0	0	0	0	0	0	0	0	0	0	0	0	0	0	0	0	0	0	0	0	0	0	0	0	0	0	0	0	0	0	0	0	0	0	-1	0	-2.0278	-17.891	16.968	0	0	0	0	0	0	0	0	0	2
3882	38.82	0	0	0	0	0	0	0	0	0	0	0	0	0	0	0	0	0	0	0	0	0	0	0	0	0	0	0	0	0	0	0	0	0	11.258	-11.253	19.496	0	0	0	0	-1	0	-2.0279	-17.891	16.969	0	0	0	0	-1	0	-2.0278	-17.891	16.968	0	0	0	0	0	0	0	0	0	2
3883	38.83	0	0	0	0	0	0	0	0	0	0	0	0	0	0	0	0	0	0	0	0	0	0	0	0	0	0	0	0	0	0	1	0	0	17.761	2.1499	16.789	0	0	0	0	0	0	10.996	-10.996	19.046	0	0	0	0	-1	0	-2.0278	-17.891	16.968	0	0	0	1	0	0	17.47	2.0148	16.554	2
3884	38.84	0	0	0	0	0	0	0	0	0	0	0	0	0	0	0	0	0	0	0	0	0	0	0	0	0	0	0	0	0	0	1	0	0	17.883	2.027	16.961	0	0	0	0	0	0	0	0	0	0	0	0	0	-1	0	-2.0278	-17.891	16.968	0	0	0	0	0	0	0	0	0	2
3885	38.85	0	0	0	0	0	0	10.917	-10.917	18.908	0	0	0	0	0	0	0	0	0	0	0	0	0	0	0	0	0	0	0	0	0	1	0	0	17.883	2.027	16.961	0	0	0	0	-1	0	-2.0279	-17.891	16.969	0	0	0	0	-1	0	-2.0278	-17.891	16.968	0	0	0	1	0	0	17.47	2.0148	16.554	2
3886	38.86	0	0	0	0	0	0	0	0	0	0	0	0	0	0	0	0	0	0	0	0	0	0	0	0	0	0	0	0	0	0	1	0	0	17.883	2.027	16.961	0	0	0	0	0	0	0	0	0	0	0	0	0	-1	0	-2.0278	-17.891	16.968	0	0	0	0	0	0	0	0	0	2
3887	38.87	0	0	0	0	0	0	0	0	0	0	0	0	0	0	0	0	0	0	0	0	0	0	0	0	0	0	0	0	0	0	0	0	0	0	0	0	0	0	0	0	0	0	10.996	-10.996	19.046	0	0	0	1	-1	0	7.5503	-27.469	31.921	0	0	0	0	0	0	0	0	0	2
3888	38.88	0	0	0	0	0	0	0	0	0	0	0	0	0	0	0	0	0	0	0	0	0	0	0	0	0	0	0	0	0	0	0	0	0	0	0	0	0	0	0	0	0	0	0	0	0	0	0	0	0	-1	0	-2.0278	-17.891	16.968	0	0	0	1	0	0	17.47	2.0148	16.554	2
3889	38.89	0	0	0	0	0	0	0	0	0	0	0	0	0	0	0	0	0	0	0	0	0	0	0	0	0	0	0	0	0	0	0	0	0	0	0	0	0	0	0	0	0	0	0	0	0	0	0	0	0	-1	0	-2.0278	-17.891	16.968	0	0	0	0	0	0	0	0	0	2
3890	38.9	0	0	0	0	0	0	0	0	0	0	0	0	0	0	0	0	0	0	0	0	0	0	0	0	0	0	0	0	0	0	1	0	0	17.761	2.1499	16.789	0	0	0	0	0	0	0	0	0	0	0	0	0	-1	0	-2.0278	-17.891	16.968	0	0	0	1	0	0	17.47	2.0148	16.554	2
3891	38.91	0	0	0	0	0	0	0	0	0	0	0	0	0	0	0	0	0	0	0	0	0	0	0	0	0	0	0	0	0	0	0	0	0	10.991	-10.991	19.037	0	0	0	0	0	0	0	0	0	0	0	0	0	-1	0	-2.0278	-17.891	16.968	0	0	0	1	0	0	17.47	2.0148	16.554	2
3892	38.92	0	0	0	0	0	0	0	0	0	0	0	0	0	0	0	0	0	0	0	0	0	0	0	0	0	0	0	0	0	0	1	0	0	17.883	2.027	16.961	0	0	0	0	0	0	0	0	0	0	0	0	0	-1	0	-2.0278	-17.891	16.968	0	0	0	0	0	0	0	0	0	2
3893	38.93	0	0	0	0	0	0	0	0	0	0	0	0	0	0	0	0	0	0	0	0	0	0	0	0	0	0	0	0	0	0	0	0	0	10.991	-10.991	19.037	0	0	0	0	0	0	0	0	0	0	0	0	1	-1	0	7.5503	-27.469	31.921	0	0	0	0	0	0	0	0	0	2
3894	38.94	0	0	0	0	0	0	0	0	0	0	0	0	0	0	0	0	0	0	0	0	0	0	0	0	0	0	0	0	0	0	1	0	0	17.883	2.027	16.961	0	0	0	0	0	0	10.996	-10.996	19.046	0	0	0	0	-1	0	-2.0278	-17.891	16.968	0	0	0	0	0	0	0	0	0	2
3895	38.95	0	0	0	0	0	0	0	0	0	0	0	0	0	0	0	0	0	0	0	0	0	0	0	0	0	0	0	0	0	0	1	0	0	17.883	2.027	16.961	0	0	0	0	0	0	0	0	0	0	0	0	0	-1	0	-2.0278	-17.891	16.968	0	0	0	0	0	0	0	0	0	2
3896	38.96	0	0	0	0	0	0	0	0	0	0	0	0	0	0	0	0	0	0	0	0	0	0	0	0	0	0	0	0	0	0	0	0	0	0	0	0	0	0	0	0	0	0	0	0	0	0	0	0	0	-1	0	-2.0278	-17.891	16.968	0	0	0	0	0	0	0	0	0	2
3897	38.97	0	0	0	0	0	0	0	0	0	0	0	0	0	0	0	0	0	0	0	0	0	0	0	0	0	0	0	0	0	0	0	0	0	0	0	0	0	0	0	0	0	0	10.996	-10.996	19.046	0	0	0	0	-1	0	-2.0278	-17.891	16.968	0	0	0	0	0	0	0	0	0	2
3898	38.98	0	0	0	0	0	0	0	0	0	0	0	0	0	0	0	0	0	0	0	0	0	0	0	0	0	0	0	0	0	0	1	0	0	17.761	2.1499	16.789	0	0	0	0	0	0	10.996	-10.996	19.046	0	0	0	0	-1	0	-2.0278	-17.891	16.968	0	0	0	0	0	0	0	0	0	2
3899	38.99	0	0	0	0	0	0	10.917	-10.917	18.908	0	0	0	0	0	0	0	0	0	0	0	0	0	0	0	0	0	0	0	0	0	0	0	0	0	0	0	0	0	0	0	0	0	0	0	0	0	0	0	0	0	0	0	0	0	0	0	0	0	0	0	0	0	0	2
3900	39	0	0	0	0	0	0	0	0	0	0	0	0	0	0	0	0	0	0	0	0	0	0	0	0	0	0	0	0	0	0	0	0	0	10.991	-10.991	19.037	0	0	0	0	0	0	10.996	-10.996	19.046	0	0	0	0	-1	0	-2.0278	-17.891	16.968	0	0	0	0	0	0	0	0	0	2
3901	39.01	0	0	0	0	0	0	0	0	0	0	0	0	0	0	0	0	0	0	0	0	0	0	0	0	0	0	0	0	0	0	0	0	0	10.991	-10.991	19.037	0	0	0	0	0	0	0	0	0	0	0	0	0	-1	0	-2.0278	-17.891	16.968	0	0	0	0	0	0	0	0	0	2
3902	39.02	0	0	0	0	0	0	0	0	0	0	0	0	0	0	0	0	0	0	0	0	0	0	0	0	10.989	-10.989	19.033	0	0	0	0	0	0	0	0	0	0	0	0	0	0	0	10.996	-10.996	19.046	0	0	0	0	-1	0	-2.0278	-17.891	16.968	0	0	0	0	0	0	0	0	0	2
3903	39.03	0	0	0	0	0	0	0	0	0	0	0	0	0	0	0	0	0	0	0	0	0	0	0	0	0	0	0	0	0	0	1	0	0	17.883	2.027	16.961	0	0	0	0	0	0	0	0	0	0	0	0	1	-1	0	7.5503	-27.469	31.921	0	0	0	1	0	0	17.47	2.0148	16.554	0
3904	39.04	0	0	0	0	0	0	0	0	0	0	0	0	0	0	0	0	0	0	0	0	0	0	0	0	10.989	-10.989	19.033	0	0	0	0	0	0	0	0	0	0	0	0	0	0	0	0	0	0	0	0	0	0	-1	0	-2.0278	-17.891	16.968	0	0	0	0	0	0	0	0	0	0
3905	39.05	0	0	0	0	0	0	0	0	0	0	0	0	0	0	0	0	0	0	0	0	0	0	0	0	0	0	0	0	0	0	1	0	0	17.883	2.027	16.961	0	0	0	0	0	0	0	0	0	0	0	0	0	-1	0	-2.0278	-17.891	16.968	0	0	0	0	0	0	0	0	0	2
3906	39.06	0	0	0	0	0	0	0	0	0	0	0	0	0	0	0	0	0	0	0	0	0	0	0	0	0	0	0	0	0	0	1	0	0	17.883	2.027	16.961	0	0	0	0	0	0	0	0	0	0	0	0	0	-1	0	-2.0278	-17.891	16.968	0	0	0	0	0	0	0	0	0	2
3907	39.07	0	0	0	0	0	0	0	0	0	0	0	0	0	0	0	0	0	0	0	0	0	0	0	0	0	0	0	0	0	0	0	0	0	0	0	0	0	0	0	0	0	0	10.996	-10.996	19.046	0	0	0	0	-1	0	-2.0278	-17.891	16.968	0	0	0	0	0	0	0	0	0	2
3908	39.08	0	0	0	0	0	0	0	0	0	0	0	0	0	0	0	0	0	0	0	0	0	0	0	0	0	0	0	0	0	0	0	0	0	11.258	-11.253	19.496	0	0	0	0	0	0	10.996	-10.996	19.046	0	0	0	1	-1	0	7.5503	-27.469	31.921	0	0	0	0	0	0	0	0	0	0
3909	39.09	0	0	0	0	0	0	0	0	0	0	0	0	0	0	0	0	0	0	0	0	0	0	0	0	0	0	0	0	0	0	0	0	0	0	0	0	0	0	0	0	0	0	0	0	0	0	0	0	1	-1	0	7.5503	-27.469	31.921	0	0	0	0	0	0	0	0	0	2
3910	39.1	0	0	0	0	0	0	0	0	0	0	0	0	0	0	0	0	0	0	0	0	0	0	0	0	0	0	0	0	0	0	0	0	0	10.991	-10.991	19.037	0	0	0	0	0	0	0	0	0	0	0	0	0	-1	0	-2.0278	-17.891	16.968	0	0	0	0	0	0	0	0	0	0
3911	39.11	0	0	0	0	0	0	0	0	0	0	0	0	0	0	0	0	0	0	0	0	0	0	0	0	0	0	0	0	0	0	1	0	0	17.761	2.1499	16.789	0	0	0	0	0	0	0	0	0	0	0	0	0	0	0	0	0	0	0	0	0	1	0	0	17.47	2.0148	16.554	0
3912	39.12	0	0	0	0	0	0	0	0	0	0	0	0	0	0	0	0	0	0	0	0	0	0	0	0	10.989	-10.989	19.033	0	0	0	0	0	0	0	0	0	0	0	0	0	0	0	10.996	-10.996	19.046	0	0	0	0	-1	0	-2.0278	-17.891	16.968	0	0	0	0	0	0	0	0	0	2
3913	39.13	0	0	0	0	0	0	0	0	0	0	0	0	0	0	0	0	0	0	0	0	0	0	0	0	10.989	-10.989	19.033	0	0	0	1	0	0	17.883	2.027	16.961	0	0	0	0	0	0	0	0	0	0	0	0	0	-1	0	-2.0278	-17.891	16.968	0	0	0	1	0	0	17.47	2.0148	16.554	2
3914	39.14	0	0	0	0	0	0	0	0	0	0	0	0	0	0	0	0	0	0	0	0	0	0	0	0	0	0	0	0	0	0	0	0	0	0	0	0	0	0	0	0	0	0	10.996	-10.996	19.046	0	0	0	0	-1	0	-2.0278	-17.891	16.968	0	0	0	1	0	0	17.47	2.0148	16.554	2
3915	39.15	0	0	0	0	0	0	0	0	0	0	0	0	0	0	0	0	0	0	0	0	0	0	0	0	0	0	0	0	0	0	1	0	0	17.883	2.027	16.961	0	0	0	0	0	0	0	0	0	0	0	0	0	-1	0	-2.0278	-17.891	16.968	0	0	0	0	0	0	0	0	0	2
3916	39.16	0	0	0	0	0	0	0	0	0	0	0	0	0	0	0	0	0	0	0	0	0	0	0	0	0	0	0	0	0	0	0	0	0	0	0	0	0	0	0	0	-1	0	-2.0279	-17.891	16.969	0	0	0	0	-1	0	-2.0278	-17.891	16.968	0	0	0	1	0	0	17.47	2.0148	16.554	2
3917	39.17	0	0	0	0	0	0	10.917	-10.917	18.908	0	0	0	0	0	0	0	0	0	0	0	0	0	0	0	0	0	0	0	0	0	0	0	0	0	0	0	0	0	0	0	0	0	0	0	0	0	0	0	0	-1	0	-2.0278	-17.891	16.968	0	0	0	0	0	0	0	0	0	2
3918	39.18	0	0	0	0	0	0	0	0	0	0	0	0	0	0	0	0	0	0	0	0	0	0	0	0	0	0	0	0	0	0	1	0	0	17.761	2.1499	16.789	0	0	0	0	0	0	0	0	0	0	0	0	0	-1	0	-2.0278	-17.891	16.968	0	0	0	1	0	0	17.47	2.0148	16.554	0
3919	39.19	0	0	0	0	0	0	0	0	0	0	0	0	0	0	0	0	0	0	0	0	0	0	0	0	0	0	0	0	0	0	0	0	0	0	0	0	0	0	0	0	0	0	0	0	0	0	0	0	0	-1	0	-2.0278	-17.891	16.968	0	0	0	1	0	0	17.47	2.0148	16.554	2
3920	39.2	0	0	0	0	0	0	0	0	0	0	0	0	0	-1	0	-2.0372	-17.821	16.895	0	0	0	0	0	0	0	0	0	0	0	0	0	0	0	0	0	0	0	0	0	0	0	0	0	0	0	0	0	0	0	-1	0	-2.0278	-17.891	16.968	0	0	0	0	0	0	0	0	0	2
3921	39.21	0	0	0	0	0	0	0	0	0	0	0	0	0	0	0	0	0	0	0	0	0	0	0	0	0	0	0	0	0	0	1	0	0	17.883	2.027	16.961	0	0	0	0	0	0	0	0	0	0	0	0	0	-1	0	-2.0278	-17.891	16.968	0	0	0	0	0	0	0	0	0	2
3922	39.22	0	0	0	0	0	0	0	0	0	0	0	0	0	0	0	0	0	0	0	0	0	0	0	0	0	0	0	0	0	0	0	0	0	0	0	0	0	0	0	0	0	0	0	0	0	0	0	0	0	-1	0	-2.0278	-17.891	16.968	0	0	0	0	0	0	0	0	0	2
3923	39.23	0	0	0	0	0	0	0	0	0	0	0	0	0	0	0	0	0	0	0	0	0	0	0	0	0	0	0	0	0	0	0	0	0	0	0	0	0	0	0	0	0	0	0	0	0	0	0	0	0	-1	0	-2.0278	-17.891	16.968	0	0	0	1	0	0	17.47	2.0148	16.554	2
3924	39.24	0	0	0	0	0	0	0	0	0	0	0	0	0	0	0	0	0	0	0	0	0	0	0	0	10.989	-10.989	19.033	0	0	0	0	0	0	0	0	0	0	0	0	0	0	0	10.996	-10.996	19.046	0	0	0	0	-1	0	-2.0278	-17.891	16.968	0	0	0	0	0	0	0	0	0	2
3925	39.25	0	0	0	0	0	0	0	0	0	0	0	0	0	0	0	0	0	0	0	0	0	0	0	0	0	0	0	0	0	0	1	0	0	17.883	2.027	16.961	0	0	0	0	0	0	0	0	0	0	0	0	0	-1	0	-2.0278	-17.891	16.968	0	0	0	0	0	0	0	0	0	0
3926	39.26	0	0	0	0	0	0	0	0	0	0	0	0	0	0	0	0	0	0	0	0	0	0	0	0	0	0	0	0	0	0	0	0	0	0	0	0	0	0	0	0	0	0	0	0	0	0	0	0	1	-1	0	7.5503	-27.469	31.921	0	0	0	1	0	0	17.47	2.0148	16.554	2
3927	39.27	0	0	0	0	0	0	0	0	0	0	0	0	0	0	0	0	0	0	0	0	0	0	0	0	0	0	0	0	0	0	0	0	0	0	0	0	0	0	0	0	0	0	0	0	0	0	0	0	0	-1	0	-2.0278	-17.891	16.968	0	0	0	1	0	0	17.47	2.0148	16.554	0
3928	39.28	0	0	0	0	0	0	0	0	0	0	0	0	0	0	0	0	0	0	0	0	0	0	0	0	0	0	0	0	0	0	0	0	0	0	0	0	0	0	0	0	-1	0	-2.0279	-17.891	16.969	0	0	0	0	-1	0	-2.0278	-17.891	16.968	0	0	0	1	0	0	17.47	2.0148	16.554	2
3929	39.29	0	0	0	0	0	0	0	0	0	0	0	0	0	0	0	0	0	0	0	0	0	0	0	0	0	0	0	0	0	0	1	0	0	17.883	2.027	16.961	0	0	0	0	0	0	0	0	0	0	0	0	0	-1	0	-2.0278	-17.891	16.968	0	0	0	1	0	0	17.47	2.0148	16.554	2
3930	39.3	0	0	0	0	0	0	10.917	-10.917	18.908	0	0	0	0	0	0	0	0	0	0	0	0	0	0	0	10.989	-10.989	19.033	0	0	0	0	0	0	0	0	0	0	0	0	0	0	0	0	0	0	0	0	0	0	-1	0	-2.0278	-17.891	16.968	0	0	0	0	0	0	0	0	0	2
3931	39.31	0	0	0	0	0	0	0	0	0	0	0	0	0	0	0	0	0	0	0	0	0	0	0	0	0	0	0	0	0	0	0	0	0	10.991	-10.991	19.037	0	0	0	0	0	0	0	0	0	0	0	0	0	-1	0	-2.0278	-17.891	16.968	0	0	0	0	0	0	0	0	0	2
3932	39.32	0	0	0	0	0	0	0	0	0	0	0	0	0	0	0	0	0	0	0	0	0	0	0	0	0	0	0	0	0	0	0	0	0	0	0	0	0	0	0	0	0	0	0	0	0	0	0	0	0	-1	0	-2.0278	-17.891	16.968	0	0	0	0	0	0	0	0	0	2
3933	39.33	0	0	0	0	0	0	10.917	-10.917	18.908	0	0	0	0	0	0	0	0	0	0	0	0	0	0	0	0	0	0	0	0	0	1	0	0	17.883	2.027	16.961	0	0	0	0	0	0	0	0	0	0	0	0	1	-1	0	7.5503	-27.469	31.921	0	0	0	1	0	0	17.47	2.0148	16.554	2
3934	39.34	0	0	0	0	0	0	0	0	0	0	0	0	0	0	0	0	0	0	0	0	0	0	0	0	0	0	0	0	0	0	0	0	0	0	0	0	0	0	0	0	0	0	0	0	0	0	0	0	0	-1	0	-2.0278	-17.891	16.968	0	0	0	0	0	0	0	0	0	2
3935	39.35	0	0	0	0	0	0	0	0	0	0	0	0	0	0	0	0	0	0	0	0	0	0	0	0	0	0	0	0	0	0	0	0	0	10.991	-10.991	19.037	0	0	0	0	0	0	0	0	0	0	0	0	0	-1	0	-2.0278	-17.891	16.968	0	0	0	0	0	0	0	0	0	2
3936	39.36	0	0	0	0	0	0	0	0	0	0	0	0	0	0	0	0	0	0	0	0	0	0	0	0	10.989	-10.989	19.033	0	0	0	1	0	0	17.883	2.027	16.961	0	0	0	0	0	0	0	0	0	0	0	0	1	-1	0	7.5503	-27.469	31.921	0	0	0	0	0	0	0	0	0	2
3937	39.37	0	0	0	0	0	0	0	0	0	0	0	0	0	0	0	0	0	0	0	0	0	0	0	0	0	0	0	0	0	0	0	0	0	0	0	0	0	0	0	0	0	0	0	0	0	0	0	0	0	-1	0	-2.0278	-17.891	16.968	0	0	0	0	0	0	0	0	0	0
3938	39.38	0	0	0	0	0	0	10.917	-10.917	18.908	0	0	0	0	0	0	0	0	0	0	0	0	0	0	0	0	0	0	0	0	0	0	0	0	10.991	-10.991	19.037	0	0	0	0	0	0	0	0	0	0	0	0	0	0	0	0	0	0	0	0	0	1	0	0	17.47	2.0148	16.554	2
3939	39.39	0	0	0	0	0	0	0	0	0	0	0	0	0	0	0	0	0	0	0	0	0	0	0	0	0	0	0	0	0	0	1	0	0	17.883	2.027	16.961	0	0	0	0	0	0	10.996	-10.996	19.046	0	0	0	0	-1	0	-2.0278	-17.891	16.968	0	0	0	0	0	0	0	0	0	2
3940	39.4	0	0	0	0	0	0	0	0	0	0	0	0	0	0	0	0	0	0	0	0	0	0	0	0	0	0	0	0	0	0	0	0	0	0	0	0	0	0	0	0	0	0	0	0	0	0	0	0	0	-1	0	-2.0278	-17.891	16.968	0	0	0	0	0	0	0	0	0	2
3941	39.41	0	0	0	0	0	0	10.917	-10.917	18.908	0	0	0	0	0	0	0	0	0	0	0	0	0	0	0	0	0	0	0	0	0	0	0	0	10.991	-10.991	19.037	0	0	0	0	0	0	10.996	-10.996	19.046	0	0	0	0	-1	0	-2.0278	-17.891	16.968	0	0	0	1	0	0	17.47	2.0148	16.554	2
3942	39.42	0	0	0	0	0	0	0	0	0	0	0	0	0	0	0	0	0	0	0	0	0	0	0	0	0	0	0	0	0	0	1	0	0	17.883	2.027	16.961	0	0	0	0	0	0	10.996	-10.996	19.046	0	0	0	0	0	0	0	0	0	0	0	0	0	0	0	0	0	0	2
3943	39.43	0	0	0	0	0	0	0	0	0	0	0	0	0	0	0	0	0	0	0	0	0	0	0	0	0	0	0	0	0	0	0	0	0	0	0	0	0	0	0	0	0	0	0	0	0	0	0	0	0	-1	0	-2.0278	-17.891	16.968	0	0	0	0	0	0	0	0	0	2
3944	39.44	0	0	0	0	0	0	10.917	-10.917	18.908	0	0	0	0	0	0	0	0	0	0	0	0	0	0	0	0	0	0	0	0	0	0	0	0	0	0	0	0	0	0	0	0	0	0	0	0	0	0	0	0	-1	0	-2.0278	-17.891	16.968	0	0	0	0	0	0	0	0	0	2
3945	39.45	0	0	0	0	0	0	0	0	0	0	0	0	0	0	0	0	0	0	0	0	0	0	0	0	0	0	0	0	0	0	0	0	0	0	0	0	0	0	0	0	0	0	0	0	0	0	0	0	0	-1	0	-2.0278	-17.891	16.968	0	0	0	0	0	0	0	0	0	2
3946	39.46	0	0	0	0	0	0	0	0	0	0	0	0	0	0	0	0	0	0	0	0	0	0	0	0	0	0	0	0	0	0	1	0	0	17.883	2.027	16.961	0	0	0	0	0	0	0	0	0	0	0	0	0	-1	0	-2.0278	-17.891	16.968	0	0	0	0	0	0	0	0	0	2
3947	39.47	0	0	0	0	0	0	0	0	0	0	0	0	0	0	0	0	0	0	0	0	0	0	0	0	0	0	0	0	0	0	0	0	0	0	0	0	0	0	0	0	-1	0	-2.1508	-17.769	16.797	0	0	0	0	-1	0	-2.0278	-17.891	16.968	0	0	0	0	0	0	0	0	0	2
3948	39.48	0	0	0	0	0	0	0	0	0	0	0	0	0	0	0	0	0	0	0	0	0	0	0	0	0	0	0	0	0	0	0	0	0	10.991	-10.991	19.037	0	0	0	0	0	0	0	0	0	0	0	0	0	-1	0	-2.0278	-17.891	16.968	0	0	0	1	0	0	17.47	2.0148	16.554	2
3949	39.49	0	0	0	0	0	0	10.917	-10.917	18.908	0	0	0	0	0	0	0	0	0	0	0	0	0	0	0	0	0	0	0	0	0	0	0	0	0	0	0	0	0	0	0	0	0	0	0	0	0	0	0	0	-1	0	-2.0278	-17.891	16.968	0	0	0	0	0	0	0	0	0	0
3950	39.5	0	0	0	0	0	0	0	0	0	0	0	0	0	0	0	0	0	0	0	0	0	0	0	0	0	0	0	0	0	0	0	0	0	0	0	0	0	0	0	0	0	0	0	0	0	0	0	0	0	-1	0	-2.0278	-17.891	16.968	0	0	0	1	0	0	17.47	2.0148	16.554	2
3951	39.51	0	0	0	0	0	0	10.917	-10.917	18.908	0	0	0	0	0	0	0	0	0	0	0	0	0	0	0	10.989	-10.989	19.033	0	0	0	0	0	0	10.991	-10.991	19.037	0	0	0	0	0	0	0	0	0	0	0	0	0	0	0	0	0	0	0	0	0	1	0	0	17.47	2.0148	16.554	2
3952	39.52	0	0	0	0	0	0	0	0	0	0	0	0	0	0	0	0	0	0	0	0	0	0	0	0	0	0	0	0	0	0	0	0	0	0	0	0	0	0	0	0	0	0	0	0	0	0	0	0	0	-1	0	-2.0278	-17.891	16.968	0	0	0	0	0	0	0	0	0	2
3953	39.53	0	0	0	0	0	0	0	0	0	0	0	0	0	0	0	0	0	0	0	0	0	0	0	0	0	0	0	0	0	0	0	0	0	10.991	-10.991	19.037	0	0	0	0	0	0	0	0	0	0	0	0	0	-1	0	-2.0278	-17.891	16.968	0	0	0	0	0	0	0	0	0	2
3954	39.54	0	0	0	0	0	0	0	0	0	0	0	0	0	0	0	0	0	0	0	0	0	0	0	0	10.989	-10.989	19.033	0	0	0	0	0	0	0	0	0	0	0	0	0	0	0	10.996	-10.996	19.046	0	0	0	0	-1	0	-2.0278	-17.891	16.968	0	0	0	1	0	0	17.47	2.0148	16.554	2
3955	39.55	0	0	0	0	0	0	0	0	0	0	0	0	0	0	0	0	0	0	0	0	0	0	0	0	0	0	0	0	0	0	0	0	0	0	0	0	0	0	0	0	0	0	0	0	0	0	0	0	0	-1	0	-2.0278	-17.891	16.968	0	0	0	0	0	0	0	0	0	2
3956	39.56	0	0	0	0	0	0	10.917	-10.917	18.908	0	0	0	0	0	0	0	0	0	0	0	0	0	0	0	0	0	0	0	0	0	0	0	0	0	0	0	0	0	0	0	0	0	0	0	0	0	0	0	0	-1	0	-2.0278	-17.891	16.968	0	0	0	1	0	0	17.47	2.0148	16.554	2
3957	39.57	0	0	0	0	0	0	0	0	0	0	0	0	0	0	0	0	0	0	0	0	0	0	0	0	0	0	0	0	0	0	0	0	0	0	0	0	0	0	0	0	0	0	10.996	-10.996	19.046	0	0	0	0	-1	0	-2.0278	-17.891	16.968	0	0	0	0	0	0	0	0	0	2
3958	39.58	0	0	0	0	0	0	0	0	0	0	0	0	0	0	0	0	0	0	0	0	0	0	0	0	0	0	0	0	0	0	1	0	0	17.761	2.1499	16.789	0	0	0	0	0	0	0	0	0	0	0	0	0	-1	0	-2.0278	-17.891	16.968	0	0	0	0	0	0	0	0	0	2
3959	39.59	0	0	0	0	0	0	0	0	0	0	0	0	0	0	0	0	0	0	0	0	0	0	0	0	0	0	0	0	0	0	0	0	0	0	0	0	0	0	0	0	0	0	0	0	0	0	0	0	0	-1	0	-2.0278	-17.891	16.968	0	0	0	0	0	0	0	0	0	2
3960	39.6	0	0	0	0	0	0	10.917	-10.917	18.908	0	0	0	0	0	0	0	0	0	0	0	0	0	0	0	0	0	0	0	0	0	0	0	0	0	0	0	0	0	0	0	0	0	0	0	0	0	0	0	0	-1	0	-2.0278	-17.891	16.968	0	0	0	0	0	0	0	0	0	0
3961	39.61	0	0	0	0	0	0	0	0	0	0	0	0	0	0	0	0	0	0	0	0	0	0	0	0	10.989	-10.989	19.033	0	0	0	0	0	0	0	0	0	0	0	0	0	0	0	0	0	0	0	0	0	0	-1	0	-2.0278	-17.891	16.968	0	0	0	0	0	0	0	0	0	2
3962	39.62	0	0	0	0	0	0	0	0	0	0	0	0	0	0	0	0	0	0	0	0	0	0	0	0	0	0	0	0	0	0	0	0	0	0	0	0	0	0	0	0	0	0	0	0	0	0	0	0	0	-1	0	-2.0278	-17.891	16.968	0	0	0	0	0	0	0	0	0	2
3963	39.63	0	0	0	0	0	0	0	0	0	0	0	0	0	0	0	0	0	0	0	0	0	0	0	0	0	0	0	0	0	0	0	0	0	0	0	0	0	0	0	0	0	0	0	0	0	0	0	0	0	-1	0	-2.0278	-17.891	16.968	0	0	0	0	0	0	0	0	0	2
3964	39.64	0	0	0	0	0	0	0	0	0	0	0	0	0	0	0	0	0	0	0	0	0	0	0	0	0	0	0	0	0	0	0	0	0	0	0	0	0	0	0	0	0	0	0	0	0	0	0	0	0	-1	0	-2.0278	-17.891	16.968	0	0	0	0	0	0	0	0	0	2
3965	39.65	0	0	0	1	-1	0	7.4664	-27.317	31.716	0	0	0	0	0	0	0	0	0	0	0	0	0	0	0	10.989	-10.989	19.033	0	0	0	0	0	0	0	0	0	0	0	0	0	0	0	0	0	0	0	0	0	0	-1	0	-2.0278	-17.891	16.968	0	0	0	0	0	0	0	0	0	2
3966	39.66	0	0	0	0	0	0	0	0	0	0	0	0	0	0	0	0	0	0	0	0	0	0	0	0	0	0	0	0	0	0	0	0	0	0	0	0	0	0	0	0	0	0	0	0	0	0	0	0	0	-1	0	-2.0278	-17.891	16.968	0	0	0	1	0	0	17.47	2.0148	16.554	2
3967	39.67	0	0	0	0	0	0	0	0	0	0	0	0	0	0	0	0	0	0	0	0	0	0	0	0	0	0	0	0	0	0	0	0	0	0	0	0	0	0	0	0	-1	0	-2.0279	-17.891	16.969	0	0	0	0	-1	0	-2.0278	-17.891	16.968	0	0	0	0	0	0	0	0	0	2
3968	39.68	0	0	0	0	0	0	0	0	0	0	0	0	0	0	0	0	0	0	0	0	0	0	0	0	0	0	0	0	0	0	1	0	0	17.883	2.027	16.961	0	0	0	0	0	0	0	0	0	0	0	0	0	-1	0	-2.0278	-17.891	16.968	0	0	0	0	0	0	0	0	0	2
3969	39.69	0	0	0	0	0	0	0	0	0	0	0	0	0	0	0	0	0	0	0	0	0	0	0	0	0	0	0	0	0	0	0	0	0	10.991	-10.991	19.037	0	0	0	0	0	0	0	0	0	0	0	0	0	-1	0	-2.0278	-17.891	16.968	0	0	0	0	0	0	0	0	0	2
3970	39.7	0	0	0	0	0	0	0	0	0	0	0	0	0	0	0	0	0	0	0	0	0	0	0	0	0	0	0	0	0	0	1	0	0	17.883	2.027	16.961	0	0	0	0	0	0	0	0	0	0	0	0	0	-1	0	-2.0278	-17.891	16.968	0	0	0	0	0	0	0	0	0	2
3971	39.71	0	0	0	0	0	0	10.917	-10.917	18.908	0	0	0	0	0	0	0	0	0	0	0	0	0	0	0	0	0	0	0	0	0	0	0	0	0	0	0	0	0	0	0	0	0	0	0	0	0	0	0	1	-1	0	7.5503	-27.469	31.921	0	0	0	0	0	0	0	0	0	2
3972	39.72	0	0	0	0	0	0	0	0	0	0	0	0	0	0	0	0	0	0	0	0	0	0	0	0	0	0	0	0	0	0	0	0	0	0	0	0	0	0	0	0	0	0	0	0	0	0	0	0	0	-1	0	-2.0278	-17.891	16.968	0	0	0	0	0	0	0	0	0	2
3973	39.73	0	0	0	0	0	0	0	0	0	0	0	0	0	0	0	0	0	0	0	0	0	0	0	0	0	0	0	0	0	0	1	0	0	17.883	2.027	16.961	0	0	0	0	0	0	0	0	0	0	0	0	0	-1	0	-2.0278	-17.891	16.968	0	0	0	0	0	0	0	0	0	2
3974	39.74	0	0	0	0	0	0	0	0	0	0	0	0	0	0	0	0	0	0	0	0	0	0	0	0	0	0	0	0	0	0	0	0	0	0	0	0	0	0	0	0	0	0	0	0	0	0	0	0	0	-1	0	-2.0278	-17.891	16.968	0	0	0	0	0	0	0	0	0	2
3975	39.75	0	0	0	0	0	0	0	0	0	0	0	0	0	0	0	0	0	0	0	0	0	0	0	0	10.989	-10.989	19.033	0	0	0	0	0	0	0	0	0	0	0	0	0	0	0	0	0	0	0	0	0	0	-1	0	-2.0278	-17.891	16.968	0	0	0	0	0	0	0	0	0	2
3976	39.76	0	0	0	0	0	0	0	0	0	0	0	0	0	-1	0	-2.0372	-17.821	16.895	0	0	0	0	0	0	0	0	0	0	0	0	0	0	0	0	0	0	0	0	0	0	0	0	0	0	0	0	0	0	0	-1	0	-2.0278	-17.891	16.968	0	0	0	1	0	0	17.47	2.0148	16.554	2
3977	39.77	0	0	0	0	0	0	0	0	0	0	0	0	0	0	0	0	0	0	0	0	0	0	0	0	10.989	-10.989	19.033	0	0	0	0	0	0	0	0	0	0	0	0	0	0	0	0	0	0	0	0	0	0	-1	0	-2.0278	-17.891	16.968	0	0	0	0	0	0	0	0	0	2
3978	39.78	0	0	0	0	0	0	0	0	0	0	0	0	0	0	0	0	0	0	0	0	0	0	0	0	0	0	0	0	0	0	0	0	0	10.991	-10.991	19.037	0	0	0	0	-1	0	-2.0279	-17.891	16.969	0	0	0	0	-1	0	-2.0278	-17.891	16.968	0	0	0	1	0	0	17.47	2.0148	16.554	2
3979	39.79	0	0	0	0	0	0	0	0	0	0	0	0	0	0	0	0	0	0	0	0	0	0	0	0	10.989	-10.989	19.033	0	0	0	0	0	0	0	0	0	0	0	0	0	0	0	10.996	-10.996	19.046	0	0	0	0	-1	0	-2.0278	-17.891	16.968	0	0	0	0	0	0	0	0	0	0
3980	39.8	0	0	0	0	0	0	0	0	0	0	0	0	0	0	0	0	0	0	0	0	0	0	0	0	0	0	0	0	0	0	0	0	0	0	0	0	0	0	0	0	0	0	10.996	-10.996	19.046	0	0	0	0	-1	0	-2.0278	-17.891	16.968	0	0	0	0	0	0	0	0	0	2
3981	39.81	0	0	0	0	0	0	10.917	-10.917	18.908	0	0	0	0	0	0	0	0	0	0	0	0	0	0	0	10.989	-10.989	19.033	0	0	0	0	0	0	0	0	0	0	0	0	0	0	0	0	0	0	0	0	0	0	-1	0	-2.0278	-17.891	16.968	0	0	0	0	0	0	0	0	0	2
3982	39.82	0	0	0	0	0	0	0	0	0	0	0	0	0	0	0	0	0	0	0	0	0	0	0	0	10.989	-10.989	19.033	0	0	0	0	0	0	0	0	0	0	0	0	0	-1	0	-2.0279	-17.891	16.969	0	0	0	0	-1	0	-2.0278	-17.891	16.968	0	0	0	0	0	0	0	0	0	2
3983	39.83	0	0	0	0	0	0	0	0	0	0	0	0	0	0	0	0	0	0	0	0	0	0	0	0	0	0	0	0	0	0	1	0	0	17.883	2.027	16.961	0	0	0	0	0	0	0	0	0	0	0	0	0	-1	0	-2.0278	-17.891	16.968	0	0	0	1	0	0	17.47	2.0148	16.554	2
3984	39.84	0	0	0	0	0	0	0	0	0	0	0	0	0	0	0	0	0	0	0	0	0	0	0	0	0	0	0	0	0	0	0	0	0	0	0	0	0	0	0	0	0	0	0	0	0	0	0	0	0	-1	0	-2.0278	-17.891	16.968	0	0	0	0	0	0	0	0	0	2
3985	39.85	0	0	0	0	0	0	0	0	0	0	0	0	0	0	0	0	0	0	0	0	0	0	0	0	0	0	0	0	0	0	0	0	0	0	0	0	0	0	0	0	0	0	0	0	0	0	0	0	0	-1	0	-2.0278	-17.891	16.968	0	0	0	1	0	0	17.47	2.0148	16.554	2
3986	39.86	0	0	0	0	0	0	0	0	0	0	0	0	0	0	0	0	0	0	0	0	0	0	0	0	10.989	-10.989	19.033	0	0	0	0	0	0	0	0	0	0	0	0	0	0	0	0	0	0	0	0	0	0	-1	0	-2.0278	-17.891	16.968	0	0	0	1	0	0	17.47	2.0148	16.554	2
3987	39.87	0	0	0	0	0	0	10.917	-10.917	18.908	0	0	0	0	0	0	0	0	0	0	0	0	0	0	0	0	0	0	0	0	0	0	0	0	10.991	-10.991	19.037	0	0	0	0	-1	0	-2.0279	-17.891	16.969	0	0	0	0	-1	0	-2.0278	-17.891	16.968	0	0	0	0	0	0	0	0	0	2
3988	39.88	0	0	0	0	0	0	0	0	0	0	0	0	0	0	0	0	0	0	0	0	0	0	0	0	0	0	0	0	0	0	1	0	0	17.883	2.027	16.961	0	0	0	0	0	0	0	0	0	0	0	0	0	-1	0	-2.0278	-17.891	16.968	0	0	0	0	0	0	0	0	0	0
3989	39.89	0	0	0	0	0	0	0	0	0	0	0	0	0	0	0	0	0	0	0	0	0	0	0	0	10.989	-10.989	19.033	0	0	0	0	0	0	0	0	0	0	0	0	0	0	0	0	0	0	0	0	0	0	-1	0	-2.0278	-17.891	16.968	0	0	0	0	0	0	0	0	0	2
3990	39.9	0	0	0	0	0	0	0	0	0	0	0	0	0	0	0	0	0	0	0	0	0	0	0	0	0	0	0	0	0	0	1	0	0	17.761	2.1499	16.789	0	0	0	0	0	0	0	0	0	0	0	0	0	-1	0	-2.0278	-17.891	16.968	0	0	0	0	0	0	0	0	0	0
3991	39.91	0	0	0	0	0	0	0	0	0	0	0	0	0	0	0	0	0	0	0	0	0	0	0	0	0	0	0	0	0	0	0	0	0	0	0	0	0	0	0	0	0	0	0	0	0	0	0	0	0	-1	0	-2.0278	-17.891	16.968	0	0	0	0	0	0	10.93	-10.93	18.931	2
3992	39.92	0	0	0	0	0	0	0	0	0	0	0	0	0	0	0	0	0	0	0	0	0	0	0	0	0	0	0	0	0	0	0	0	0	0	0	0	0	0	0	0	0	0	0	0	0	0	0	0	0	-1	0	-2.0278	-17.891	16.968	0	0	0	0	0	0	0	0	0	2
3993	39.93	0	0	0	0	0	0	0	0	0	0	0	0	0	0	0	0	0	0	0	0	0	0	0	0	0	0	0	0	0	0	0	0	0	0	0	0	0	0	0	0	0	0	0	0	0	0	0	0	0	0	0	0	0	0	0	0	0	0	0	0	0	0	0	2
3994	39.94	0	0	0	0	0	0	0	0	0	0	0	0	0	0	0	0	0	0	0	0	0	0	0	0	0	0	0	0	0	0	1	0	0	17.761	2.1499	16.789	0	0	0	0	0	0	0	0	0	0	0	0	0	-1	0	-2.0278	-17.891	16.968	0	0	0	0	0	0	0	0	0	2
3995	39.95	0	0	0	0	0	0	0	0	0	0	0	0	0	0	0	0	0	0	0	0	0	0	0	0	0	0	0	0	0	0	0	0	0	0	0	0	0	0	0	0	-1	0	-2.0279	-17.891	16.969	0	0	0	0	-1	0	-2.0278	-17.891	16.968	0	0	0	0	0	0	0	0	0	2
3996	39.96	0	0	0	0	0	0	10.917	-10.917	18.908	0	0	0	0	0	0	0	0	0	0	0	0	0	0	0	0	0	0	0	0	0	0	0	0	10.991	-10.991	19.037	0	0	0	0	0	0	0	0	0	0	0	0	0	-1	0	-2.0278	-17.891	16.968	0	0	0	1	0	0	17.47	2.0148	16.554	2
3997	39.97	0	0	0	0	0	0	0	0	0	0	0	0	0	0	0	0	0	0	0	0	0	0	0	0	0	0	0	0	0	0	0	0	0	0	0	0	0	0	0	0	-1	0	-2.0279	-17.891	16.969	0	0	0	0	-1	0	-2.0278	-17.891	16.968	0	0	0	0	0	0	0	0	0	2
3998	39.98	0	0	0	0	0	0	0	0	0	0	0	0	0	0	0	0	0	0	0	0	0	0	0	0	0	0	0	0	0	0	1	0	0	17.883	2.027	16.961	0	0	0	0	-1	0	-2.0279	-17.891	16.969	0	0	0	0	-1	0	-2.0278	-17.891	16.968	0	0	0	1	0	0	17.47	2.0148	16.554	2
3999	39.99	0	0	0	0	0	0	10.917	-10.917	18.908	0	0	0	0	0	0	0	0	0	0	0	0	0	0	0	10.989	-10.989	19.033	0	0	0	1	0	0	17.883	2.027	16.961	0	0	0	0	0	0	0	0	0	0	0	0	0	-1	0	-2.0278	-17.891	16.968	0	0	0	0	0	0	0	0	0	2
4000	40	0	0	0	0	0	0	0	0	0	0	0	0	0	0	0	0	0	0	0	0	0	0	0	0	0	0	0	0	0	0	0	0	0	0	0	0	0	0	0	0	0	0	10.996	-10.996	19.046	0	0	0	0	-1	0	-2.0278	-17.891	16.968	0	0	0	1	0	0	17.47	2.0148	16.554	2
4001	40.01	0	0	0	0	0	0	0	0	0	0	0	0	0	0	0	0	0	0	0	0	0	0	0	0	10.989	-10.989	19.033	0	0	0	1	0	0	17.761	2.1499	16.789	0	0	0	0	0	0	0	0	0	0	0	0	0	-1	0	-2.0278	-17.891	16.968	0	0	0	0	0	0	0	0	0	0
4002	40.02	0	0	0	0	0	0	0	0	0	0	0	0	0	0	0	0	0	0	0	0	0	0	0	0	0	0	0	0	0	0	0	0	0	0	0	0	0	0	0	0	0	0	0	0	0	0	0	0	0	-1	0	-2.0278	-17.891	16.968	0	0	0	0	0	0	0	0	0	2
4003	40.03	0	0	0	0	0	0	0	0	0	0	0	0	0	0	0	0	0	0	0	0	0	0	0	0	0	0	0	0	0	0	0	0	0	0	0	0	0	0	0	0	0	0	0	0	0	0	0	0	0	-1	0	-2.0278	-17.891	16.968	0	0	0	0	0	0	0	0	0	2
4004	40.04	0	0	0	0	0	0	0	0	0	0	0	0	0	0	0	0	0	0	0	0	0	0	0	0	0	0	0	0	0	0	0	0	0	0	0	0	0	0	0	0	0	0	0	0	0	0	0	0	0	-1	0	-2.0278	-17.891	16.968	0	0	0	0	0	0	0	0	0	2
4005	40.05	0	0	0	0	0	0	0	0	0	0	0	0	0	0	0	0	0	0	0	0	0	0	0	0	0	0	0	0	0	0	0	0	0	0	0	0	0	0	0	0	0	0	0	0	0	0	0	0	0	-1	0	-2.0278	-17.891	16.968	0	0	0	0	0	0	0	0	0	2
4006	40.06	0	0	0	0	0	0	0	0	0	0	0	0	0	0	0	0	0	0	0	0	0	0	0	0	10.989	-10.989	19.033	0	0	0	0	0	0	0	0	0	0	0	0	0	0	0	0	0	0	0	0	0	0	-1	0	-2.0278	-17.891	16.968	0	0	0	0	0	0	0	0	0	2
4007	40.07	0	0	0	0	0	0	0	0	0	0	0	0	0	0	0	0	0	0	0	0	0	0	0	0	0	0	0	0	0	0	1	0	0	17.883	2.027	16.961	0	0	0	0	0	0	0	0	0	0	0	0	0	-1	0	-2.0278	-17.891	16.968	0	0	0	0	0	0	0	0	0	2
4008	40.08	0	0	0	0	0	0	10.917	-10.917	18.908	0	0	0	0	0	0	0	0	0	0	0	0	0	0	0	10.989	-10.989	19.033	0	0	0	0	0	0	0	0	0	0	0	0	0	0	0	0	0	0	0	0	0	0	-1	0	-2.0278	-17.891	16.968	0	0	0	0	0	0	0	0	0	2
4009	40.09	0	0	0	0	0	0	0	0	0	0	0	0	0	0	0	0	0	0	0	0	0	0	0	0	10.989	-10.989	19.033	0	0	0	0	0	0	0	0	0	0	0	0	0	0	0	0	0	0	0	0	0	0	-1	0	-2.0278	-17.891	16.968	0	0	0	0	0	0	0	0	0	2
4010	40.1	0	0	0	0	0	0	0	0	0	0	0	0	0	0	0	0	0	0	0	0	0	0	0	0	10.989	-10.989	19.033	0	0	0	1	0	0	17.883	2.027	16.961	0	0	0	0	-1	0	-2.0279	-17.891	16.969	0	0	0	1	-1	0	7.5503	-27.469	31.921	0	0	0	0	0	0	0	0	0	2
4011	40.11	0	0	0	0	0	0	0	0	0	0	0	0	0	0	0	0	0	0	0	0	0	0	0	0	0	0	0	0	0	0	0	0	0	0	0	0	0	0	0	0	0	0	0	0	0	0	0	0	0	-1	0	-2.0278	-17.891	16.968	0	0	0	1	0	0	17.47	2.0148	16.554	2
4012	40.12	0	0	0	0	0	0	0	0	0	0	0	0	0	0	0	0	0	0	0	0	0	0	0	0	0	0	0	0	0	0	1	0	0	17.883	2.027	16.961	0	0	0	0	0	0	0	0	0	0	0	0	0	-1	0	-2.0278	-17.891	16.968	0	0	0	1	0	0	17.47	2.0148	16.554	0
4013	40.13	0	0	0	0	0	0	10.917	-10.917	18.908	0	0	0	0	0	0	0	0	0	0	0	0	0	0	0	0	0	0	0	0	0	0	0	0	0	0	0	0	0	0	0	0	0	0	0	0	0	0	0	0	-1	0	-2.0278	-17.891	16.968	0	0	0	1	0	0	17.47	2.0148	16.554	2
4014	40.14	0	0	0	0	0	0	0	0	0	0	0	0	0	0	0	0	0	0	0	0	0	0	0	0	0	0	0	0	0	0	0	0	0	0	0	0	0	0	0	0	0	0	0	0	0	0	0	0	0	-1	0	-2.0278	-17.891	16.968	0	0	0	0	0	0	0	0	0	2
4015	40.15	0	0	0	0	0	0	0	0	0	0	0	0	0	0	0	0	0	0	0	0	0	0	0	0	0	0	0	0	0	0	0	0	0	0	0	0	0	0	0	0	0	0	0	0	0	0	0	0	0	-1	0	-2.0278	-17.891	16.968	0	0	0	0	0	0	0	0	0	2
4016	40.16	0	0	0	0	0	0	0	0	0	0	0	0	0	0	0	0	0	0	0	0	0	0	0	0	0	0	0	0	0	0	0	0	0	0	0	0	0	0	0	0	0	0	0	0	0	0	0	0	1	-1	0	7.5503	-27.469	31.921	0	0	0	1	0	0	17.47	2.0148	16.554	0
4017	40.17	0	0	0	0	0	0	0	0	0	0	0	0	0	0	0	0	0	0	0	0	0	0	0	0	0	0	0	0	0	0	0	0	0	0	0	0	0	0	0	0	0	0	0	0	0	0	0	0	0	-1	0	-2.0278	-17.891	16.968	0	0	0	0	0	0	0	0	0	2
4018	40.18	0	0	0	0	0	0	0	0	0	0	0	0	0	0	0	0	0	0	0	0	0	0	0	0	0	0	0	0	0	0	0	0	0	0	0	0	0	0	0	0	0	0	0	0	0	0	0	0	0	-1	0	-2.0278	-17.891	16.968	0	0	0	0	0	0	0	0	0	2
4019	40.19	0	0	0	0	0	0	0	0	0	0	0	0	0	0	0	0	0	0	0	0	0	0	0	0	0	0	0	0	0	0	0	0	0	0	0	0	0	0	0	0	0	0	0	0	0	0	0	0	0	-1	0	-2.0278	-17.891	16.968	0	0	0	0	0	0	0	0	0	2
4020	40.2	0	0	0	0	0	0	0	0	0	0	0	0	0	0	0	0	0	0	0	0	0	0	0	0	10.989	-10.989	19.033	0	0	0	0	0	0	0	0	0	0	0	0	0	-1	0	-2.0279	-17.891	16.969	0	0	0	0	-1	0	-2.0278	-17.891	16.968	0	0	0	0	0	0	0	0	0	2
4021	40.21	0	0	0	0	0	0	0	0	0	0	0	0	0	0	0	0	0	0	0	0	0	0	0	0	0	0	0	0	0	0	1	0	0	17.883	2.027	16.961	0	0	0	0	0	0	0	0	0	0	0	0	0	-1	0	-2.0278	-17.891	16.968	0	0	0	0	0	0	0	0	0	2
4022	40.22	0	0	0	0	0	0	0	0	0	0	0	0	0	0	0	0	0	0	0	0	0	0	0	0	0	0	0	0	0	0	0	0	0	0	0	0	0	0	0	0	0	0	0	0	0	0	0	0	0	-1	0	-2.0278	-17.891	16.968	0	0	0	0	0	0	0	0	0	2
4023	40.23	0	0	0	0	0	0	0	0	0	0	0	0	0	0	0	0	0	0	0	0	0	0	0	0	10.989	-10.989	19.033	0	0	0	0	0	0	0	0	0	0	0	0	0	0	0	0	0	0	0	0	0	0	-1	0	-2.0278	-17.891	16.968	0	0	0	1	0	0	17.47	2.0148	16.554	2
4024	40.24	0	0	0	0	0	0	0	0	0	0	0	0	0	0	0	0	0	0	0	0	0	0	0	0	0	0	0	0	0	0	0	0	0	0	0	0	0	0	0	0	0	0	0	0	0	0	0	0	0	-1	0	-2.0278	-17.891	16.968	0	0	0	0	0	0	0	0	0	2
4025	40.25	0	0	0	0	0	0	0	0	0	0	0	0	0	0	0	0	0	0	0	0	0	0	0	0	0	0	0	0	0	0	0	0	0	0	0	0	0	0	0	0	-1	0	-2.0279	-17.891	16.969	0	0	0	0	-1	0	-2.0278	-17.891	16.968	0	0	0	0	0	0	0	0	0	2
4026	40.26	0	0	0	0	0	0	0	0	0	0	0	0	0	0	0	0	0	0	0	0	0	0	0	0	0	0	0	0	0	0	0	0	0	0	0	0	0	0	0	0	0	0	0	0	0	0	0	0	0	-1	0	-2.0278	-17.891	16.968	0	0	0	1	0	0	17.471	2.0135	16.556	2
4027	40.27	0	0	0	0	0	0	0	0	0	0	0	0	0	0	0	0	0	0	0	0	0	0	0	0	0	0	0	0	0	0	0	0	0	0	0	0	0	0	0	0	0	0	10.996	-10.996	19.046	0	0	0	0	-1	0	-2.0278	-17.891	16.968	0	0	0	0	0	0	0	0	0	2
4028	40.28	0	0	0	0	0	0	0	0	0	0	0	0	0	-1	0	-2.0372	-17.821	16.895	0	0	0	0	0	0	10.989	-10.989	19.033	0	0	0	0	0	0	10.991	-10.991	19.037	0	0	0	0	-1	0	-2.0279	-17.891	16.969	0	0	0	0	-1	0	-2.0278	-17.891	16.968	0	0	0	0	0	0	0	0	0	2
4029	40.29	0	0	0	0	0	0	0	0	0	0	0	0	0	0	0	0	0	0	0	0	0	0	0	0	0	0	0	0	0	0	1	0	0	17.883	2.027	16.961	0	0	0	0	0	0	10.996	-10.996	19.046	0	0	0	0	-1	0	-2.0278	-17.891	16.968	0	0	0	1	0	0	17.47	2.0148	16.554	2
4030	40.3	0	0	0	0	0	0	0	0	0	0	0	0	0	0	0	0	0	0	0	0	0	0	0	0	0	0	0	0	0	0	0	0	0	0	0	0	0	0	0	0	0	0	0	0	0	0	0	0	0	-1	0	-2.0278	-17.891	16.968	0	0	0	0	0	0	0	0	0	2
4031	40.31	0	0	0	0	0	0	10.917	-10.917	18.908	0	0	0	0	-1	0	-2.0372	-17.821	16.895	0	0	0	0	0	0	0	0	0	0	0	0	1	0	0	17.883	2.027	16.961	0	0	0	0	0	0	0	0	0	0	0	0	0	-1	0	-2.0278	-17.891	16.968	0	0	0	0	0	0	0	0	0	2
4032	40.32	0	0	0	0	0	0	0	0	0	0	0	0	0	0	0	0	0	0	0	0	0	0	-1	0	-2.0266	-17.88	16.957	0	0	0	0	0	0	10.991	-10.991	19.037	0	0	0	0	-1	0	-2.1508	-17.769	16.797	0	0	0	0	-1	0	-2.0278	-17.891	16.968	0	0	0	0	0	0	0	0	0	2
4033	40.33	0	0	0	0	0	0	0	0	0	0	0	0	0	0	0	0	0	0	0	0	0	0	0	0	10.989	-10.989	19.033	0	0	0	0	0	0	0	0	0	0	0	0	0	0	0	0	0	0	0	0	0	0	-1	0	-2.0278	-17.891	16.968	0	0	0	0	0	0	0	0	0	0
4034	40.34	0	0	0	0	0	0	0	0	0	0	0	0	0	0	0	0	0	0	0	0	0	0	0	0	0	0	0	0	0	0	0	0	0	0	0	0	0	0	0	0	-1	0	-2.0279	-17.891	16.969	0	0	0	0	-1	0	-2.0278	-17.891	16.968	0	0	0	0	0	0	0	0	0	2
4035	40.35	0	0	0	0	0	0	10.917	-10.917	18.908	0	0	0	0	0	0	0	0	0	0	0	0	0	0	0	0	0	0	0	0	0	0	0	0	0	0	0	0	0	0	0	-1	0	-2.0279	-17.891	16.969	0	0	0	0	-1	0	-2.0278	-17.891	16.968	0	0	0	0	0	0	0	0	0	2
4036	40.36	0	0	0	0	0	0	0	0	0	0	0	0	0	0	0	0	0	0	0	0	0	0	0	0	0	0	0	0	0	0	1	0	0	17.883	2.027	16.961	0	0	0	0	0	0	0	0	0	0	0	0	0	-1	0	-2.0278	-17.891	16.968	0	0	0	0	0	0	0	0	0	2
4037	40.37	0	0	0	0	0	0	0	0	0	0	0	0	0	0	0	0	0	0	0	0	0	0	0	0	0	0	0	0	0	0	0	0	0	0	0	0	0	0	0	0	-1	0	-2.0279	-17.891	16.969	0	0	0	0	-1	0	-2.0278	-17.891	16.968	0	0	0	0	0	0	0	0	0	0
4038	40.38	0	0	0	0	0	0	0	0	0	0	0	0	0	0	0	0	0	0	0	0	0	0	0	0	0	0	0	0	0	0	1	0	0	17.883	2.027	16.961	0	0	0	0	0	0	0	0	0	0	0	0	0	-1	0	-2.0278	-17.891	16.968	0	0	0	0	0	0	0	0	0	2
4039	40.39	0	0	0	0	0	0	0	0	0	0	0	0	0	0	0	0	0	0	0	0	0	0	0	0	0	0	0	0	0	0	0	0	0	0	0	0	0	0	0	0	-1	0	-2.1508	-17.769	16.797	0	0	0	0	-1	0	-2.0278	-17.891	16.968	0	0	0	1	0	0	17.47	2.0148	16.554	2
4040	40.4	0	0	0	0	0	0	0	0	0	0	0	0	0	0	0	0	0	0	0	0	0	0	0	0	0	0	0	0	0	0	0	0	0	0	0	0	0	0	0	0	0	0	10.996	-10.996	19.046	0	0	0	0	-1	0	-2.0278	-17.891	16.968	0	0	0	0	0	0	0	0	0	2
4041	40.41	0	0	0	0	0	0	10.917	-10.917	18.908	0	0	0	0	0	0	0	0	0	0	0	0	0	0	0	0	0	0	0	0	0	0	0	0	0	0	0	0	0	0	0	0	0	0	0	0	0	0	0	1	-1	0	7.5503	-27.469	31.921	0	0	0	1	0	0	17.47	2.0148	16.554	2
4042	40.42	0	0	0	0	0	0	0	0	0	0	0	0	0	0	0	0	0	0	0	0	0	0	0	0	0	0	0	0	0	0	0	0	0	0	0	0	0	0	0	0	0	0	10.996	-10.996	19.046	0	0	0	0	0	0	0	0	0	0	0	0	1	0	0	17.47	2.0148	16.554	2
4043	40.43	0	0	0	0	0	0	0	0	0	0	0	0	0	0	0	0	0	0	0	0	0	0	0	0	0	0	0	0	0	0	0	0	0	10.991	-10.991	19.037	0	0	0	0	0	0	0	0	0	0	0	0	0	-1	0	-2.0278	-17.891	16.968	0	0	0	0	0	0	0	0	0	2
4044	40.44	0	0	0	0	0	0	0	0	0	0	0	0	0	0	0	0	0	0	0	0	0	0	0	0	0	0	0	0	0	0	0	0	0	0	0	0	0	0	0	0	0	0	0	0	0	0	0	0	0	-1	0	-2.0278	-17.891	16.968	0	0	0	0	0	0	0	0	0	2
4045	40.45	0	0	0	0	0	0	0	0	0	0	0	0	0	0	0	0	0	0	0	0	0	0	0	0	0	0	0	0	0	0	0	0	0	0	0	0	0	0	0	0	0	0	0	0	0	0	0	0	0	0	0	0	0	0	0	0	0	0	0	0	0	0	0	2
4046	40.46	0	0	0	0	0	0	10.917	-10.917	18.908	0	0	0	0	0	0	0	0	0	0	0	0	0	0	0	0	0	0	0	0	0	1	0	0	17.883	2.027	16.961	0	0	0	0	0	0	0	0	0	0	0	0	1	-1	0	7.5503	-27.469	31.921	0	0	0	0	0	0	0	0	0	2
4047	40.47	0	0	0	0	0	0	0	0	0	0	0	0	0	0	0	0	0	0	0	0	0	0	0	0	0	0	0	0	0	0	0	0	0	0	0	0	0	0	0	0	0	0	0	0	0	0	0	0	0	-1	0	-2.0278	-17.891	16.968	0	0	0	0	0	0	0	0	0	2
4048	40.48	0	0	0	0	0	0	0	0	0	0	0	0	0	0	0	0	0	0	0	0	0	0	0	0	0	0	0	0	0	0	0	0	0	0	0	0	0	0	0	0	0	0	0	0	0	0	0	0	1	-1	0	7.5503	-27.469	31.921	0	0	0	1	0	0	17.47	2.0148	16.554	2
4049	40.49	0	0	0	0	0	0	0	0	0	0	0	0	0	0	0	0	0	0	0	0	0	0	0	0	0	0	0	0	0	0	0	0	0	0	0	0	0	0	0	0	0	0	0	0	0	0	0	0	0	0	0	0	0	0	0	0	0	0	0	0	0	0	0	2
4050	40.5	0	0	0	0	0	0	0	0	0	0	0	0	0	0	0	0	0	0	0	0	0	0	0	0	0	0	0	0	0	0	0	0	0	10.991	-10.991	19.037	0	0	0	0	0	0	0	0	0	0	0	0	0	-1	0	-2.0278	-17.891	16.968	0	0	0	0	0	0	0	0	0	2
4051	40.51	0	0	0	0	0	0	0	0	0	0	0	0	0	0	0	0	0	0	0	0	0	0	0	0	0	0	0	0	0	0	0	0	0	0	0	0	0	0	0	0	0	0	0	0	0	0	0	0	0	-1	0	-2.0278	-17.891	16.968	0	0	0	1	0	0	17.47	2.0148	16.554	0
4052	40.52	0	0	0	0	0	0	10.917	-10.917	18.908	0	0	0	0	0	0	0	0	0	0	0	0	0	0	0	0	0	0	0	0	0	0	0	0	10.991	-10.991	19.037	0	0	0	0	-1	0	-2.1508	-17.769	16.797	0	0	0	0	-1	0	-2.0278	-17.891	16.968	0	0	0	0	0	0	0	0	0	2
4053	40.53	0	0	0	0	0	0	0	0	0	0	0	0	0	0	0	0	0	0	0	0	0	0	0	0	0	0	0	0	0	0	1	0	0	17.883	2.027	16.961	0	0	0	0	0	0	0	0	0	0	0	0	0	-1	0	-2.0278	-17.891	16.968	0	0	0	0	0	0	0	0	0	2
4054	40.54	0	0	0	0	0	0	0	0	0	0	0	0	0	0	0	0	0	0	0	0	0	0	0	0	0	0	0	0	0	0	0	0	0	0	0	0	0	0	0	0	0	0	0	0	0	0	0	0	0	-1	0	-2.0278	-17.891	16.968	0	0	0	0	0	0	0	0	0	2
4055	40.55	0	0	0	0	0	0	0	0	0	0	0	0	0	0	0	0	0	0	0	0	0	0	0	0	0	0	0	0	0	0	0	0	0	0	0	0	0	0	0	0	0	0	0	0	0	0	0	0	0	-1	0	-2.0278	-17.891	16.968	0	0	0	0	0	0	0	0	0	2
4056	40.56	0	0	0	0	0	0	0	0	0	0	0	0	0	0	0	0	0	0	0	0	0	0	0	0	0	0	0	0	0	0	0	0	0	0	0	0	0	0	0	0	0	0	0	0	0	0	0	0	0	-1	0	-2.0278	-17.891	16.968	0	0	0	0	0	0	0	0	0	2
4057	40.57	0	0	0	0	0	0	0	0	0	0	0	0	0	0	0	0	0	0	0	0	0	0	-1	0	-2.0266	-17.88	16.957	0	0	0	0	0	0	0	0	0	0	0	0	0	0	0	0	0	0	0	0	0	0	-1	0	-2.0278	-17.891	16.968	0	0	0	0	0	0	0	0	0	2
4058	40.58	0	0	0	0	0	0	0	0	0	0	0	0	0	0	0	0	0	0	0	0	0	0	0	0	10.989	-10.989	19.033	0	0	0	1	0	0	17.761	2.1499	16.789	0	0	0	0	0	0	0	0	0	0	0	0	0	-1	0	-2.0278	-17.891	16.968	0	0	0	1	0	0	17.47	2.0148	16.554	2
4059	40.59	0	0	0	0	0	0	0	0	0	0	0	0	0	0	0	0	0	0	0	0	0	0	0	0	10.989	-10.989	19.033	0	0	0	1	0	0	17.883	2.027	16.961	0	0	0	0	-1	0	-2.1508	-17.769	16.797	0	0	0	0	-1	0	-2.0278	-17.891	16.968	0	0	0	0	0	0	0	0	0	2
4060	40.6	0	0	0	0	0	0	0	0	0	0	0	0	0	-1	0	-2.0366	-17.816	16.89	0	0	0	0	0	0	0	0	0	0	0	0	1	0	0	17.883	2.027	16.961	0	0	0	0	0	0	0	0	0	0	0	0	0	-1	0	-2.0278	-17.891	16.968	0	0	0	0	0	0	0	0	0	0
4061	40.61	0	0	0	0	0	0	0	0	0	0	0	0	0	0	0	0	0	0	0	0	0	0	0	0	0	0	0	0	0	0	0	0	0	0	0	0	0	0	0	0	0	0	0	0	0	0	0	0	0	-1	0	-2.0278	-17.891	16.968	0	0	0	0	0	0	0	0	0	2
4062	40.62	0	0	0	0	0	0	0	0	0	0	0	0	0	0	0	0	0	0	0	0	0	0	0	0	0	0	0	0	0	0	0	0	0	0	0	0	0	0	0	0	0	0	10.996	-10.996	19.046	0	0	0	0	-1	0	-2.0278	-17.891	16.968	0	0	0	1	0	0	17.47	2.0148	16.554	2
4063	40.63	0	0	0	0	0	0	0	0	0	0	0	0	0	0	0	0	0	0	0	0	0	0	0	0	0	0	0	0	0	0	0	0	0	10.991	-10.991	19.037	0	0	0	0	-1	0	-2.0279	-17.891	16.969	0	0	0	0	-1	0	-2.0278	-17.891	16.968	0	0	0	0	0	0	0	0	0	0
4064	40.64	0	0	0	0	0	0	0	0	0	0	0	0	0	0	0	0	0	0	0	0	0	0	0	0	0	0	0	0	0	0	0	0	0	0	0	0	0	0	0	0	-1	0	-2.0279	-17.891	16.969	0	0	0	0	-1	0	-2.0278	-17.891	16.968	0	0	0	0	0	0	0	0	0	2
4065	40.65	0	0	0	0	0	0	10.917	-10.917	18.908	0	0	0	0	0	0	0	0	0	0	0	0	0	0	0	0	0	0	0	0	0	0	0	0	10.991	-10.991	19.037	0	0	0	0	-1	0	-2.0279	-17.891	16.969	0	0	0	0	-1	0	-2.0278	-17.891	16.968	0	0	0	1	0	0	17.47	2.0148	16.554	0
4066	40.66	0	0	0	0	0	0	0	0	0	0	0	0	0	0	0	0	0	0	0	0	0	0	0	0	0	0	0	0	0	0	0	0	0	0	0	0	0	0	0	0	0	0	0	0	0	0	0	0	0	-1	0	-2.0278	-17.891	16.968	0	0	0	1	0	0	17.47	2.0148	16.554	2
4067	40.67	0	0	0	0	0	0	0	0	0	0	0	0	0	0	0	0	0	0	0	0	0	0	0	0	0	0	0	0	0	0	0	0	0	10.991	-10.991	19.037	0	0	0	0	-1	0	-2.1508	-17.769	16.797	0	0	0	0	-1	0	-2.0278	-17.891	16.968	0	0	0	0	0	0	0	0	0	2
4068	40.68	0	0	0	0	0	0	0	0	0	0	0	0	0	0	0	0	0	0	0	0	0	0	0	0	10.989	-10.989	19.033	0	0	0	0	0	0	10.991	-10.991	19.037	0	0	0	0	0	0	0	0	0	0	0	0	0	-1	0	-2.0278	-17.891	16.968	0	0	0	0	0	0	0	0	0	2
4069	40.69	0	0	0	0	0	0	10.917	-10.917	18.908	0	0	0	0	0	0	0	0	0	0	0	0	0	0	0	0	0	0	0	0	0	1	0	0	17.883	2.027	16.961	0	0	0	0	0	0	0	0	0	0	0	0	0	-1	0	-2.0278	-17.891	16.968	0	0	0	0	0	0	0	0	0	2
4070	40.7	0	0	0	0	0	0	0	0	0	0	0	0	0	0	0	0	0	0	0	0	0	0	0	0	10.989	-10.989	19.033	0	0	0	0	0	0	0	0	0	0	0	0	0	0	0	0	0	0	0	0	0	0	-1	0	-2.0278	-17.891	16.968	0	0	0	0	0	0	0	0	0	2
4071	40.71	0	0	0	0	0	0	10.917	-10.917	18.908	0	0	0	0	0	0	0	0	0	0	0	0	0	0	0	0	0	0	0	0	0	0	0	0	0	0	0	0	0	0	0	0	0	0	0	0	0	0	0	0	-1	0	-2.0278	-17.891	16.968	0	0	0	0	0	0	0	0	0	0
4072	40.72	0	0	0	0	0	0	0	0	0	0	0	0	0	0	0	0	0	0	0	0	0	0	0	0	0	0	0	0	0	0	0	0	0	0	0	0	0	0	0	0	0	0	0	0	0	0	0	0	0	-1	0	-2.0278	-17.891	16.968	0	0	0	0	0	0	0	0	0	0
4073	40.73	0	0	0	0	0	0	0	0	0	0	0	0	0	0	0	0	0	0	0	0	0	0	0	0	0	0	0	0	0	0	1	0	0	17.883	2.027	16.961	0	0	0	0	0	0	0	0	0	0	0	0	0	-1	0	-2.0278	-17.891	16.968	0	0	0	1	0	0	17.47	2.0148	16.554	0
4074	40.74	0	0	0	0	0	0	0	0	0	0	0	0	0	0	0	0	0	0	0	0	0	0	0	0	0	0	0	0	0	0	0	0	0	0	0	0	0	0	0	0	0	0	0	0	0	0	0	0	0	-1	0	-2.0278	-17.891	16.968	0	0	0	0	0	0	0	0	0	2
4075	40.75	0	0	0	0	0	0	0	0	0	0	0	0	0	0	0	0	0	0	0	0	0	0	0	0	0	0	0	0	0	0	0	0	0	0	0	0	0	0	0	0	-1	0	-2.0279	-17.891	16.969	0	0	0	0	-1	0	-2.0278	-17.891	16.968	0	0	0	0	0	0	0	0	0	0
4076	40.76	0	0	0	0	0	0	0	0	0	0	0	0	0	0	0	0	0	0	0	0	0	0	0	0	0	0	0	0	0	0	1	0	0	17.883	2.027	16.961	0	0	0	0	0	0	0	0	0	0	0	0	0	-1	0	-2.0278	-17.891	16.968	0	0	0	1	0	0	17.47	2.0148	16.554	2
4077	40.77	0	0	0	0	0	0	10.917	-10.917	18.908	0	0	0	0	-1	0	-2.0372	-17.821	16.895	0	0	0	0	0	0	0	0	0	0	0	0	0	0	0	0	0	0	0	0	0	0	0	0	0	0	0	0	0	0	0	-1	0	-2.0278	-17.891	16.968	0	0	0	0	0	0	0	0	0	0
4078	40.78	0	0	0	0	0	0	10.917	-10.917	18.908	0	0	0	0	0	0	0	0	0	0	0	0	0	0	0	0	0	0	0	0	0	1	0	0	17.883	2.027	16.961	0	0	0	0	0	0	0	0	0	0	0	0	0	-1	0	-2.0278	-17.891	16.968	0	0	0	0	0	0	0	0	0	2
4079	40.79	0	0	0	0	0	0	10.917	-10.917	18.908	0	0	0	0	0	0	0	0	0	0	0	0	0	0	0	0	0	0	0	0	0	0	0	0	0	0	0	0	0	0	0	0	0	0	0	0	0	0	0	0	-1	0	-2.0278	-17.891	16.968	0	0	0	0	0	0	0	0	0	2
4080	40.8	0	0	0	0	0	0	0	0	0	0	0	0	0	0	0	0	0	0	0	0	0	0	0	0	0	0	0	0	0	0	0	0	0	0	0	0	0	0	0	0	0	0	0	0	0	0	0	0	0	-1	0	-2.0278	-17.891	16.968	0	0	0	0	0	0	0	0	0	2
4081	40.81	0	0	0	0	0	0	10.917	-10.917	18.908	0	0	0	0	0	0	0	0	0	0	0	0	0	0	0	0	0	0	0	0	0	1	0	0	17.883	2.027	16.961	0	0	0	0	0	0	0	0	0	0	0	0	0	-1	0	-2.0278	-17.891	16.968	0	0	0	0	0	0	0	0	0	2
4082	40.82	0	0	0	0	0	0	0	0	0	0	0	0	0	0	0	0	0	0	0	0	0	0	0	0	0	0	0	0	0	0	0	0	0	0	0	0	0	0	0	0	0	0	0	0	0	0	0	0	0	-1	0	-2.0278	-17.891	16.968	0	0	0	0	0	0	0	0	0	2
4083	40.83	0	0	0	0	0	0	10.917	-10.917	18.908	0	0	0	0	0	0	0	0	0	0	0	0	0	0	0	0	0	0	0	0	0	0	0	0	0	0	0	0	0	0	0	0	0	0	0	0	0	0	0	0	-1	0	-2.0278	-17.891	16.968	0	0	0	0	0	0	0	0	0	2
4084	40.84	0	0	0	0	0	0	0	0	0	0	0	0	0	0	0	0	0	0	0	0	0	0	0	0	0	0	0	0	0	0	0	0	0	0	0	0	0	0	0	0	0	0	10.996	-10.996	19.046	0	0	0	0	-1	0	-2.0278	-17.891	16.968	0	0	0	0	0	0	0	0	0	2
4085	40.85	0	0	0	0	0	0	0	0	0	0	0	0	0	0	0	0	0	0	0	0	0	0	0	0	10.989	-10.989	19.033	0	0	0	0	0	0	0	0	0	0	0	0	0	0	0	0	0	0	0	0	0	0	-1	0	-2.0278	-17.891	16.968	0	0	0	0	0	0	0	0	0	2
4086	40.86	0	0	0	0	0	0	10.917	-10.917	18.908	0	0	0	0	0	0	0	0	0	0	0	0	0	0	0	0	0	0	0	0	0	1	0	0	17.883	2.027	16.961	0	0	0	0	0	0	0	0	0	0	0	0	0	-1	0	-2.0278	-17.891	16.968	0	0	0	0	0	0	0	0	0	2
4087	40.87	0	0	0	0	0	0	0	0	0	0	0	0	0	0	0	0	0	0	0	0	0	0	0	0	0	0	0	0	0	0	0	0	0	0	0	0	0	0	0	0	0	0	0	0	0	0	0	0	0	-1	0	-2.0278	-17.891	16.968	0	0	0	0	0	0	0	0	0	2
4088	40.88	0	0	0	0	0	0	10.917	-10.917	18.908	0	0	0	0	0	0	0	0	0	0	0	0	0	0	0	0	0	0	0	0	0	1	0	0	17.883	2.027	16.961	0	0	0	0	0	0	0	0	0	0	0	0	0	-1	0	-2.0278	-17.891	16.968	0	0	0	0	0	0	10.93	-10.93	18.931	0
4089	40.89	0	0	0	0	0	0	0	0	0	0	0	0	0	0	0	0	0	0	0	0	0	0	0	0	0	0	0	0	0	0	1	0	0	17.883	2.027	16.961	0	0	0	0	0	0	0	0	0	0	0	0	0	-1	0	-2.0278	-17.891	16.968	0	0	0	0	0	0	0	0	0	0
4090	40.9	0	0	0	0	0	0	0	0	0	0	0	0	0	0	0	0	0	0	0	0	0	0	0	0	0	0	0	0	0	0	0	0	0	10.991	-10.991	19.037	0	0	0	0	0	0	0	0	0	0	0	0	0	-1	0	-2.0278	-17.891	16.968	0	0	0	0	0	0	0	0	0	2
4091	40.91	0	0	0	0	0	0	0	0	0	0	0	0	0	0	0	0	0	0	0	0	0	0	0	0	0	0	0	0	0	0	1	0	0	17.883	2.027	16.961	0	0	0	0	0	0	0	0	0	0	0	0	1	-1	0	7.5503	-27.469	31.921	0	0	0	0	0	0	0	0	0	2
4092	40.92	0	0	0	0	0	0	0	0	0	0	0	0	0	0	0	0	0	0	0	0	0	0	0	0	10.989	-10.989	19.033	0	0	0	0	0	0	0	0	0	0	0	0	0	0	0	0	0	0	0	0	0	0	-1	0	-2.0278	-17.891	16.968	0	0	0	0	0	0	0	0	0	0
4093	40.93	0	0	0	0	0	0	10.917	-10.917	18.908	0	0	0	0	0	0	0	0	0	0	0	0	0	0	0	0	0	0	0	0	0	0	0	0	0	0	0	0	0	0	0	0	0	0	0	0	0	0	0	0	-1	0	-2.0278	-17.891	16.968	0	0	0	0	0	0	0	0	0	2
4094	40.94	0	0	0	0	0	0	0	0	0	0	0	0	0	0	0	0	0	0	0	0	0	0	0	0	0	0	0	0	0	0	1	0	0	17.883	2.027	16.961	0	0	0	0	0	0	0	0	0	0	0	0	1	-1	0	7.5503	-27.469	31.921	0	0	0	0	0	0	0	0	0	2
4095	40.95	0	0	0	0	0	0	0	0	0	0	0	0	0	0	0	0	0	0	0	0	0	0	0	0	10.989	-10.989	19.033	0	0	0	0	0	0	0	0	0	0	0	0	0	0	0	0	0	0	0	0	0	0	-1	0	-2.0278	-17.891	16.968	0	0	0	0	0	0	0	0	0	2
4096	40.96	0	0	0	0	0	0	10.917	-10.917	18.908	0	0	0	0	0	0	0	0	0	0	0	0	0	0	0	0	0	0	0	0	0	0	0	0	0	0	0	0	0	0	0	0	0	0	0	0	0	0	0	1	-1	0	7.5503	-27.469	31.921	0	0	0	0	0	0	0	0	0	2
4097	40.97	0	0	0	0	0	0	0	0	0	0	0	0	0	0	0	0	0	0	0	0	0	0	0	0	0	0	0	0	0	0	0	0	0	0	0	0	0	0	0	0	-1	0	-2.0279	-17.891	16.969	0	0	0	0	-1	0	-2.0278	-17.891	16.968	0	0	0	0	0	0	0	0	0	2
4098	40.98	0	0	0	0	0	0	0	0	0	0	0	0	0	0	0	0	0	0	0	0	0	0	0	0	0	0	0	0	0	0	0	0	0	0	0	0	0	0	0	0	0	0	10.996	-10.996	19.046	0	0	0	0	-1	0	-2.0278	-17.891	16.968	0	0	0	0	0	0	0	0	0	2
4099	40.99	0	0	0	0	0	0	10.917	-10.917	18.908	0	0	0	0	0	0	0	0	0	0	0	0	0	0	0	0	0	0	0	0	0	0	0	0	0	0	0	0	0	0	0	0	0	10.996	-10.996	19.046	0	0	0	0	-1	0	-2.0278	-17.891	16.968	0	0	0	0	0	0	0	0	0	2
4100	41	0	0	0	0	0	0	0	0	0	0	0	0	0	0	0	0	0	0	0	0	0	0	0	0	0	0	0	0	0	0	0	0	0	0	0	0	0	0	0	0	0	0	0	0	0	0	0	0	0	-1	0	-2.0278	-17.891	16.968	0	0	0	0	0	0	0	0	0	2
4101	41.01	0	0	0	0	0	0	10.917	-10.917	18.908	0	0	0	0	0	0	0	0	0	0	0	0	0	0	0	0	0	0	0	0	0	1	0	0	17.883	2.027	16.961	0	0	0	0	0	0	0	0	0	0	0	0	0	-1	0	-2.0278	-17.891	16.968	0	0	0	0	0	0	0	0	0	0
4102	41.02	0	0	0	0	0	0	0	0	0	0	0	0	0	0	0	0	0	0	0	0	0	0	-1	0	-2.0266	-17.88	16.957	0	0	0	0	0	0	0	0	0	0	0	0	0	0	0	0	0	0	0	0	0	0	-1	0	-2.0278	-17.891	16.968	0	0	0	0	0	0	0	0	0	2
4103	41.03	0	0	0	0	0	0	0	0	0	0	0	0	0	-1	0	-2.0366	-17.816	16.89	0	0	0	0	0	0	0	0	0	0	0	0	0	0	0	10.991	-10.991	19.037	0	0	0	0	0	0	0	0	0	0	0	0	0	-1	0	-2.0278	-17.891	16.968	0	0	0	0	0	0	0	0	0	2
4104	41.04	0	0	0	0	0	0	0	0	0	0	0	0	0	0	0	0	0	0	0	0	0	0	0	0	10.989	-10.989	19.033	0	0	0	0	0	0	0	0	0	0	0	0	0	0	0	0	0	0	0	0	0	0	-1	0	-2.0278	-17.891	16.968	0	0	0	0	0	0	0	0	0	2
4105	41.05	0	0	0	0	0	0	0	0	0	0	0	0	0	0	0	0	0	0	0	0	0	0	-1	0	-2.0266	-17.88	16.957	0	0	0	0	0	0	0	0	0	0	0	0	0	0	0	10.996	-10.996	19.046	0	0	0	0	-1	0	-2.0278	-17.891	16.968	0	0	0	0	0	0	0	0	0	2
4106	41.06	0	0	0	0	0	0	0	0	0	0	0	0	0	0	0	0	0	0	0	0	0	0	0	0	0	0	0	0	0	0	1	0	0	17.883	2.027	16.961	0	0	0	0	0	0	0	0	0	0	0	0	0	-1	0	-2.0278	-17.891	16.968	0	0	0	0	0	0	10.93	-10.93	18.931	2
4107	41.07	0	0	0	0	0	0	10.917	-10.917	18.908	0	0	0	0	0	0	0	0	0	0	0	0	0	0	0	0	0	0	0	0	0	0	0	0	0	0	0	0	0	0	0	0	0	10.996	-10.996	19.046	0	0	0	0	-1	0	-2.0278	-17.891	16.968	0	0	0	0	0	0	0	0	0	2
4108	41.08	0	0	0	0	0	0	0	0	0	0	0	0	0	0	0	0	0	0	0	0	0	0	0	0	0	0	0	0	0	0	1	0	0	17.883	2.027	16.961	0	0	0	0	-1	0	-2.0279	-17.891	16.969	0	0	0	0	-1	0	-2.0278	-17.891	16.968	0	0	0	1	0	0	17.47	2.0148	16.554	2
4109	41.09	0	0	0	0	0	0	0	0	0	0	0	0	0	0	0	0	0	0	0	0	0	0	0	0	0	0	0	0	0	0	0	0	0	0	0	0	0	0	0	0	0	0	0	0	0	0	0	0	0	-1	0	-2.0278	-17.891	16.968	0	0	0	0	0	0	0	0	0	2
4110	41.1	0	0	0	0	0	0	10.917	-10.917	18.908	0	0	0	0	0	0	0	0	0	0	0	0	0	0	0	0	0	0	0	0	0	0	0	0	0	0	0	0	0	0	0	0	0	0	0	0	0	0	0	0	-1	0	-2.0278	-17.891	16.968	0	0	0	0	0	0	0	0	0	2
4111	41.11	0	0	0	0	0	0	0	0	0	0	0	0	0	0	0	0	0	0	0	0	0	0	0	0	0	0	0	0	0	0	1	0	0	17.883	2.027	16.961	0	0	0	0	0	0	0	0	0	0	0	0	0	0	0	0	0	0	0	0	0	1	0	0	17.47	2.0148	16.554	2
4112	41.12	0	0	0	0	0	0	0	0	0	0	0	0	0	0	0	0	0	0	0	0	0	0	0	0	0	0	0	0	0	0	0	0	0	0	0	0	0	0	0	0	0	0	0	0	0	0	0	0	0	-1	0	-2.0278	-17.891	16.968	0	0	0	0	0	0	0	0	0	2
4113	41.13	0	0	0	0	0	0	0	0	0	0	0	0	0	0	0	0	0	0	0	0	0	0	0	0	10.989	-10.989	19.033	0	0	0	0	0	0	0	0	0	0	0	0	0	0	0	0	0	0	0	0	0	0	-1	0	-2.0278	-17.891	16.968	0	0	0	0	0	0	10.93	-10.93	18.931	0
4114	41.14	0	0	0	0	0	0	0	0	0	0	0	0	0	0	0	0	0	0	0	0	0	0	0	0	0	0	0	0	0	0	0	-1	0	-2.0265	-17.879	16.957	0	0	0	0	0	0	0	0	0	0	0	0	0	-1	0	-2.0278	-17.891	16.968	0	0	0	0	0	0	0	0	0	2
4115	41.15	0	0	0	0	0	0	0	0	0	0	0	0	0	0	0	0	0	0	0	0	0	0	0	0	0	0	0	0	0	0	1	0	0	17.883	2.027	16.961	0	0	0	0	0	0	10.996	-10.996	19.046	0	0	0	0	-1	0	-2.0278	-17.891	16.968	0	0	0	0	0	0	0	0	0	2
4116	41.16	0	0	0	0	0	0	10.917	-10.917	18.908	0	0	0	0	0	0	0	0	0	0	0	0	0	0	0	0	0	0	0	0	0	0	0	0	0	0	0	0	0	0	0	0	0	0	0	0	0	0	0	0	-1	0	-2.0278	-17.891	16.968	0	0	0	1	0	0	17.47	2.0148	16.554	0
4117	41.17	0	0	0	0	0	0	0	0	0	0	0	0	0	0	0	0	0	0	0	0	0	0	-1	0	-2.0266	-17.88	16.957	0	0	0	0	0	0	0	0	0	0	0	0	0	0	0	0	0	0	0	0	0	0	-1	0	-2.0278	-17.891	16.968	0	0	0	0	0	0	0	0	0	2
4118	41.18	0	0	0	0	0	0	0	0	0	0	0	0	0	0	0	0	0	0	0	0	0	0	0	0	0	0	0	0	0	0	1	0	0	17.883	2.027	16.961	0	0	0	0	0	0	0	0	0	0	0	0	0	-1	0	-2.0278	-17.891	16.968	0	0	0	1	0	0	17.47	2.0148	16.554	2
4119	41.19	0	0	0	0	0	0	10.917	-10.917	18.908	0	0	0	0	0	0	0	0	0	0	0	0	0	0	0	0	0	0	0	0	0	0	0	0	0	0	0	0	0	0	0	0	0	0	0	0	0	0	0	0	-1	0	-2.0278	-17.891	16.968	0	0	0	0	0	0	0	0	0	2
4120	41.2	0	0	0	0	0	0	0	0	0	0	0	0	0	0	0	0	0	0	0	0	0	0	0	0	0	0	0	0	0	0	1	0	0	17.883	2.027	16.961	0	0	0	0	0	0	0	0	0	0	0	0	0	-1	0	-2.0278	-17.891	16.968	0	0	0	0	0	0	0	0	0	2
4121	41.21	0	0	0	0	0	0	0	0	0	0	0	0	0	0	0	0	0	0	0	0	0	0	0	0	0	0	0	0	0	0	0	0	0	0	0	0	0	0	0	0	0	0	0	0	0	0	0	0	0	-1	0	-2.0278	-17.891	16.968	0	0	0	1	0	0	17.471	2.0135	16.556	2
4122	41.22	0	0	0	0	0	0	0	0	0	0	0	0	0	0	0	0	0	0	0	0	0	0	0	0	0	0	0	0	0	0	0	0	0	0	0	0	0	0	0	0	0	0	0	0	0	0	0	0	0	-1	0	-2.0278	-17.891	16.968	0	0	0	0	0	0	0	0	0	2
4123	41.23	0	0	0	0	0	0	0	0	0	0	0	0	0	0	0	0	0	0	0	0	0	0	0	0	0	0	0	0	0	0	0	-1	0	-2.0265	-17.879	16.957	0	0	0	0	0	0	0	0	0	0	0	0	0	-1	0	-2.0278	-17.891	16.968	0	0	0	0	0	0	10.93	-10.93	18.931	2
4124	41.24	0	0	0	0	0	0	10.917	-10.917	18.908	0	0	0	0	0	0	0	0	0	0	0	0	0	0	0	0	0	0	0	0	0	0	0	0	0	0	0	0	0	0	0	0	0	0	0	0	0	0	0	0	0	0	0	0	0	0	0	0	0	0	0	0	0	0	2
4125	41.25	0	0	0	0	0	0	0	0	0	0	0	0	0	0	0	0	0	0	0	0	0	0	0	0	0	0	0	0	0	0	0	0	0	0	0	0	0	0	0	0	0	0	0	0	0	0	0	0	0	-1	0	-2.0278	-17.891	16.968	0	0	0	1	0	0	17.47	2.0148	16.554	2
4126	41.26	0	0	0	0	0	0	0	0	0	0	0	0	0	0	0	0	0	0	0	0	0	0	0	0	10.989	-10.989	19.033	0	0	0	0	0	0	0	0	0	0	0	0	0	0	0	0	0	0	0	0	0	0	0	0	0	0	0	0	0	0	0	0	0	0	0	0	2
4127	41.27	0	0	0	0	0	0	0	0	0	0	0	0	0	0	0	0	0	0	0	0	0	0	0	0	0	0	0	0	0	0	0	0	0	0	0	0	0	0	0	0	0	0	0	0	0	0	0	0	0	-1	0	-2.0278	-17.891	16.968	0	0	0	0	0	0	0	0	0	2
4128	41.28	0	0	0	0	0	0	0	0	0	0	0	0	0	0	0	0	0	0	0	0	0	0	0	0	10.989	-10.989	19.033	0	0	0	0	0	0	0	0	0	0	0	0	0	0	0	0	0	0	0	0	0	0	-1	0	-2.0278	-17.891	16.968	0	0	0	0	0	0	10.93	-10.93	18.931	2
4129	41.29	0	0	0	0	0	0	0	0	0	0	0	0	0	0	0	0	0	0	0	0	0	0	0	0	0	0	0	0	0	0	0	0	0	0	0	0	0	0	0	0	0	0	0	0	0	0	0	0	0	-1	0	-2.0278	-17.891	16.968	0	0	0	0	0	0	0	0	0	0
4130	41.3	0	0	0	0	0	0	0	0	0	0	0	0	0	-1	0	-2.0366	-17.816	16.89	0	0	0	0	0	0	10.989	-10.989	19.033	0	0	0	0	0	0	0	0	0	0	0	0	0	0	0	0	0	0	0	0	0	0	-1	0	-2.0278	-17.891	16.968	0	0	0	0	0	0	0	0	0	2
4131	41.31	0	0	0	0	0	0	0	0	0	0	0	0	0	0	0	0	0	0	0	0	0	1	0	0	17.876	2.0262	16.954	0	0	0	0	0	0	0	0	0	0	0	0	0	0	0	0	0	0	0	0	0	0	0	0	0	0	0	0	0	0	0	0	0	0	0	0	2
4132	41.32	0	0	0	0	0	0	0	0	0	0	0	0	0	0	0	0	0	0	0	0	0	0	0	0	0	0	0	0	0	0	1	0	0	17.883	2.027	16.961	0	0	0	0	0	0	0	0	0	0	0	0	1	-1	0	7.5503	-27.469	31.921	0	0	0	0	0	0	0	0	0	2
4133	41.33	0	0	0	0	0	0	0	0	0	0	0	0	0	0	0	0	0	0	0	0	0	0	0	0	10.989	-10.989	19.033	0	0	0	0	0	0	10.991	-10.991	19.037	0	0	0	0	0	0	0	0	0	0	0	0	0	-1	0	-2.0278	-17.891	16.968	0	0	0	0	0	0	0	0	0	2
4134	41.34	0	0	0	0	0	0	0	0	0	0	0	0	0	0	0	0	0	0	0	0	0	0	0	0	0	0	0	0	0	0	1	0	0	17.883	2.027	16.961	0	0	0	0	0	0	0	0	0	0	0	0	0	-1	0	-2.0278	-17.891	16.968	0	0	0	0	0	0	0	0	0	0
4135	41.35	0	0	0	0	0	0	10.917	-10.917	18.908	0	0	0	0	0	0	0	0	0	0	0	0	0	0	0	0	0	0	0	0	0	0	0	0	0	0	0	0	0	0	0	0	0	0	0	0	0	0	0	0	-1	0	-2.0278	-17.891	16.968	0	0	0	0	0	0	0	0	0	2
4136	41.36	0	0	0	0	0	0	0	0	0	0	0	0	0	0	0	0	0	0	0	0	0	0	0	0	0	0	0	0	0	0	0	0	0	10.991	-10.991	19.037	0	0	0	0	0	0	0	0	0	0	0	0	0	-1	0	-2.0278	-17.891	16.968	0	0	0	1	0	0	17.471	2.0135	16.556	2
4137	41.37	0	0	0	0	0	0	0	0	0	0	0	0	0	0	0	0	0	0	0	0	0	0	0	0	0	0	0	0	0	0	0	0	0	0	0	0	0	0	0	0	0	0	0	0	0	0	0	0	0	-1	0	-2.0278	-17.891	16.968	0	0	0	0	0	0	0	0	0	2
4138	41.38	0	0	0	0	0	0	0	0	0	0	0	0	0	0	0	0	0	0	0	0	0	0	0	0	0	0	0	0	0	0	0	0	0	0	0	0	0	0	0	0	0	0	0	0	0	0	0	0	0	-1	0	-2.0278	-17.891	16.968	0	0	0	0	0	0	0	0	0	2
4139	41.39	0	0	0	0	-1	0	-2.0364	-17.814	16.888	0	0	0	0	-1	0	-2.0366	-17.816	16.89	0	0	0	0	0	0	0	0	0	0	0	0	0	0	0	0	0	0	0	0	0	0	0	0	0	0	0	0	0	0	0	-1	0	-2.0278	-17.891	16.968	0	0	0	0	0	0	0	0	0	2
4140	41.4	0	0	0	0	0	0	0	0	0	0	0	0	0	0	0	0	0	0	0	0	0	0	0	0	0	0	0	0	0	0	0	0	0	0	0	0	0	0	0	0	0	0	0	0	0	0	0	0	0	-1	0	-2.0278	-17.891	16.968	0	0	0	0	0	0	0	0	0	2
4141	41.41	0	0	0	0	0	0	10.917	-10.917	18.908	0	0	0	0	0	0	0	0	0	0	0	0	0	0	0	0	0	0	0	0	0	0	0	0	0	0	0	0	0	0	0	0	0	0	0	0	0	0	0	0	-1	0	-2.0278	-17.891	16.968	0	0	0	0	0	0	0	0	0	0
4142	41.42	0	0	0	0	0	0	0	0	0	0	0	0	0	0	0	0	0	0	0	0	0	0	0	0	0	0	0	0	0	0	0	0	0	0	0	0	0	0	0	0	0	0	10.996	-10.996	19.046	0	0	0	0	-1	0	-2.0278	-17.891	16.968	0	0	0	0	0	0	0	0	0	2
4143	41.43	0	0	0	0	0	0	0	0	0	0	0	0	0	0	0	0	0	0	0	0	0	0	0	0	10.989	-10.989	19.033	0	0	0	0	0	0	0	0	0	0	0	0	0	0	0	0	0	0	0	0	0	0	0	0	0	0	0	0	0	0	0	0	0	0	0	0	0
4144	41.44	0	0	0	0	0	0	0	0	0	0	0	0	0	0	0	0	0	0	0	0	0	0	0	0	0	0	0	0	0	0	1	0	0	17.883	2.027	16.961	0	0	0	0	0	0	10.996	-10.996	19.046	0	0	0	0	-1	0	-2.0278	-17.891	16.968	0	0	0	0	0	0	0	0	0	2
4145	41.45	0	0	0	0	0	0	0	0	0	0	0	0	0	0	0	0	0	0	0	0	0	0	0	0	10.989	-10.989	19.033	0	0	0	0	0	0	0	0	0	0	0	0	0	0	0	0	0	0	0	0	0	0	-1	0	-2.0278	-17.891	16.968	0	0	0	1	0	0	17.47	2.0148	16.554	2
4146	41.46	0	0	0	0	0	0	0	0	0	0	0	0	0	0	0	0	0	0	0	0	0	0	0	0	0	0	0	0	0	0	1	0	0	17.883	2.027	16.961	0	0	0	0	0	0	0	0	0	0	0	0	0	-1	0	-2.0278	-17.891	16.968	0	0	0	1	0	0	30.423	8.5595	27.174	2
4147	41.47	0	0	0	0	0	0	10.917	-10.917	18.908	0	0	0	0	0	0	0	0	0	0	0	0	0	0	0	0	0	0	0	0	0	0	0	0	0	0	0	0	0	0	0	0	0	0	0	0	0	0	0	0	-1	0	-2.0278	-17.891	16.968	0	0	0	0	0	0	0	0	0	2
4148	41.48	0	0	0	0	0	0	0	0	0	0	0	0	0	0	0	0	0	0	0	0	0	0	0	0	0	0	0	0	0	0	0	0	0	0	0	0	0	0	0	0	0	0	0	0	0	0	0	0	0	-1	0	-2.0278	-17.891	16.968	0	0	0	0	0	0	0	0	0	2
4149	41.49	0	0	0	0	0	0	10.917	-10.917	18.908	0	0	0	0	-1	0	-2.0366	-17.816	16.89	0	0	0	0	0	0	10.989	-10.989	19.033	0	0	0	0	0	0	0	0	0	0	0	0	0	0	0	0	0	0	0	0	0	0	-1	0	-2.0278	-17.891	16.968	0	0	0	1	0	0	17.47	2.0148	16.554	2
4150	41.5	0	0	0	0	0	0	0	0	0	0	0	0	0	0	0	0	0	0	0	0	0	0	0	0	0	0	0	0	0	0	0	0	0	0	0	0	0	0	0	0	0	0	0	0	0	0	0	0	0	0	0	0	0	0	0	0	0	0	0	0	0	0	0	0
4151	41.51	0	0	0	0	0	0	10.917	-10.917	18.908	0	0	0	0	0	0	0	0	0	0	0	0	0	0	0	10.989	-10.989	19.033	0	0	0	0	0	0	0	0	0	0	0	0	0	0	0	0	0	0	0	0	0	0	-1	0	-2.0278	-17.891	16.968	0	0	0	0	0	0	0	0	0	2
4152	41.52	0	0	0	0	0	0	10.917	-10.917	18.908	0	0	0	0	-1	0	-2.0366	-17.816	16.89	0	0	0	0	0	0	10.989	-10.989	19.033	0	0	0	0	0	0	0	0	0	0	0	0	0	0	0	10.996	-10.996	19.046	0	0	0	0	0	0	0	0	0	0	0	0	0	0	0	0	0	0	2
4153	41.53	0	0	0	0	0	0	0	0	0	0	0	0	0	0	0	0	0	0	0	0	0	0	0	0	0	0	0	0	0	0	0	0	0	10.991	-10.991	19.037	0	0	0	0	0	0	0	0	0	0	0	0	0	-1	0	-2.0278	-17.891	16.968	0	0	0	0	0	0	0	0	0	0
4154	41.54	0	0	0	0	0	0	0	0	0	0	0	0	0	0	0	0	0	0	0	0	0	0	0	0	10.989	-10.989	19.033	0	0	0	0	-1	0	-2.0265	-17.879	16.957	0	0	0	0	0	0	10.996	-10.996	19.046	0	0	0	0	-1	0	-2.0278	-17.891	16.968	0	0	0	0	0	0	0	0	0	2
4155	41.55	0	0	0	0	0	0	0	0	0	0	0	0	0	0	0	0	0	0	0	0	0	0	0	0	0	0	0	0	0	0	0	0	0	0	0	0	0	0	0	0	0	0	0	0	0	0	0	0	0	0	0	0	0	0	0	0	0	1	0	0	17.47	2.0148	16.554	2
4156	41.56	0	0	0	0	0	0	0	0	0	0	0	0	0	0	0	0	0	0	0	0	0	0	0	0	0	0	0	0	0	0	1	0	0	17.883	2.027	16.961	0	0	0	0	0	0	0	0	0	0	0	0	0	-1	0	-2.0278	-17.891	16.968	0	0	0	1	0	0	17.47	2.0148	16.554	2
4157	41.57	0	0	0	0	0	0	10.917	-10.917	18.908	0	0	0	0	0	0	0	0	0	0	0	0	0	-1	0	-2.0266	-17.88	16.957	0	0	0	0	0	0	0	0	0	0	0	0	0	0	0	0	0	0	0	0	0	0	-1	0	-2.0278	-17.891	16.968	0	0	0	0	0	0	0	0	0	2
4158	41.58	0	0	0	0	0	0	0	0	0	0	0	0	0	0	0	0	0	0	0	0	0	0	0	0	0	0	0	0	0	0	0	0	0	0	0	0	0	0	0	0	0	0	0	0	0	0	0	0	0	-1	0	-2.0278	-17.891	16.968	0	0	0	0	0	0	0	0	0	2
4159	41.59	0	0	0	0	0	0	0	0	0	0	0	0	0	0	0	0	0	0	0	0	0	0	0	0	0	0	0	0	0	0	0	0	0	0	0	0	0	0	0	0	0	0	0	0	0	0	0	0	0	-1	0	-2.0278	-17.891	16.968	0	0	0	0	0	0	0	0	0	2
4160	41.6	0	0	0	0	0	0	0	0	0	0	0	0	0	0	0	0	0	0	0	0	0	0	0	0	0	0	0	0	0	0	0	0	0	0	0	0	0	0	0	0	0	0	0	0	0	0	0	0	0	0	0	0	0	0	0	0	0	0	0	0	0	0	0	2
4161	41.61	0	0	0	0	0	0	10.917	-10.917	18.908	0	0	0	0	0	0	0	0	0	0	0	0	0	0	0	10.989	-10.989	19.033	0	0	0	1	0	0	17.883	2.027	16.961	0	0	0	0	0	0	0	0	0	0	0	0	0	-1	0	-2.0278	-17.891	16.968	0	0	0	0	0	0	10.93	-10.93	18.931	2
4162	41.62	0	0	0	0	0	0	0	0	0	0	0	0	0	0	0	0	0	0	0	0	0	0	0	0	0	0	0	0	0	0	0	0	0	0	0	0	0	0	0	0	0	0	0	0	0	0	0	0	0	-1	0	-2.0278	-17.891	16.968	0	0	0	0	0	0	0	0	0	2
4163	41.63	0	0	0	0	0	0	0	0	0	0	0	0	0	-1	0	-2.0366	-17.816	16.89	0	0	0	0	0	0	10.989	-10.989	19.033	0	0	0	1	0	0	17.883	2.027	16.961	0	0	0	0	0	0	0	0	0	0	0	0	0	-1	0	-2.0278	-17.891	16.968	0	0	0	0	0	0	10.93	-10.93	18.931	2
4164	41.64	0	0	0	0	0	0	0	0	0	0	0	0	0	0	0	0	0	0	0	0	0	0	0	0	10.989	-10.989	19.033	0	0	0	1	0	0	17.883	2.027	16.961	0	0	0	0	0	0	0	0	0	0	0	0	0	-1	0	-2.0278	-17.891	16.968	0	0	0	0	0	0	0	0	0	2
4165	41.65	0	0	0	0	0	0	0	0	0	0	0	0	0	0	0	0	0	0	0	0	0	0	0	0	0	0	0	0	0	0	0	0	0	0	0	0	0	0	0	0	0	0	0	0	0	0	0	0	0	-1	0	-2.0278	-17.891	16.968	0	0	0	0	0	0	0	0	0	0
4166	41.66	0	0	0	0	0	0	0	0	0	0	0	0	0	0	0	0	0	0	0	0	0	0	0	0	0	0	0	0	0	0	1	0	0	17.883	2.027	16.961	0	0	0	0	0	0	0	0	0	0	0	0	0	-1	0	-2.0278	-17.891	16.968	0	0	0	0	0	0	0	0	0	2
4167	41.67	0	0	0	0	0	0	0	0	0	0	0	0	0	-1	0	-2.0366	-17.816	16.89	0	0	0	0	0	0	0	0	0	0	0	0	0	0	0	0	0	0	0	0	0	0	0	0	0	0	0	0	0	0	0	-1	0	-2.0278	-17.891	16.968	0	0	0	0	0	0	0	0	0	2
4168	41.68	0	0	0	0	0	0	10.917	-10.917	18.908	0	0	0	0	0	0	0	0	0	0	0	0	0	0	0	10.989	-10.989	19.033	0	0	0	1	0	0	17.883	2.027	16.961	0	0	0	0	0	0	0	0	0	0	0	0	0	-1	0	-2.0278	-17.891	16.968	0	0	0	0	0	0	0	0	0	2
4169	41.69	0	0	0	0	0	0	0	0	0	0	0	0	0	0	0	0	0	0	0	0	0	0	0	0	0	0	0	0	0	0	0	0	0	0	0	0	0	0	0	0	0	0	10.996	-10.996	19.046	0	0	0	0	-1	0	-2.0278	-17.891	16.968	0	0	0	1	0	0	17.47	2.0148	16.554	2
4170	41.7	0	0	0	0	0	0	0	0	0	0	0	0	0	0	0	0	0	0	0	0	0	0	0	0	0	0	0	0	0	0	1	0	0	17.883	2.027	16.961	0	0	0	0	0	0	0	0	0	0	0	0	0	-1	0	-2.0278	-17.891	16.968	0	0	0	0	0	0	0	0	0	0
4171	41.71	0	0	0	0	0	0	10.917	-10.917	18.908	0	0	0	0	0	0	0	0	0	0	0	0	0	0	0	10.989	-10.989	19.033	0	0	0	1	0	0	17.883	2.027	16.961	0	0	0	0	0	0	0	0	0	0	0	0	0	-1	0	-2.0278	-17.891	16.968	0	0	0	0	0	0	0	0	0	2
4172	41.72	0	0	0	0	0	0	0	0	0	0	0	0	0	0	0	0	0	0	0	0	0	0	0	0	0	0	0	0	0	0	0	-1	0	-2.0265	-17.879	16.957	0	0	0	0	0	0	0	0	0	0	0	0	0	-1	0	-2.0278	-17.891	16.968	0	0	0	0	0	0	0	0	0	2
4173	41.73	0	0	0	0	0	0	0	0	0	0	0	0	0	-1	0	-2.0366	-17.816	16.89	0	0	0	0	0	0	0	0	0	0	0	0	0	0	0	0	0	0	0	0	0	0	0	0	0	0	0	0	0	0	0	-1	0	-2.0278	-17.891	16.968	0	0	0	0	0	0	0	0	0	2
4174	41.74	0	0	0	0	0	0	0	0	0	0	0	0	0	0	0	0	0	0	0	0	0	0	0	0	0	0	0	0	0	0	0	0	0	0	0	0	0	0	0	0	0	0	0	0	0	0	0	0	0	-1	0	-2.0278	-17.891	16.968	0	0	0	0	0	0	10.93	-10.93	18.931	2
4175	41.75	0	0	0	0	0	0	0	0	0	0	0	0	0	0	0	0	0	0	0	0	0	0	0	0	10.989	-10.989	19.033	0	0	0	0	0	0	0	0	0	0	0	0	0	0	0	0	0	0	0	0	0	0	-1	0	-2.0278	-17.891	16.968	0	0	0	1	0	0	17.47	2.0148	16.554	2
4176	41.76	0	0	0	0	0	0	0	0	0	0	0	0	0	0	0	0	0	0	0	0	0	0	0	0	0	0	0	0	0	0	1	0	0	17.761	2.1499	16.789	0	0	0	0	0	0	0	0	0	0	0	0	0	-1	0	-2.0278	-17.891	16.968	0	0	0	0	0	0	0	0	0	2
4177	41.77	0	0	0	0	0	0	0	0	0	0	0	0	0	0	0	0	0	0	0	0	0	0	0	0	0	0	0	0	0	0	0	0	0	0	0	0	0	0	0	0	-1	0	-2.0279	-17.891	16.969	0	0	0	0	-1	0	-2.0278	-17.891	16.968	0	0	0	0	0	0	0	0	0	2
4178	41.78	0	0	0	0	0	0	0	0	0	0	0	0	0	0	0	0	0	0	0	0	0	0	0	0	0	0	0	0	0	0	1	0	0	17.883	2.027	16.961	0	0	0	0	0	0	10.996	-10.996	19.046	0	0	0	0	-1	0	-2.0278	-17.891	16.968	0	0	0	0	0	0	0	0	0	0
4179	41.79	0	0	0	0	0	0	0	0	0	0	0	0	0	0	0	0	0	0	0	0	0	0	0	0	10.989	-10.989	19.033	0	0	0	0	0	0	0	0	0	0	0	0	0	0	0	0	0	0	0	0	0	0	-1	0	-2.0278	-17.891	16.968	0	0	0	0	0	0	0	0	0	0
4180	41.8	0	0	0	0	0	0	0	0	0	0	0	0	0	0	0	0	0	0	0	0	0	0	0	0	0	0	0	0	0	0	1	0	0	17.883	2.027	16.961	0	0	0	0	0	0	0	0	0	0	0	0	0	-1	0	-2.0278	-17.891	16.968	0	0	0	0	0	0	0	0	0	2
4181	41.81	0	0	0	0	0	0	0	0	0	0	0	0	0	0	0	0	0	0	0	0	0	0	0	0	0	0	0	0	0	0	1	0	0	17.761	2.1499	16.789	0	0	0	0	-1	0	-2.0279	-17.891	16.969	0	0	0	0	-1	0	-2.0278	-17.891	16.968	0	0	0	0	0	0	0	0	0	2
4182	41.82	0	0	0	0	0	0	0	0	0	0	0	0	0	0	0	0	0	0	0	0	0	0	0	0	0	0	0	0	0	0	0	0	0	0	0	0	0	0	0	0	0	0	0	0	0	0	0	0	0	-1	0	-2.0278	-17.891	16.968	0	0	0	0	0	0	0	0	0	2
4183	41.83	0	0	0	0	0	0	0	0	0	0	0	0	0	0	0	0	0	0	0	0	0	0	0	0	0	0	0	0	0	0	1	0	0	17.883	2.027	16.961	0	0	0	0	0	0	0	0	0	0	0	0	0	-1	0	-2.0278	-17.891	16.968	0	0	0	0	0	0	0	0	0	2
4184	41.84	0	0	0	0	0	0	0	0	0	0	0	0	0	0	0	0	0	0	0	0	0	0	0	0	0	0	0	0	0	0	0	0	0	0	0	0	0	0	0	0	0	0	0	0	0	0	0	0	0	-1	0	-2.0278	-17.891	16.968	0	0	0	0	0	0	0	0	0	2
4185	41.85	0	0	0	0	0	0	0	0	0	0	0	0	0	0	0	0	0	0	0	0	0	0	0	0	0	0	0	0	0	0	1	0	0	17.883	2.027	16.961	0	0	0	0	0	0	10.996	-10.996	19.046	0	0	0	0	0	0	0	0	0	0	0	0	0	0	0	0	0	0	2
4186	41.86	0	0	0	0	0	0	0	0	0	0	0	0	0	0	0	0	0	0	0	0	0	0	0	0	10.989	-10.989	19.033	0	0	0	0	0	0	10.991	-10.991	19.037	0	0	0	0	0	0	0	0	0	0	0	0	0	-1	0	-2.0278	-17.891	16.968	0	0	0	0	0	0	10.93	-10.93	18.931	2
4187	41.87	0	0	0	0	0	0	0	0	0	0	0	0	0	0	0	0	0	0	0	0	0	0	0	0	10.989	-10.989	19.033	0	0	0	0	0	0	0	0	0	0	0	0	0	0	0	10.996	-10.996	19.046	0	0	0	0	-1	0	-2.0278	-17.891	16.968	0	0	0	0	0	0	0	0	0	2
4188	41.88	0	0	0	0	0	0	0	0	0	0	0	0	0	0	0	0	0	0	0	0	0	0	0	0	0	0	0	0	0	0	0	0	0	0	0	0	0	0	0	0	0	0	0	0	0	0	0	0	0	0	0	0	0	0	0	0	0	0	0	0	0	0	0	2
4189	41.89	0	0	0	0	0	0	0	0	0	0	0	0	0	0	0	0	0	0	0	0	0	0	0	0	0	0	0	0	0	0	0	0	0	0	0	0	0	0	0	0	0	0	0	0	0	0	0	0	0	0	0	0	0	0	0	0	0	1	0	0	17.47	2.0148	16.554	2
4190	41.9	0	0	0	0	0	0	0	0	0	0	0	0	0	0	0	0	0	0	0	0	0	0	0	0	10.989	-10.989	19.033	0	0	0	0	0	0	0	0	0	0	0	0	0	0	0	0	0	0	0	0	0	0	-1	0	-2.0278	-17.891	16.968	0	0	0	0	0	0	0	0	0	2
4191	41.91	0	0	0	0	0	0	0	0	0	0	0	0	0	0	0	0	0	0	0	0	0	0	0	0	0	0	0	0	0	0	1	0	0	17.761	2.1499	16.789	0	0	0	0	0	0	0	0	0	0	0	0	0	0	0	0	0	0	0	0	0	0	0	0	0	0	0	2
4192	41.92	0	0	0	0	0	0	0	0	0	0	0	0	0	0	0	0	0	0	0	0	0	0	0	0	0	0	0	0	0	0	0	0	0	0	0	0	0	0	0	0	0	0	10.996	-10.996	19.046	0	0	0	0	-1	0	-2.0278	-17.891	16.968	0	0	0	0	0	0	0	0	0	2
4193	41.93	0	0	0	0	0	0	0	0	0	0	0	0	0	0	0	0	0	0	0	0	0	0	0	0	0	0	0	0	0	0	1	0	0	17.883	2.027	16.961	0	0	0	0	0	0	0	0	0	0	0	0	0	-1	0	-2.0278	-17.891	16.968	0	0	0	0	0	0	0	0	0	0
4194	41.94	0	0	0	0	0	0	0	0	0	0	0	0	0	0	0	0	0	0	0	0	0	0	0	0	0	0	0	0	0	0	0	0	0	0	0	0	0	0	0	0	0	0	10.996	-10.996	19.046	0	0	0	0	-1	0	-2.0278	-17.891	16.968	0	0	0	0	0	0	0	0	0	0
4195	41.95	0	0	0	0	0	0	0	0	0	0	0	0	0	-1	0	-2.0366	-17.816	16.89	0	0	0	0	0	0	10.989	-10.989	19.033	0	0	0	0	0	0	0	0	0	0	0	0	0	-1	0	-2.0279	-17.891	16.969	0	0	0	0	0	0	0	0	0	0	0	0	0	0	0	0	0	0	2
4196	41.96	0	0	0	0	0	0	0	0	0	0	0	0	0	0	0	0	0	0	0	0	0	0	0	0	0	0	0	0	0	0	1	0	0	17.883	2.027	16.961	0	0	0	0	0	0	0	0	0	0	0	0	0	-1	0	-2.0278	-17.891	16.968	0	0	0	0	0	0	0	0	0	2
4197	41.97	0	0	0	0	0	0	0	0	0	0	0	0	0	0	0	0	0	0	0	0	0	0	0	0	0	0	0	0	0	0	0	0	0	0	0	0	0	0	0	0	0	0	0	0	0	0	0	0	0	-1	0	-2.0278	-17.891	16.968	0	0	0	0	0	0	0	0	0	2
4198	41.98	0	0	0	0	0	0	0	0	0	0	0	0	0	-1	0	-2.0366	-17.816	16.89	0	0	0	0	0	0	0	0	0	0	0	0	1	0	0	17.883	2.027	16.961	0	0	0	0	0	0	10.996	-10.996	19.046	0	0	0	0	-1	0	-2.0278	-17.891	16.968	0	0	0	1	0	0	17.471	2.0135	16.556	2
4199	41.99	0	0	0	0	0	0	0	0	0	0	0	0	0	0	0	0	0	0	0	0	0	0	0	0	0	0	0	0	0	0	0	0	0	0	0	0	0	0	0	0	0	0	10.996	-10.996	19.046	0	0	0	0	-1	0	-2.0278	-17.891	16.968	0	0	0	0	0	0	0	0	0	0
4200	42	0	0	0	0	0	0	10.917	-10.917	18.908	0	0	0	0	0	0	0	0	0	0	0	0	0	0	0	0	0	0	0	0	0	1	0	0	17.883	2.027	16.961	0	0	0	1	-1	0	27.464	-7.5536	31.918	0	0	0	0	-1	0	-2.0278	-17.891	16.968	0	0	0	0	0	0	0	0	0	2
4201	42.01	0	0	0	0	0	0	0	0	0	0	0	0	0	0	0	0	0	0	0	0	0	0	0	0	0	0	0	0	0	0	1	0	0	17.883	2.027	16.961	0	0	0	0	0	0	0	0	0	0	0	0	0	0	0	0	0	0	0	0	0	1	0	0	17.47	2.0148	16.554	2
4202	42.02	0	0	0	0	0	0	0	0	0	0	0	0	0	0	0	0	0	0	0	0	0	0	0	0	0	0	0	0	0	0	1	0	0	17.883	2.027	16.961	0	0	0	0	0	0	0	0	0	0	0	0	0	-1	0	-2.0278	-17.891	16.968	0	0	0	0	0	0	0	0	0	2
4203	42.03	0	0	0	0	0	0	0	0	0	0	0	0	0	0	0	0	0	0	0	0	0	0	0	0	10.989	-10.989	19.033	0	0	0	0	0	0	0	0	0	0	0	0	0	0	0	0	0	0	0	0	0	0	0	0	0	0	0	0	0	0	0	0	0	0	0	0	2
4204	42.04	0	0	0	0	0	0	0	0	0	0	0	0	0	0	0	0	0	0	0	0	0	0	0	0	0	0	0	0	0	0	0	0	0	0	0	0	0	0	0	0	0	0	0	0	0	0	0	0	0	-1	0	-2.0278	-17.891	16.968	0	0	0	0	0	0	0	0	0	0
4205	42.05	0	0	0	0	0	0	0	0	0	0	0	0	0	0	0	0	0	0	0	0	0	0	0	0	10.989	-10.989	19.033	0	0	0	0	0	0	0	0	0	0	0	0	0	0	0	0	0	0	0	0	0	0	0	0	0	0	0	0	0	0	0	0	0	0	0	0	2
4206	42.06	0	0	0	0	0	0	10.917	-10.917	18.908	0	0	0	0	0	0	0	0	0	0	0	0	0	0	0	0	0	0	0	0	0	1	0	0	17.883	2.027	16.961	0	0	0	0	0	0	0	0	0	0	0	0	0	-1	0	-2.0278	-17.891	16.968	0	0	0	0	0	0	0	0	0	2
4207	42.07	0	0	0	0	0	0	0	0	0	0	0	0	0	0	0	0	0	0	0	0	0	0	0	0	10.989	-10.989	19.033	0	0	0	1	0	0	17.883	2.027	16.961	0	0	0	0	0	0	10.996	-10.996	19.046	0	0	0	0	-1	0	-2.0278	-17.891	16.968	0	0	0	0	0	0	0	0	0	2
4208	42.08	0	0	0	0	0	0	0	0	0	0	0	0	0	-1	0	-2.0366	-17.816	16.89	0	0	0	0	0	0	0	0	0	0	0	0	0	0	0	0	0	0	0	0	0	0	0	0	0	0	0	0	0	0	0	0	0	0	0	0	0	0	0	1	0	0	17.478	2.0203	16.56	2
4209	42.09	0	0	0	0	0	0	0	0	0	0	0	0	0	0	0	0	0	0	0	0	0	0	0	0	0	0	0	0	0	0	0	0	0	0	0	0	0	0	0	0	0	0	10.996	-10.996	19.046	0	0	0	0	-1	0	-2.0278	-17.891	16.968	0	0	0	0	0	0	10.93	-10.93	18.931	2
4210	42.1	0	0	0	0	0	0	0	0	0	0	0	0	0	0	0	0	0	0	0	0	0	0	0	0	0	0	0	0	0	0	0	0	0	0	0	0	0	0	0	0	0	0	0	0	0	0	0	0	0	-1	0	-2.0278	-17.891	16.968	0	0	0	0	0	0	0	0	0	2
4211	42.11	0	0	0	0	0	0	0	0	0	0	0	0	0	0	0	0	0	0	0	0	0	0	0	0	0	0	0	0	0	0	0	0	0	0	0	0	0	0	0	0	0	0	0	0	0	0	0	0	0	-1	0	-2.0278	-17.891	16.968	0	0	0	0	0	0	0	0	0	2
4212	42.12	0	0	0	0	0	0	0	0	0	0	0	0	0	0	0	0	0	0	0	0	0	0	0	0	0	0	0	0	0	0	0	0	0	0	0	0	0	0	0	0	0	0	10.996	-10.996	19.046	0	0	0	0	-1	0	-2.0278	-17.891	16.968	0	0	0	0	0	0	0	0	0	2
4213	42.13	0	0	0	0	0	0	0	0	0	0	0	0	0	0	0	0	0	0	0	0	0	0	0	0	10.989	-10.989	19.033	0	0	0	0	0	0	0	0	0	0	0	0	0	0	0	0	0	0	0	0	0	0	-1	0	-2.0278	-17.891	16.968	0	0	0	0	0	0	0	0	0	2
4214	42.14	0	0	0	0	0	0	0	0	0	0	0	0	0	0	0	0	0	0	0	0	0	0	0	0	0	0	0	0	0	0	0	0	0	0	0	0	0	0	0	0	0	0	0	0	0	0	0	0	0	-1	0	-2.0278	-17.891	16.968	0	0	0	0	0	0	0	0	0	0
4215	42.15	0	0	0	0	0	0	0	0	0	0	0	0	0	0	0	0	0	0	0	0	0	0	0	0	0	0	0	0	0	0	0	0	0	0	0	0	0	0	0	0	0	0	0	0	0	0	0	0	0	-1	0	-2.0278	-17.891	16.968	0	0	0	0	0	0	0	0	0	2
4216	42.16	0	0	0	0	0	0	0	0	0	0	0	0	0	0	0	0	0	0	0	0	0	0	0	0	10.989	-10.989	19.033	0	0	0	0	0	0	10.991	-10.991	19.037	0	0	0	0	0	0	0	0	0	0	0	0	0	0	0	0	0	0	0	0	0	0	0	0	0	0	0	2
4217	42.17	0	0	0	0	0	0	0	0	0	0	0	0	0	0	0	0	0	0	0	0	0	0	0	0	0	0	0	0	0	0	0	0	0	0	0	0	0	0	0	0	0	0	0	0	0	0	0	0	1	-1	0	7.5503	-27.469	31.921	0	0	0	0	0	0	0	0	0	2
4218	42.18	0	0	0	0	0	0	0	0	0	0	0	0	0	0	0	0	0	0	0	0	0	0	0	0	0	0	0	0	0	0	0	0	0	0	0	0	0	0	0	0	0	0	0	0	0	0	0	0	0	-1	0	-2.0278	-17.891	16.968	0	0	0	0	0	0	10.93	-10.93	18.931	2
4219	42.19	0	0	0	0	0	0	0	0	0	0	0	0	0	0	0	0	0	0	0	0	0	0	0	0	0	0	0	0	0	0	1	0	0	17.883	2.027	16.961	0	0	0	0	0	0	0	0	0	0	0	0	0	-1	0	-2.0278	-17.891	16.968	0	0	0	0	0	0	0	0	0	2
4220	42.2	0	0	0	0	0	0	0	0	0	0	0	0	0	0	0	0	0	0	0	0	0	0	0	0	0	0	0	0	0	0	0	0	0	0	0	0	0	0	0	0	0	0	0	0	0	0	0	0	0	-1	0	-2.0278	-17.891	16.968	0	0	0	0	0	0	0	0	0	2
4221	42.21	0	0	0	0	0	0	0	0	0	0	0	0	0	0	0	0	0	0	0	0	0	0	0	0	10.989	-10.989	19.033	0	0	0	0	0	0	0	0	0	0	0	0	0	0	0	0	0	0	0	0	0	0	-1	0	-2.0278	-17.891	16.968	0	0	0	0	0	0	0	0	0	2
4222	42.22	0	0	0	0	0	0	10.917	-10.917	18.908	0	0	0	0	-1	0	-2.0366	-17.816	16.89	0	0	0	0	0	0	0	0	0	0	0	0	0	0	0	0	0	0	0	0	0	0	0	0	0	0	0	0	0	0	1	-1	0	7.5503	-27.469	31.921	0	0	0	0	0	0	0	0	0	2
4223	42.23	0	0	0	0	0	0	0	0	0	0	0	0	0	0	0	0	0	0	0	0	0	0	0	0	0	0	0	0	0	0	0	0	0	0	0	0	0	0	0	0	0	0	0	0	0	0	0	0	0	-1	0	-2.0278	-17.891	16.968	0	0	0	0	0	0	0	0	0	2
4224	42.24	0	0	0	0	0	0	0	0	0	0	0	0	0	0	0	0	0	0	0	0	0	0	0	0	0	0	0	0	0	0	0	0	0	0	0	0	0	0	0	0	0	0	0	0	0	0	0	0	0	-1	0	-2.0278	-17.891	16.968	0	0	0	0	0	0	0	0	0	2
4225	42.25	0	0	0	0	0	0	0	0	0	0	0	0	0	0	0	0	0	0	0	0	0	0	0	0	10.989	-10.989	19.033	0	0	0	0	0	0	0	0	0	0	0	0	0	0	0	0	0	0	0	0	0	0	-1	0	-2.0278	-17.891	16.968	0	0	0	0	0	0	0	0	0	2
4226	42.26	0	0	0	0	0	0	10.917	-10.917	18.908	0	0	0	0	0	0	0	0	0	0	0	0	0	0	0	0	0	0	0	0	0	1	0	0	17.883	2.027	16.961	0	0	0	0	0	0	0	0	0	0	0	0	0	-1	0	-2.0278	-17.891	16.968	0	0	0	0	0	0	0	0	0	2
4227	42.27	0	0	0	0	0	0	0	0	0	0	0	0	0	0	0	0	0	0	0	0	0	0	0	0	10.989	-10.989	19.033	0	0	0	0	0	0	0	0	0	0	0	0	0	0	0	0	0	0	0	0	0	0	-1	0	-2.0278	-17.891	16.968	0	0	0	0	0	0	0	0	0	2
4228	42.28	0	0	0	0	0	0	10.917	-10.917	18.908	0	0	0	0	0	0	0	0	0	0	0	0	0	0	0	0	0	0	0	0	0	0	0	0	0	0	0	0	0	0	0	0	0	0	0	0	0	0	0	0	0	0	0	0	0	0	0	0	1	0	0	17.47	2.0148	16.554	2
4229	42.29	0	0	0	0	0	0	0	0	0	0	0	0	0	0	0	0	0	0	0	0	0	0	0	0	10.989	-10.989	19.033	0	0	0	0	0	0	0	0	0	0	0	0	0	0	0	0	0	0	0	0	0	0	-1	0	-2.0278	-17.891	16.968	0	0	0	0	0	0	0	0	0	2
4230	42.3	0	0	0	0	0	0	0	0	0	0	0	0	0	-1	0	-2.0366	-17.816	16.89	0	0	0	0	0	0	0	0	0	0	0	0	0	0	0	0	0	0	0	0	0	0	0	0	10.996	-10.996	19.046	0	0	0	0	-1	0	-2.0278	-17.891	16.968	0	0	0	0	0	0	0	0	0	2
4231	42.31	0	0	0	0	0	0	0	0	0	0	0	0	0	0	0	0	0	0	0	0	0	0	0	0	10.989	-10.989	19.033	0	0	0	0	0	0	10.991	-10.991	19.037	0	0	0	0	0	0	0	0	0	0	0	0	0	-1	0	-2.0278	-17.891	16.968	0	0	0	0	0	0	0	0	0	2
4232	42.32	0	0	0	0	0	0	0	0	0	0	0	0	0	0	0	0	0	0	0	0	0	0	0	0	10.989	-10.989	19.033	0	0	0	0	0	0	0	0	0	0	0	0	0	0	0	0	0	0	0	0	0	0	-1	0	-2.0278	-17.891	16.968	0	0	0	0	0	0	0	0	0	2
4233	42.33	0	0	0	0	0	0	10.917	-10.917	18.908	0	0	0	0	0	0	0	0	0	0	0	0	0	0	0	0	0	0	0	0	0	0	0	0	0	0	0	0	0	0	0	0	0	0	0	0	0	0	0	0	-1	0	-2.0278	-17.891	16.968	0	0	0	0	0	0	0	0	0	2
4234	42.34	0	0	0	0	0	0	0	0	0	0	0	0	0	0	0	0	0	0	0	0	0	0	0	0	10.989	-10.989	19.033	0	0	0	0	0	0	0	0	0	0	0	0	0	0	0	0	0	0	0	0	0	0	-1	0	-2.0278	-17.891	16.968	0	0	0	0	0	0	0	0	0	2
4235	42.35	0	0	0	0	0	0	10.917	-10.917	18.908	0	0	0	0	0	0	0	0	0	0	0	0	0	0	0	0	0	0	0	0	0	0	0	0	0	0	0	0	0	0	0	0	0	0	0	0	0	0	0	0	-1	0	-2.0278	-17.891	16.968	0	0	0	0	0	0	0	0	0	2
4236	42.36	0	0	0	0	0	0	0	0	0	0	0	0	0	0	0	0	0	0	0	0	0	0	0	0	10.989	-10.989	19.033	0	0	0	1	0	0	17.761	2.1499	16.789	0	0	0	0	0	0	0	0	0	0	0	0	0	-1	0	-2.0278	-17.891	16.968	0	0	0	0	0	0	0	0	0	2
4237	42.37	0	0	0	0	0	0	0	0	0	0	0	0	0	0	0	0	0	0	0	0	0	0	0	0	0	0	0	0	0	0	0	0	0	10.991	-10.991	19.037	0	0	0	0	0	0	0	0	0	0	0	0	0	-1	0	-2.0278	-17.891	16.968	0	0	0	0	0	0	0	0	0	2
4238	42.38	0	0	0	0	0	0	0	0	0	0	0	0	0	0	0	0	0	0	0	0	0	0	0	0	0	0	0	0	0	0	0	0	0	10.991	-10.991	19.037	0	0	0	0	0	0	0	0	0	0	0	0	0	-1	0	-2.0278	-17.891	16.968	0	0	0	1	0	0	17.47	2.0148	16.554	2
4239	42.39	0	0	0	0	0	0	0	0	0	0	0	0	0	-1	0	-2.0366	-17.816	16.89	0	0	0	0	0	0	0	0	0	0	0	0	0	0	0	0	0	0	0	0	0	0	0	0	0	0	0	0	0	0	0	-1	0	-2.0278	-17.891	16.968	0	0	0	0	0	0	0	0	0	2
4240	42.4	0	0	0	0	0	0	0	0	0	0	0	0	0	0	0	0	0	0	0	0	0	0	0	0	0	0	0	0	0	0	0	0	0	0	0	0	0	0	0	0	0	0	0	0	0	0	0	0	0	-1	0	-2.0278	-17.891	16.968	0	0	0	0	0	0	0	0	0	2
4241	42.41	0	0	0	0	0	0	0	0	0	0	0	0	0	0	0	0	0	0	0	0	0	0	0	0	0	0	0	0	0	0	1	0	0	17.883	2.027	16.961	0	0	0	0	0	0	0	0	0	0	0	0	0	0	0	0	0	0	0	0	0	1	0	0	17.471	2.0135	16.556	2
4242	42.42	0	0	0	0	0	0	0	0	0	0	0	0	0	0	0	0	0	0	0	0	0	0	0	0	0	0	0	0	0	0	0	0	0	10.991	-10.991	19.037	0	0	0	0	0	0	0	0	0	0	0	0	0	-1	0	-2.0278	-17.891	16.968	0	0	0	0	0	0	0	0	0	2
4243	42.43	0	0	0	0	0	0	0	0	0	0	0	0	0	-1	0	-2.0366	-17.816	16.89	0	0	0	0	0	0	0	0	0	0	0	0	0	0	0	0	0	0	0	0	0	0	0	0	0	0	0	0	0	0	0	-1	0	-2.0278	-17.891	16.968	0	0	0	0	0	0	0	0	0	2
4244	42.44	0	0	0	0	0	0	0	0	0	0	0	0	0	0	0	0	0	0	0	0	0	0	0	0	0	0	0	0	0	0	0	0	0	0	0	0	0	0	0	0	0	0	0	0	0	0	0	0	0	-1	0	-2.0278	-17.891	16.968	0	0	0	0	0	0	0	0	0	2
4245	42.45	0	0	0	0	0	0	0	0	0	0	0	0	0	0	0	0	0	0	0	0	0	0	0	0	10.989	-10.989	19.033	0	0	0	0	0	0	0	0	0	0	0	0	0	0	0	0	0	0	0	0	0	0	-1	0	-2.0278	-17.891	16.968	0	0	0	0	0	0	0	0	0	2
4246	42.46	0	0	0	0	0	0	0	0	0	0	0	0	0	0	0	0	0	0	0	0	0	0	0	0	0	0	0	0	0	0	1	0	0	17.883	2.027	16.961	0	0	0	0	0	0	0	0	0	0	0	0	0	0	0	0	0	0	0	0	0	0	0	0	0	0	0	2
4247	42.47	0	0	0	0	0	0	0	0	0	0	0	0	0	0	0	0	0	0	0	0	0	0	0	0	0	0	0	0	0	0	0	0	0	0	0	0	0	0	0	0	0	0	0	0	0	0	0	0	0	-1	0	-2.0278	-17.891	16.968	0	0	0	0	0	0	10.93	-10.93	18.931	2
4248	42.48	0	0	0	0	0	0	0	0	0	0	0	0	0	0	0	0	0	0	0	0	0	0	0	0	10.989	-10.989	19.033	0	0	0	1	0	0	17.761	2.1499	16.789	0	0	0	0	0	0	0	0	0	0	0	0	0	-1	0	-2.0278	-17.891	16.968	0	0	0	0	0	0	0	0	0	2
4249	42.49	0	0	0	0	0	0	10.917	-10.917	18.908	0	0	0	0	0	0	0	0	0	0	0	0	0	0	0	0	0	0	0	0	0	0	0	0	0	0	0	0	0	0	0	0	0	0	0	0	0	0	0	0	0	0	0	0	0	0	0	0	0	0	0	0	0	0	2
4250	42.5	0	0	0	0	0	0	0	0	0	0	0	0	0	0	0	0	0	0	0	0	0	0	0	0	0	0	0	0	0	0	0	0	0	0	0	0	0	0	0	0	0	0	0	0	0	0	0	0	0	-1	0	-2.0278	-17.891	16.968	0	0	0	0	0	0	0	0	0	2
4251	42.51	0	0	0	0	0	0	0	0	0	0	0	0	0	0	0	0	0	0	0	0	0	0	0	0	10.989	-10.989	19.033	0	0	0	1	0	0	17.883	2.027	16.961	0	0	0	0	0	0	0	0	0	0	0	0	0	-1	0	-2.0278	-17.891	16.968	0	0	0	0	0	0	0	0	0	2
4252	42.52	0	0	0	0	0	0	0	0	0	0	0	0	0	0	0	0	0	0	0	0	0	0	0	0	0	0	0	0	0	0	0	0	0	0	0	0	0	0	0	0	0	0	0	0	0	0	0	0	0	0	0	0	0	0	0	0	0	0	0	0	0	0	0	2
4253	42.53	0	0	0	0	0	0	10.917	-10.917	18.908	0	0	0	0	0	0	0	0	0	0	0	0	0	0	0	0	0	0	0	0	0	1	0	0	17.761	2.1499	16.789	0	0	0	0	0	0	0	0	0	0	0	0	0	-1	0	-2.0278	-17.891	16.968	0	0	0	0	0	0	0	0	0	2
4254	42.54	0	0	0	0	0	0	0	0	0	0	0	0	0	0	0	0	0	0	0	0	0	0	0	0	0	0	0	0	0	0	1	0	0	17.883	2.027	16.961	0	0	0	0	0	0	0	0	0	0	0	0	0	-1	0	-2.0278	-17.891	16.968	0	0	0	0	0	0	0	0	0	2
4255	42.55	0	0	0	0	0	0	0	0	0	0	0	0	0	0	0	0	0	0	0	0	0	0	0	0	0	0	0	0	0	0	0	0	0	0	0	0	0	0	0	0	0	0	0	0	0	0	0	0	0	-1	0	-2.0278	-17.891	16.968	0	0	0	0	0	0	0	0	0	2
4256	42.56	0	0	0	0	0	0	0	0	0	0	0	0	0	0	0	0	0	0	0	0	0	0	0	0	0	0	0	0	0	0	1	0	0	17.883	2.027	16.961	0	0	0	0	0	0	0	0	0	0	0	0	0	-1	0	-2.0278	-17.891	16.968	0	0	0	0	0	0	0	0	0	0
4257	42.57	0	0	0	0	0	0	0	0	0	0	0	0	0	0	0	0	0	0	0	0	0	0	0	0	0	0	0	0	0	0	0	0	0	0	0	0	0	0	0	0	0	0	0	0	0	0	0	0	0	-1	0	-2.0278	-17.891	16.968	0	0	0	0	0	0	0	0	0	2
4258	42.58	0	0	0	0	0	0	0	0	0	0	0	0	0	0	0	0	0	0	0	0	0	0	0	0	0	0	0	0	0	0	1	0	0	17.761	2.1499	16.789	0	0	0	0	0	0	0	0	0	0	0	0	0	0	0	0	0	0	0	0	0	0	0	0	0	0	0	2
4259	42.59	0	0	0	0	0	0	0	0	0	0	0	0	0	0	0	0	0	0	0	0	0	0	0	0	0	0	0	0	0	0	0	0	0	0	0	0	0	0	0	0	0	0	0	0	0	0	0	0	0	-1	0	-2.0278	-17.891	16.968	0	0	0	0	0	0	10.93	-10.93	18.931	2
4260	42.6	0	0	0	0	0	0	0	0	0	0	0	0	0	0	0	0	0	0	0	0	0	0	0	0	0	0	0	0	0	0	1	0	0	17.883	2.027	16.961	0	0	0	0	0	0	0	0	0	0	0	0	0	0	0	0	0	0	0	0	0	0	0	0	0	0	0	2
4261	42.61	0	0	0	0	0	0	10.917	-10.917	18.908	0	0	0	0	0	0	0	0	0	0	0	0	0	0	0	10.989	-10.989	19.033	0	0	0	0	0	0	0	0	0	0	0	0	0	0	0	0	0	0	0	0	0	0	-1	0	-2.0278	-17.891	16.968	0	0	0	1	0	0	17.47	2.0148	16.554	2
4262	42.62	0	0	0	0	0	0	0	0	0	0	0	0	0	0	0	0	0	0	0	0	0	0	0	0	0	0	0	0	0	0	0	0	0	0	0	0	0	0	0	0	0	0	0	0	0	0	0	0	0	-1	0	-2.0278	-17.891	16.968	0	0	0	0	0	0	0	0	0	2
4263	42.63	0	0	0	0	0	0	0	0	0	0	0	0	0	0	0	0	0	0	0	0	0	0	0	0	0	0	0	0	0	0	0	0	0	0	0	0	0	0	0	0	0	0	0	0	0	0	0	0	0	-1	0	-2.0278	-17.891	16.968	0	0	0	0	0	0	0	0	0	2
4264	42.64	0	0	0	0	0	0	10.917	-10.917	18.908	0	0	0	0	0	0	0	0	0	0	0	0	0	0	0	10.989	-10.989	19.033	0	0	0	0	0	0	0	0	0	0	0	0	0	0	0	0	0	0	0	0	0	0	-1	0	-2.0278	-17.891	16.968	0	0	0	0	0	0	0	0	0	2
4265	42.65	0	0	0	0	0	0	0	0	0	0	0	0	0	0	0	0	0	0	0	0	0	0	0	0	0	0	0	0	0	0	0	0	0	0	0	0	0	0	0	0	0	0	0	0	0	0	0	0	0	-1	0	-2.0278	-17.891	16.968	0	0	0	0	0	0	0	0	0	2
4266	42.66	0	0	0	0	0	0	0	0	0	0	0	0	0	0	0	0	0	0	0	0	0	0	0	0	0	0	0	0	0	0	1	0	0	17.883	2.027	16.961	0	0	0	0	0	0	0	0	0	0	0	0	0	0	0	0	0	0	0	0	0	0	0	0	0	0	0	2
4267	42.67	0	0	0	0	0	0	0	0	0	0	0	0	0	0	0	0	0	0	0	0	0	0	0	0	0	0	0	0	0	0	0	0	0	0	0	0	0	0	0	0	0	0	0	0	0	0	0	0	0	-1	0	-2.0278	-17.891	16.968	0	0	0	1	0	0	17.471	2.0135	16.556	2
4268	42.68	0	0	0	0	0	0	10.917	-10.917	18.908	0	0	0	0	0	0	0	0	0	0	0	0	0	0	0	0	0	0	0	0	0	0	0	0	0	0	0	0	0	0	0	0	0	0	0	0	0	0	0	0	-1	0	-2.0278	-17.891	16.968	0	0	0	0	0	0	0	0	0	2
4269	42.69	0	0	0	0	0	0	0	0	0	0	0	0	0	-1	0	-2.0366	-17.816	16.89	0	0	0	0	0	0	0	0	0	0	0	0	0	0	0	0	0	0	0	0	0	0	0	0	0	0	0	0	0	0	0	-1	0	-2.0278	-17.891	16.968	0	0	0	0	0	0	0	0	0	2
4270	42.7	0	0	0	0	0	0	0	0	0	0	0	0	0	0	0	0	0	0	0	0	0	0	0	0	0	0	0	0	0	0	0	0	0	0	0	0	0	0	0	0	0	0	0	0	0	0	0	0	0	-1	0	-2.0278	-17.891	16.968	0	0	0	0	0	0	0	0	0	2
4271	42.71	0	0	0	0	0	0	0	0	0	0	0	0	0	0	0	0	0	0	0	0	0	0	0	0	10.989	-10.989	19.033	0	0	0	0	0	0	0	0	0	0	0	0	0	0	0	0	0	0	0	0	0	0	-1	0	-2.0278	-17.891	16.968	0	0	0	0	0	0	0	0	0	2
4272	42.72	0	0	0	0	0	0	0	0	0	0	0	0	0	0	0	0	0	0	0	0	0	0	0	0	0	0	0	0	0	0	0	0	0	0	0	0	0	0	0	0	0	0	0	0	0	0	0	0	0	-1	0	-2.0278	-17.891	16.968	0	0	0	0	0	0	0	0	0	2
4273	42.73	0	0	0	0	0	0	0	0	0	0	0	0	0	0	0	0	0	0	0	0	0	0	0	0	10.989	-10.989	19.033	0	0	0	1	0	0	17.883	2.027	16.961	0	0	0	0	0	0	0	0	0	0	0	0	0	0	0	0	0	0	0	0	0	0	0	0	0	0	0	2
4274	42.74	0	0	0	0	0	0	0	0	0	0	0	0	0	0	0	0	0	0	0	0	0	0	0	0	10.989	-10.989	19.033	0	0	0	0	0	0	0	0	0	0	0	0	0	0	0	0	0	0	0	0	0	0	-1	0	-2.0278	-17.891	16.968	0	0	0	0	0	0	0	0	0	2
4275	42.75	0	0	0	0	0	0	0	0	0	0	0	0	0	0	0	0	0	0	0	0	0	0	0	0	0	0	0	0	0	0	1	0	0	17.883	2.027	16.961	0	0	0	0	0	0	0	0	0	0	0	0	0	-1	0	-2.0278	-17.891	16.968	0	0	0	0	0	0	0	0	0	2
4276	42.76	0	0	0	0	0	0	0	0	0	0	0	0	0	0	0	0	0	0	0	0	0	0	0	0	10.989	-10.989	19.033	0	0	0	1	0	0	17.883	2.027	16.961	0	0	0	0	0	0	0	0	0	0	0	0	0	-1	0	-2.0278	-17.891	16.968	0	0	0	1	0	0	17.471	2.0135	16.556	2
4277	42.77	0	0	0	0	0	0	0	0	0	0	0	0	0	0	0	0	0	0	0	0	0	0	-1	0	-2.0266	-17.88	16.957	0	0	0	0	0	0	0	0	0	0	0	0	0	0	0	0	0	0	0	0	0	0	-1	0	-2.0278	-17.891	16.968	0	0	0	0	0	0	0	0	0	2
4278	42.78	0	0	0	0	0	0	0	0	0	0	0	0	0	0	0	0	0	0	0	0	0	0	0	0	10.989	-10.989	19.033	0	0	0	1	0	0	17.883	2.027	16.961	0	0	0	0	0	0	0	0	0	0	0	0	0	-1	0	-2.0278	-17.891	16.968	0	0	0	1	0	0	17.482	2.0162	16.566	2
4279	42.79	0	0	0	0	0	0	10.917	-10.917	18.908	0	0	0	0	0	0	0	0	0	0	0	0	0	0	0	0	0	0	0	0	0	0	0	0	0	0	0	0	0	0	0	0	0	0	0	0	0	0	0	0	-1	0	-2.0278	-17.891	16.968	0	0	0	0	0	0	0	0	0	2
4280	42.8	0	0	0	0	0	0	0	0	0	0	0	0	0	0	0	0	0	0	0	0	0	0	0	0	0	0	0	0	0	0	1	0	0	17.761	2.1499	16.789	0	0	0	0	0	0	0	0	0	0	0	0	0	-1	0	-2.0278	-17.891	16.968	0	0	0	0	0	0	0	0	0	2
4281	42.81	0	0	0	0	0	0	0	0	0	0	0	0	0	0	0	0	0	0	0	0	0	0	0	0	10.989	-10.989	19.033	0	0	0	0	0	0	0	0	0	0	0	0	0	0	0	0	0	0	0	0	0	0	-1	0	-2.0278	-17.891	16.968	0	0	0	0	0	0	0	0	0	2
4282	42.82	0	0	0	0	0	0	0	0	0	0	0	0	0	0	0	0	0	0	0	0	0	0	0	0	0	0	0	0	0	0	0	0	0	0	0	0	0	0	0	0	0	0	0	0	0	0	0	0	0	-1	0	-2.0278	-17.891	16.968	0	0	0	0	0	0	0	0	0	2
4283	42.83	0	0	0	0	0	0	10.917	-10.917	18.908	0	0	0	0	0	0	0	0	0	0	0	0	0	0	0	10.989	-10.989	19.033	0	0	0	0	0	0	0	0	0	0	0	0	0	0	0	0	0	0	0	0	0	0	-1	0	-2.0278	-17.891	16.968	0	0	0	1	0	0	17.471	2.0135	16.556	2
4284	42.84	0	0	0	0	0	0	0	0	0	0	0	0	0	0	0	0	0	0	0	0	0	0	0	0	0	0	0	0	0	0	0	0	0	0	0	0	0	0	0	0	0	0	0	0	0	0	0	0	0	-1	0	-2.0278	-17.891	16.968	0	0	0	0	0	0	0	0	0	2
4285	42.85	0	0	0	0	0	0	10.917	-10.917	18.908	0	0	0	0	0	0	0	0	0	0	0	0	0	0	0	0	0	0	0	0	0	0	0	0	0	0	0	0	0	0	0	0	0	0	0	0	0	0	0	0	-1	0	-2.0278	-17.891	16.968	0	0	0	0	0	0	0	0	0	2
4286	42.86	0	0	0	0	0	0	0	0	0	0	0	0	0	0	0	0	0	0	0	0	0	0	0	0	10.989	-10.989	19.033	0	0	0	1	0	0	17.883	2.027	16.961	0	0	0	0	0	0	0	0	0	0	0	0	0	-1	0	-2.0278	-17.891	16.968	0	0	0	0	0	0	0	0	0	2
4287	42.87	0	0	0	0	0	0	0	0	0	0	0	0	0	0	0	0	0	0	0	0	0	0	0	0	0	0	0	0	0	0	0	0	0	0	0	0	0	0	0	0	0	0	0	0	0	0	0	0	0	-1	0	-2.0278	-17.891	16.968	0	0	0	0	0	0	0	0	0	2
4288	42.88	0	0	0	0	0	0	0	0	0	0	0	0	0	0	0	0	0	0	0	0	0	0	0	0	0	0	0	0	0	0	0	0	0	0	0	0	0	0	0	0	0	0	0	0	0	0	0	0	0	-1	0	-2.0278	-17.891	16.968	0	0	0	1	0	0	17.471	2.0135	16.556	2
4289	42.89	0	0	0	0	0	0	10.917	-10.917	18.908	0	0	0	0	0	0	0	0	0	0	0	0	0	0	0	0	0	0	0	0	0	1	0	0	17.761	2.1499	16.789	0	0	0	0	0	0	0	0	0	0	0	0	0	-1	0	-2.0278	-17.891	16.968	0	0	0	0	0	0	0	0	0	2
4290	42.9	0	0	0	0	0	0	0	0	0	0	0	0	0	0	0	0	0	0	0	0	0	0	0	0	0	0	0	0	0	0	0	0	0	0	0	0	0	0	0	0	0	0	0	0	0	0	0	0	0	0	0	0	0	0	0	0	0	1	0	0	17.47	2.0148	16.554	2
4291	42.91	0	0	0	0	0	0	0	0	0	0	0	0	0	0	0	0	0	0	0	0	0	0	0	0	10.989	-10.989	19.033	0	0	0	0	0	0	0	0	0	0	0	0	0	0	0	0	0	0	0	0	0	0	-1	0	-2.0278	-17.891	16.968	0	0	0	0	0	0	0	0	0	2
4292	42.92	0	0	0	0	0	0	0	0	0	0	0	0	0	0	0	0	0	0	0	0	0	0	0	0	0	0	0	0	0	0	1	0	0	17.761	2.1499	16.789	0	0	0	0	0	0	10.996	-10.996	19.046	0	0	0	0	-1	0	-2.0278	-17.891	16.968	0	0	0	0	0	0	0	0	0	2
4293	42.93	0	0	0	0	0	0	0	0	0	0	0	0	0	0	0	0	0	0	0	0	0	0	0	0	0	0	0	0	0	0	0	0	0	10.991	-10.991	19.037	0	0	0	0	0	0	0	0	0	0	0	0	0	-1	0	-2.0278	-17.891	16.968	0	0	0	1	0	0	17.47	2.0148	16.554	2
4294	42.94	0	0	0	0	0	0	0	0	0	0	0	0	0	-1	0	-2.0372	-17.821	16.895	0	0	0	0	0	0	0	0	0	0	0	0	1	0	0	17.761	2.1499	16.789	0	0	0	0	0	0	0	0	0	0	0	0	0	-1	0	-2.0278	-17.891	16.968	0	0	0	0	0	0	0	0	0	2
4295	42.95	0	0	0	0	0	0	0	0	0	0	0	0	0	-1	0	-2.0366	-17.816	16.89	0	0	0	0	0	0	0	0	0	0	0	0	0	0	0	0	0	0	0	0	0	0	0	0	0	0	0	0	0	0	0	-1	0	-2.0278	-17.891	16.968	0	0	0	0	0	0	0	0	0	2
4296	42.96	0	0	0	0	0	0	0	0	0	0	0	0	0	0	0	0	0	0	0	0	0	0	0	0	0	0	0	0	0	0	1	0	0	17.761	2.1499	16.789	0	0	0	0	0	0	0	0	0	0	0	0	0	-1	0	-2.0278	-17.891	16.968	0	0	0	1	0	0	17.482	2.0162	16.566	2
4297	42.97	0	0	0	0	0	0	0	0	0	0	0	0	0	0	0	0	0	0	0	0	0	0	0	0	0	0	0	0	0	0	1	0	0	17.883	2.027	16.961	0	0	0	0	0	0	0	0	0	0	0	0	0	-1	0	-2.0278	-17.891	16.968	0	0	0	0	0	0	0	0	0	2
4298	42.98	0	0	0	0	0	0	10.917	-10.917	18.908	0	0	0	0	0	0	0	0	0	0	0	0	0	0	0	0	0	0	0	0	0	0	0	0	0	0	0	0	0	0	0	0	0	0	0	0	0	0	0	0	-1	0	-2.0278	-17.891	16.968	0	0	0	1	0	0	30.423	8.5595	27.174	2
4299	42.99	0	0	0	0	0	0	0	0	0	0	0	0	0	0	0	0	0	0	0	0	0	0	0	0	0	0	0	0	0	0	1	0	0	17.883	2.027	16.961	0	0	0	0	0	0	0	0	0	0	0	0	0	-1	0	-2.0278	-17.891	16.968	0	0	0	0	0	0	0	0	0	2
4300	43	0	0	0	0	0	0	0	0	0	0	0	0	0	0	0	0	0	0	0	0	0	0	0	0	10.989	-10.989	19.033	0	0	0	0	0	0	0	0	0	0	0	0	0	-1	0	-2.0279	-17.891	16.969	0	0	0	0	-1	0	-2.0278	-17.891	16.968	0	0	0	0	0	0	0	0	0	2
4301	43.01	0	0	0	0	0	0	10.917	-10.917	18.908	0	0	0	0	0	0	0	0	0	0	0	0	0	0	0	0	0	0	0	0	0	1	0	0	17.883	2.027	16.961	0	0	0	0	0	0	0	0	0	0	0	0	0	-1	0	-2.0278	-17.891	16.968	0	0	0	0	0	0	0	0	0	2
4302	43.02	0	0	0	0	0	0	0	0	0	0	0	0	0	0	0	0	0	0	0	0	0	0	0	0	0	0	0	0	0	0	0	0	0	0	0	0	0	0	0	0	0	0	0	0	0	0	0	0	0	-1	0	-2.0278	-17.891	16.968	0	0	0	0	0	0	0	0	0	2
4303	43.03	0	0	0	0	0	0	0	0	0	0	0	0	0	0	0	0	0	0	0	0	0	0	0	0	10.989	-10.989	19.033	0	0	0	0	0	0	0	0	0	0	0	0	0	0	0	0	0	0	0	0	0	0	-1	0	-2.0278	-17.891	16.968	0	0	0	1	0	0	17.47	2.0148	16.554	2
4304	43.04	0	0	0	0	0	0	0	0	0	0	0	0	0	0	0	0	0	0	0	0	0	0	0	0	0	0	0	0	0	0	0	0	0	10.991	-10.991	19.037	0	0	0	0	0	0	0	0	0	0	0	0	0	-1	0	-2.0278	-17.891	16.968	0	0	0	0	0	0	0	0	0	2
4305	43.05	0	0	0	0	0	0	0	0	0	0	0	0	0	0	0	0	0	0	0	0	0	0	0	0	0	0	0	0	0	0	0	0	0	0	0	0	0	0	0	0	0	0	0	0	0	0	0	0	0	-1	0	-2.0278	-17.891	16.968	0	0	0	0	0	0	0	0	0	2
4306	43.06	0	0	0	0	0	0	10.917	-10.917	18.908	0	0	0	0	0	0	0	0	0	0	0	0	0	0	0	0	0	0	0	0	0	0	0	0	0	0	0	0	0	0	0	0	0	0	0	0	0	0	0	0	-1	0	-2.0278	-17.891	16.968	0	0	0	0	0	0	0	0	0	2
4307	43.07	0	0	0	0	0	0	0	0	0	0	0	0	0	0	0	0	0	0	0	0	0	0	0	0	0	0	0	0	0	0	0	0	0	0	0	0	0	0	0	0	0	0	0	0	0	0	0	0	0	-1	0	-2.0278	-17.891	16.968	0	0	0	0	0	0	0	0	0	2
4308	43.08	0	0	0	0	0	0	0	0	0	0	0	0	0	0	0	0	0	0	0	0	0	0	0	0	0	0	0	0	0	0	0	0	0	0	0	0	0	0	0	0	0	0	0	0	0	0	0	0	0	-1	0	-2.0278	-17.891	16.968	0	0	0	1	0	0	17.471	2.0135	16.556	2
4309	43.09	0	0	0	0	0	0	0	0	0	0	0	0	0	0	0	0	0	0	0	0	0	0	0	0	0	0	0	0	0	0	0	0	0	0	0	0	0	0	0	0	0	0	0	0	0	0	0	0	0	-1	0	-2.0278	-17.891	16.968	0	0	0	0	0	0	0	0	0	2
4310	43.1	0	0	0	0	0	0	0	0	0	0	0	0	0	0	0	0	0	0	0	0	0	0	0	0	0	0	0	0	0	0	0	0	0	0	0	0	0	0	0	0	0	0	0	0	0	0	0	0	0	-1	0	-2.0278	-17.891	16.968	0	0	0	0	0	0	0	0	0	2
4311	43.11	0	0	0	0	0	0	0	0	0	0	0	0	0	0	0	0	0	0	0	0	0	0	0	0	0	0	0	0	0	0	1	0	0	17.883	2.027	16.961	0	0	0	0	0	0	0	0	0	0	0	0	0	0	0	0	0	0	0	0	0	1	0	0	17.47	2.0148	16.554	2
4312	43.12	0	0	0	0	0	0	0	0	0	0	0	0	0	0	0	0	0	0	0	0	0	0	0	0	0	0	0	0	0	0	0	0	0	0	0	0	0	0	0	0	0	0	0	0	0	0	0	0	0	-1	0	-2.0278	-17.891	16.968	0	0	0	0	0	0	0	0	0	2
4313	43.13	0	0	0	0	0	0	0	0	0	0	0	0	0	0	0	0	0	0	0	0	0	0	0	0	10.989	-10.989	19.033	0	0	0	0	0	0	10.991	-10.991	19.037	0	0	0	0	0	0	0	0	0	0	0	0	0	-1	0	-2.0278	-17.891	16.968	0	0	0	0	0	0	0	0	0	2
4314	43.14	0	0	0	0	0	0	10.917	-10.917	18.908	0	0	0	0	0	0	0	0	0	0	0	0	0	0	0	0	0	0	0	0	0	0	0	0	0	0	0	0	0	0	0	0	0	0	0	0	0	0	0	0	-1	0	-2.0278	-17.891	16.968	0	0	0	0	0	0	0	0	0	2
4315	43.15	0	0	0	0	0	0	0	0	0	0	0	0	0	0	0	0	0	0	0	0	0	0	0	0	0	0	0	0	0	0	0	0	0	0	0	0	0	0	0	0	0	0	0	0	0	0	0	0	0	-1	0	-2.0278	-17.891	16.968	0	0	0	0	0	0	0	0	0	2
4316	43.16	0	0	0	0	0	0	10.917	-10.917	18.908	0	0	0	0	0	0	0	0	0	0	0	0	0	0	0	0	0	0	0	0	0	1	0	0	17.883	2.027	16.961	0	0	0	0	0	0	0	0	0	0	0	0	0	-1	0	-2.0278	-17.891	16.968	0	0	0	0	0	0	0	0	0	2
4317	43.17	0	0	0	0	0	0	0	0	0	0	0	0	0	0	0	0	0	0	0	0	0	0	0	0	10.989	-10.989	19.033	0	0	0	0	0	0	0	0	0	0	0	0	0	0	0	10.996	-10.996	19.046	0	0	0	0	-1	0	-2.0278	-17.891	16.968	0	0	0	0	0	0	0	0	0	2
4318	43.18	0	0	0	0	0	0	0	0	0	0	0	0	0	0	0	0	0	0	0	0	0	0	0	0	0	0	0	0	0	0	0	0	0	0	0	0	0	0	0	0	0	0	0	0	0	0	0	0	0	0	0	0	0	0	0	0	0	1	0	0	17.47	2.0148	16.554	2
4319	43.19	0	0	0	0	0	0	0	0	0	0	0	0	0	0	0	0	0	0	0	0	0	0	0	0	0	0	0	0	0	0	0	0	0	0	0	0	0	0	0	0	0	0	0	0	0	0	0	0	0	-1	0	-2.0278	-17.891	16.968	0	0	0	0	0	0	0	0	0	2
4320	43.2	0	0	0	0	0	0	0	0	0	0	0	0	0	0	0	0	0	0	0	0	0	0	0	0	0	0	0	0	0	0	0	0	0	10.991	-10.991	19.037	0	0	0	0	0	0	0	0	0	0	0	0	0	-1	0	-2.0278	-17.891	16.968	0	0	0	0	0	0	0	0	0	2
4321	43.21	0	0	0	0	0	0	0	0	0	0	0	0	0	0	0	0	0	0	0	0	0	0	0	0	0	0	0	0	0	0	1	0	0	17.883	2.027	16.961	0	0	0	0	0	0	10.996	-10.996	19.046	0	0	0	0	-1	0	-2.0278	-17.891	16.968	0	0	0	1	0	0	17.47	2.0148	16.554	0
4322	43.22	0	0	0	0	0	0	10.917	-10.917	18.908	0	0	0	0	0	0	0	0	0	0	0	0	0	0	0	0	0	0	0	0	0	0	0	0	0	0	0	0	0	0	0	0	0	10.996	-10.996	19.046	0	0	0	0	-1	0	-2.0278	-17.891	16.968	0	0	0	0	0	0	0	0	0	2
4323	43.23	0	0	0	0	0	0	0	0	0	0	0	0	0	0	0	0	0	0	0	0	0	0	0	0	0	0	0	0	0	0	0	0	0	0	0	0	0	0	0	0	0	0	0	0	0	0	0	0	0	-1	0	-2.0278	-17.891	16.968	0	0	0	1	0	0	17.47	2.0148	16.554	2
4324	43.24	0	0	0	0	0	0	0	0	0	0	0	0	0	0	0	0	0	0	0	0	0	0	0	0	0	0	0	0	0	0	0	0	0	10.991	-10.991	19.037	0	0	0	0	0	0	0	0	0	0	0	0	0	-1	0	-2.0278	-17.891	16.968	0	0	0	0	0	0	0	0	0	2
4325	43.25	0	0	0	0	0	0	0	0	0	0	0	0	0	0	0	0	0	0	0	0	0	0	0	0	0	0	0	0	0	0	1	0	0	17.761	2.1499	16.789	0	0	0	0	0	0	0	0	0	0	0	0	0	-1	0	-2.0278	-17.891	16.968	0	0	0	0	0	0	0	0	0	2
4326	43.26	0	0	0	0	0	0	0	0	0	0	0	0	0	0	0	0	0	0	0	0	0	0	0	0	0	0	0	0	0	0	0	0	0	0	0	0	0	0	0	0	0	0	0	0	0	0	0	0	0	-1	0	-2.0278	-17.891	16.968	0	0	0	1	0	0	17.47	2.0148	16.554	2
4327	43.27	0	0	0	0	0	0	0	0	0	0	0	0	0	0	0	0	0	0	0	0	0	0	0	0	0	0	0	0	0	0	0	0	0	0	0	0	0	0	0	0	0	0	0	0	0	0	0	0	0	-1	0	-2.0278	-17.891	16.968	0	0	0	0	0	0	0	0	0	2
4328	43.28	0	0	0	0	0	0	0	0	0	0	0	0	0	0	0	0	0	0	0	0	0	0	0	0	0	0	0	0	0	0	0	0	0	10.991	-10.991	19.037	0	0	0	0	0	0	0	0	0	0	0	0	0	-1	0	-2.0278	-17.891	16.968	0	0	0	1	0	0	17.47	2.0148	16.554	2
4329	43.29	0	0	0	0	0	0	10.917	-10.917	18.908	0	0	0	0	0	0	0	0	0	0	0	0	0	0	0	0	0	0	0	0	0	0	0	0	0	0	0	0	0	0	0	0	0	0	0	0	0	0	0	0	-1	0	-2.0278	-17.891	16.968	0	0	0	0	0	0	0	0	0	2
4330	43.3	0	0	0	0	0	0	0	0	0	0	0	0	0	0	0	0	0	0	0	0	0	0	0	0	0	0	0	0	0	0	1	0	0	17.761	2.1499	16.789	0	0	0	0	0	0	0	0	0	0	0	0	0	-1	0	-2.0278	-17.891	16.968	0	0	0	0	0	0	0	0	0	2
4331	43.31	0	0	0	0	0	0	0	0	0	0	0	0	0	0	0	0	0	0	0	0	0	0	0	0	0	0	0	0	0	0	1	0	0	17.883	2.027	16.961	0	0	0	0	0	0	0	0	0	0	0	0	0	-1	0	-2.0278	-17.891	16.968	0	0	0	1	0	0	17.47	2.0148	16.554	0
4332	43.32	0	0	0	0	0	0	0	0	0	0	0	0	0	0	0	0	0	0	0	0	0	0	0	0	0	0	0	0	0	0	0	0	0	0	0	0	0	0	0	0	0	0	0	0	0	0	0	0	0	-1	0	-2.0278	-17.891	16.968	0	0	0	0	0	0	0	0	0	2
4333	43.33	0	0	0	0	0	0	10.917	-10.917	18.908	0	0	0	0	0	0	0	0	0	0	0	0	0	0	0	0	0	0	0	0	0	0	0	0	10.991	-10.991	19.037	0	0	0	0	0	0	0	0	0	0	0	0	0	-1	0	-2.0278	-17.891	16.968	0	0	0	1	0	0	17.47	2.0148	16.554	2
4334	43.34	0	0	0	0	0	0	0	0	0	0	0	0	0	0	0	0	0	0	0	0	0	0	0	0	0	0	0	0	0	0	0	0	0	0	0	0	0	0	0	0	0	0	0	0	0	0	0	0	0	-1	0	-2.0278	-17.891	16.968	0	0	0	1	0	0	17.47	2.0148	16.554	2
4335	43.35	0	0	0	0	0	0	0	0	0	0	0	0	0	0	0	0	0	0	0	0	0	0	0	0	0	0	0	0	0	0	0	0	0	0	0	0	0	0	0	0	0	0	0	0	0	0	0	0	0	-1	0	-2.0278	-17.891	16.968	0	0	0	0	0	0	0	0	0	0
4336	43.36	0	0	0	0	0	0	0	0	0	0	0	0	0	-1	0	-2.0366	-17.816	16.89	0	0	0	0	0	0	0	0	0	0	0	0	0	0	0	0	0	0	0	0	0	0	0	0	0	0	0	0	0	0	0	-1	0	-2.0278	-17.891	16.968	0	0	0	1	0	0	17.47	2.0148	16.554	2
4337	43.37	0	0	0	0	0	0	0	0	0	0	0	0	0	0	0	0	0	0	0	0	0	0	0	0	0	0	0	0	0	0	0	0	0	0	0	0	0	0	0	0	0	0	0	0	0	0	0	0	0	-1	0	-2.0278	-17.891	16.968	0	0	0	0	0	0	0	0	0	2
4338	43.38	0	0	0	0	0	0	0	0	0	0	0	0	0	0	0	0	0	0	0	0	0	0	0	0	0	0	0	0	0	0	0	0	0	0	0	0	0	0	0	0	0	0	0	0	0	0	0	0	0	-1	0	-2.0278	-17.891	16.968	0	0	0	1	0	0	17.47	2.0148	16.554	2
4339	43.39	0	0	0	0	0	0	0	0	0	0	0	0	0	0	0	0	0	0	0	0	0	0	0	0	0	0	0	0	0	0	1	0	0	17.883	2.027	16.961	0	0	0	0	0	0	0	0	0	0	0	0	0	-1	0	-2.0278	-17.891	16.968	0	0	0	1	0	0	17.47	2.0148	16.554	2
4340	43.4	0	0	0	0	0	0	0	0	0	0	0	0	0	0	0	0	0	0	0	0	0	0	-1	0	-2.0266	-17.88	16.957	0	0	0	0	0	0	0	0	0	0	0	0	0	0	0	0	0	0	0	0	0	0	-1	0	-2.0278	-17.891	16.968	0	0	0	0	0	0	0	0	0	2
4341	43.41	0	0	0	0	0	0	0	0	0	0	0	0	0	0	0	0	0	0	0	0	0	0	0	0	0	0	0	0	0	0	0	0	0	0	0	0	0	0	0	0	0	0	0	0	0	0	0	0	0	-1	0	-2.0278	-17.891	16.968	0	0	0	0	0	0	0	0	0	2
4342	43.42	0	0	0	0	0	0	0	0	0	0	0	0	0	0	0	0	0	0	0	0	0	0	0	0	0	0	0	0	0	0	0	0	0	0	0	0	0	0	0	0	0	0	10.996	-10.996	19.046	0	0	0	0	-1	0	-2.0278	-17.891	16.968	0	0	0	0	0	0	0	0	0	2
4343	43.43	0	0	0	0	0	0	0	0	0	0	0	0	0	0	0	0	0	0	0	0	0	0	0	0	0	0	0	0	0	0	0	0	0	0	0	0	0	0	0	0	0	0	0	0	0	0	0	0	0	-1	0	-2.0278	-17.891	16.968	0	0	0	0	0	0	0	0	0	2
4344	43.44	0	0	0	0	0	0	0	0	0	0	0	0	0	0	0	0	0	0	0	0	0	0	0	0	0	0	0	0	0	0	0	0	0	0	0	0	0	0	0	0	0	0	0	0	0	0	0	0	0	-1	0	-2.0278	-17.891	16.968	0	0	0	0	0	0	0	0	0	2
4345	43.45	0	0	0	0	0	0	0	0	0	0	0	0	0	0	0	0	0	0	0	0	0	0	0	0	0	0	0	0	0	0	0	0	0	10.991	-10.991	19.037	0	0	0	0	0	0	0	0	0	0	0	0	0	-1	0	-2.0278	-17.891	16.968	0	0	0	0	0	0	0	0	0	2
4346	43.46	0	0	0	0	0	0	0	0	0	0	0	0	0	0	0	0	0	0	0	0	0	0	0	0	10.989	-10.989	19.033	0	0	0	0	0	0	0	0	0	0	0	0	0	0	0	0	0	0	0	0	0	0	-1	0	-2.0278	-17.891	16.968	0	0	0	1	0	0	17.471	2.0135	16.556	2
4347	43.47	0	0	0	0	0	0	0	0	0	0	0	0	0	-1	0	-2.0366	-17.816	16.89	0	0	0	0	-1	0	-2.0266	-17.88	16.957	0	0	0	0	0	0	0	0	0	0	0	0	0	0	0	0	0	0	0	0	0	0	-1	0	-2.0278	-17.891	16.968	0	0	0	0	0	0	0	0	0	2
4348	43.48	0	0	0	0	0	0	0	0	0	0	0	0	0	0	0	0	0	0	0	0	0	0	0	0	0	0	0	0	0	0	1	0	0	17.761	2.1499	16.789	0	0	0	0	0	0	0	0	0	0	0	0	0	-1	0	-2.0278	-17.891	16.968	0	0	0	0	0	0	0	0	0	0
4349	43.49	0	0	0	0	0	0	10.917	-10.917	18.908	0	0	0	0	0	0	0	0	0	0	0	0	0	0	0	0	0	0	0	0	0	0	0	0	0	0	0	0	0	0	0	0	0	0	0	0	0	0	0	0	-1	0	-2.0278	-17.891	16.968	0	0	0	0	0	0	0	0	0	2
4350	43.5	0	0	0	0	0	0	0	0	0	0	0	0	0	0	0	0	0	0	0	0	0	0	0	0	0	0	0	0	0	0	1	0	0	17.883	2.027	16.961	0	0	0	0	0	0	0	0	0	0	0	0	0	-1	0	-2.0278	-17.891	16.968	0	0	0	0	0	0	0	0	0	2
4351	43.51	0	0	0	0	0	0	0	0	0	0	0	0	0	0	0	0	0	0	0	0	0	0	0	0	0	0	0	0	0	0	1	0	0	17.883	2.027	16.961	0	0	0	0	0	0	0	0	0	0	0	0	0	-1	0	-2.0278	-17.891	16.968	0	0	0	0	0	0	0	0	0	2
4352	43.52	0	0	0	0	0	0	10.917	-10.917	18.908	0	0	0	0	0	0	0	0	0	0	0	0	0	0	0	0	0	0	0	0	0	1	0	0	17.883	2.027	16.961	0	0	0	0	0	0	0	0	0	0	0	0	0	-1	0	-2.0278	-17.891	16.968	0	0	0	0	0	0	0	0	0	2
4353	43.53	0	0	0	0	0	0	10.917	-10.917	18.908	0	0	0	0	0	0	0	0	0	0	0	0	0	0	0	0	0	0	0	0	0	0	0	0	0	0	0	0	0	0	0	0	0	0	0	0	0	0	0	0	-1	0	-2.0278	-17.891	16.968	0	0	0	1	0	0	17.47	2.0148	16.554	2
4354	43.54	0	0	0	0	0	0	0	0	0	0	0	0	0	0	0	0	0	0	0	0	0	0	0	0	0	0	0	0	0	0	1	0	0	17.883	2.027	16.961	0	0	0	0	0	0	0	0	0	0	0	0	0	-1	0	-2.0278	-17.891	16.968	0	0	0	0	0	0	0	0	0	2
4355	43.55	0	0	0	0	0	0	0	0	0	0	0	0	0	0	0	0	0	0	0	0	0	0	0	0	0	0	0	0	0	0	0	0	0	0	0	0	0	0	0	0	0	0	0	0	0	0	0	0	0	-1	0	-2.0278	-17.891	16.968	0	0	0	0	0	0	0	0	0	2
4356	43.56	0	0	0	0	0	0	10.917	-10.917	18.908	0	0	0	0	0	0	0	0	0	0	0	0	0	0	0	10.989	-10.989	19.033	0	0	0	1	0	0	17.883	2.027	16.961	0	0	0	0	0	0	0	0	0	0	0	0	0	-1	0	-2.0278	-17.891	16.968	0	0	0	0	0	0	0	0	0	2
4357	43.57	0	0	0	0	0	0	0	0	0	0	0	0	0	0	0	0	0	0	0	0	0	0	0	0	0	0	0	0	0	0	1	0	0	17.883	2.027	16.961	0	0	0	0	0	0	0	0	0	0	0	0	0	-1	0	-2.0278	-17.891	16.968	0	0	0	0	0	0	0	0	0	2
4358	43.58	0	0	0	0	0	0	0	0	0	0	0	0	0	0	0	0	0	0	0	0	0	0	0	0	0	0	0	0	0	0	0	0	0	0	0	0	0	0	0	0	0	0	0	0	0	0	0	0	0	-1	0	-2.0278	-17.891	16.968	0	0	0	0	0	0	0	0	0	2
4359	43.59	0	0	0	0	0	0	0	0	0	0	0	0	0	0	0	0	0	0	0	0	0	0	0	0	0	0	0	0	0	0	1	0	0	17.883	2.027	16.961	0	0	0	0	0	0	0	0	0	0	0	0	0	-1	0	-2.0278	-17.891	16.968	0	0	0	0	0	0	0	0	0	2
4360	43.6	0	0	0	0	0	0	0	0	0	0	0	0	0	-1	0	-2.0366	-17.816	16.89	0	0	0	0	0	0	0	0	0	0	0	0	0	0	0	0	0	0	0	0	0	0	0	0	0	0	0	0	0	0	0	-1	0	-2.0278	-17.891	16.968	0	0	0	0	0	0	10.93	-10.93	18.931	2
4361	43.61	0	0	0	0	0	0	0	0	0	0	0	0	0	0	0	0	0	0	0	0	0	0	0	0	0	0	0	0	0	0	1	0	0	17.883	2.027	16.961	0	0	0	0	0	0	0	0	0	0	0	0	0	-1	0	-2.0278	-17.891	16.968	0	0	0	0	0	0	0	0	0	2
4362	43.62	0	0	0	0	0	0	10.917	-10.917	18.908	0	0	0	0	0	0	0	0	0	0	0	0	0	0	0	0	0	0	0	0	0	0	0	0	0	0	0	0	0	0	0	0	0	0	0	0	0	0	0	0	-1	0	-2.0278	-17.891	16.968	0	0	0	1	0	0	17.47	2.0148	16.554	2
4363	43.63	0	0	0	0	0	0	0	0	0	0	0	0	0	0	0	0	0	0	0	0	0	0	0	0	0	0	0	0	0	0	0	0	0	10.991	-10.991	19.037	0	0	0	0	0	0	0	0	0	0	0	0	0	-1	0	-2.0278	-17.891	16.968	0	0	0	0	0	0	0	0	0	2
4364	43.64	0	0	0	0	0	0	0	0	0	0	0	0	0	0	0	0	0	0	0	0	0	0	0	0	0	0	0	0	0	0	0	0	0	0	0	0	0	0	0	0	0	0	0	0	0	0	0	0	0	-1	0	-2.0278	-17.891	16.968	0	0	0	1	0	0	17.47	2.0148	16.554	2
4365	43.65	0	0	0	0	0	0	0	0	0	0	0	0	0	0	0	0	0	0	0	0	0	0	0	0	0	0	0	0	0	0	0	0	0	0	0	0	0	0	0	0	0	0	0	0	0	0	0	0	0	0	0	0	0	0	0	0	0	1	0	0	17.47	2.0148	16.554	2
4366	43.66	0	0	0	0	0	0	0	0	0	0	0	0	0	0	0	0	0	0	0	0	0	0	0	0	0	0	0	0	0	0	0	0	0	10.991	-10.991	19.037	0	0	0	0	0	0	0	0	0	0	0	0	0	-1	0	-2.0278	-17.891	16.968	0	0	0	1	0	0	17.47	2.0148	16.554	2
4367	43.67	0	0	0	0	0	0	0	0	0	0	0	0	0	-1	0	-2.0366	-17.816	16.89	0	0	0	0	0	0	0	0	0	0	0	0	0	0	0	0	0	0	0	0	0	0	0	0	10.996	-10.996	19.046	0	0	0	0	-1	0	-2.0278	-17.891	16.968	0	0	0	0	0	0	0	0	0	2
4368	43.68	0	0	0	0	0	0	0	0	0	0	0	0	0	0	0	0	0	0	0	0	0	0	0	0	0	0	0	0	0	0	0	0	0	0	0	0	0	0	0	0	0	0	10.996	-10.996	19.046	0	0	0	0	-1	0	-2.0278	-17.891	16.968	0	0	0	0	0	0	0	0	0	2
4369	43.69	0	0	0	0	0	0	0	0	0	0	0	0	0	0	0	0	0	0	0	0	0	0	0	0	0	0	0	0	0	0	0	0	0	0	0	0	0	0	0	0	0	0	0	0	0	0	0	0	0	-1	0	-2.0278	-17.891	16.968	0	0	0	0	0	0	0	0	0	2
4370	43.7	0	0	0	0	0	0	0	0	0	0	0	0	0	0	0	0	0	0	0	0	0	0	0	0	0	0	0	0	0	0	0	0	0	0	0	0	0	0	0	0	0	0	0	0	0	0	0	0	0	0	0	0	0	0	0	0	0	0	0	0	0	0	0	2
4371	43.71	0	0	0	0	0	0	0	0	0	0	0	0	0	0	0	0	0	0	0	0	0	0	0	0	0	0	0	0	0	0	0	0	0	0	0	0	0	0	0	0	0	0	0	0	0	0	0	0	0	-1	0	-2.0278	-17.891	16.968	0	0	0	1	0	0	17.47	2.0148	16.554	0
4372	43.72	0	0	0	0	0	0	0	0	0	0	0	0	0	0	0	0	0	0	0	0	0	0	0	0	0	0	0	0	0	0	0	0	0	0	0	0	0	0	0	0	0	0	10.996	-10.996	19.046	0	0	0	0	-1	0	-2.0278	-17.891	16.968	0	0	0	0	0	0	0	0	0	2
4373	43.73	0	0	0	0	0	0	10.917	-10.917	18.908	0	0	0	0	0	0	0	0	0	0	0	0	0	0	0	0	0	0	0	0	0	1	0	0	17.883	2.027	16.961	0	0	0	1	0	0	17.883	2.027	16.961	0	0	0	0	-1	0	-2.0278	-17.891	16.968	0	0	0	0	0	0	0	0	0	2
4374	43.74	0	0	0	0	0	0	0	0	0	0	0	0	0	0	0	0	0	0	0	0	0	0	0	0	0	0	0	0	0	0	0	0	0	0	0	0	0	0	0	0	0	0	10.996	-10.996	19.046	0	0	0	0	0	0	0	0	0	0	0	0	0	0	0	0	0	0	2
4375	43.75	0	0	0	0	0	0	10.917	-10.917	18.908	0	0	0	0	0	0	0	0	0	0	0	0	0	0	0	0	0	0	0	0	0	1	0	0	17.883	2.027	16.961	0	0	0	0	0	0	10.996	-10.996	19.046	0	0	0	0	-1	0	-2.0278	-17.891	16.968	0	0	0	0	0	0	0	0	0	2
4376	43.76	0	0	0	0	0	0	0	0	0	0	0	0	0	0	0	0	0	0	0	0	0	0	0	0	0	0	0	0	0	0	0	0	0	0	0	0	0	0	0	0	0	0	0	0	0	0	0	0	0	-1	0	-2.0278	-17.891	16.968	0	0	0	1	0	0	17.47	2.0148	16.554	2
4377	43.77	0	0	0	0	0	0	0	0	0	0	0	0	0	0	0	0	0	0	0	0	0	0	0	0	0	0	0	0	0	0	0	0	0	0	0	0	0	0	0	0	0	0	10.996	-10.996	19.046	0	0	0	0	-1	0	-2.0278	-17.891	16.968	0	0	0	0	0	0	0	0	0	2
4378	43.78	0	0	0	0	0	0	10.917	-10.917	18.908	0	0	0	0	0	0	0	0	0	0	0	0	0	0	0	0	0	0	0	0	0	1	0	0	17.883	2.027	16.961	0	0	0	0	0	0	0	0	0	0	0	0	0	-1	0	-2.0278	-17.891	16.968	0	0	0	1	0	0	17.47	2.0148	16.554	2
4379	43.79	0	0	0	0	0	0	0	0	0	0	0	0	0	0	0	0	0	0	0	0	0	0	0	0	0	0	0	0	0	0	0	0	0	0	0	0	0	0	0	0	0	0	10.996	-10.996	19.046	0	0	0	0	-1	0	-2.0278	-17.891	16.968	0	0	0	0	0	0	0	0	0	2
4380	43.8	0	0	0	0	0	0	0	0	0	0	0	0	0	0	0	0	0	0	0	0	0	0	0	0	10.989	-10.989	19.033	0	0	0	0	0	0	0	0	0	0	0	0	0	0	0	10.996	-10.996	19.046	0	0	0	0	-1	0	-2.0278	-17.891	16.968	0	0	0	0	0	0	0	0	0	2
4381	43.81	0	0	0	0	0	0	0	0	0	0	0	0	0	0	0	0	0	0	0	0	0	0	0	0	0	0	0	0	0	0	1	0	0	17.883	2.027	16.961	0	0	0	0	0	0	0	0	0	0	0	0	0	-1	0	-2.0278	-17.891	16.968	0	0	0	0	0	0	0	0	0	2
4382	43.82	0	0	0	0	0	0	0	0	0	0	0	0	0	0	0	0	0	0	0	0	0	0	-1	0	-2.0266	-17.88	16.957	0	0	0	1	0	0	17.883	2.027	16.961	0	0	0	0	0	0	0	0	0	0	0	0	0	-1	0	-2.0278	-17.891	16.968	0	0	0	0	0	0	0	0	0	2
4383	43.83	0	0	0	0	0	0	10.917	-10.917	18.908	0	0	0	0	0	0	0	0	0	0	0	0	0	0	0	10.989	-10.989	19.033	0	0	0	1	0	0	17.883	2.027	16.961	0	0	0	0	0	0	10.996	-10.996	19.046	0	0	0	0	-1	0	-2.0278	-17.891	16.968	0	0	0	0	0	0	10.93	-10.93	18.931	2
4384	43.84	0	0	0	0	0	0	0	0	0	0	0	0	0	0	0	0	0	0	0	0	0	0	0	0	0	0	0	0	0	0	1	0	0	17.883	2.027	16.961	0	0	0	0	0	0	0	0	0	0	0	0	0	0	0	0	0	0	0	0	0	0	0	0	0	0	0	2
4385	43.85	0	0	0	0	0	0	0	0	0	0	0	0	0	0	0	0	0	0	0	0	0	0	0	0	0	0	0	0	0	0	0	0	0	0	0	0	0	0	0	0	0	0	10.996	-10.996	19.046	0	0	0	0	-1	0	-2.0278	-17.891	16.968	0	0	0	1	0	0	17.47	2.0148	16.554	0
4386	43.86	0	0	0	0	0	0	10.917	-10.917	18.908	0	0	0	0	0	0	0	0	0	0	0	0	0	0	0	0	0	0	0	0	0	0	0	0	0	0	0	0	0	0	0	0	0	0	0	0	0	0	0	0	-1	0	-2.0278	-17.891	16.968	0	0	0	0	0	0	0	0	0	2
4387	43.87	0	0	0	0	0	0	0	0	0	0	0	0	0	0	0	0	0	0	0	0	0	0	0	0	0	0	0	0	0	0	0	0	0	0	0	0	0	0	0	0	0	0	0	0	0	0	0	0	0	-1	0	-2.0278	-17.891	16.968	0	0	0	1	0	0	17.47	2.0148	16.554	2
4388	43.88	0	0	0	0	0	0	0	0	0	0	0	0	0	0	0	0	0	0	0	0	0	0	0	0	0	0	0	0	0	0	0	0	0	0	0	0	0	0	0	0	0	0	0	0	0	0	0	0	0	0	0	0	0	0	0	0	0	1	0	0	17.47	2.0148	16.554	2
4389	43.89	0	0	0	0	0	0	10.917	-10.917	18.908	0	0	0	0	0	0	0	0	0	0	0	0	0	0	0	10.989	-10.989	19.033	0	0	0	1	0	0	17.883	2.027	16.961	0	0	0	0	0	0	0	0	0	0	0	0	0	0	0	0	0	0	0	0	0	0	0	0	0	0	0	2
4390	43.9	0	0	0	0	0	0	0	0	0	0	0	0	0	0	0	0	0	0	0	0	0	0	0	0	0	0	0	0	0	0	0	0	0	0	0	0	0	0	0	0	0	0	10.996	-10.996	19.046	0	0	0	0	-1	0	-2.0278	-17.891	16.968	0	0	0	0	0	0	0	0	0	2
4391	43.91	0	0	0	0	0	0	10.917	-10.917	18.908	0	0	0	0	0	0	0	0	0	0	0	0	0	0	0	10.989	-10.989	19.033	0	0	0	0	0	0	0	0	0	0	0	0	0	0	0	0	0	0	0	0	0	0	-1	0	-2.0278	-17.891	16.968	0	0	0	0	0	0	0	0	0	2
4392	43.92	0	0	0	0	0	0	0	0	0	0	0	0	0	0	0	0	0	0	0	0	0	0	0	0	0	0	0	0	0	0	0	0	0	0	0	0	0	0	0	0	0	0	10.996	-10.996	19.046	0	0	0	0	-1	0	-2.0278	-17.891	16.968	0	0	0	0	0	0	0	0	0	2
4393	43.93	0	0	0	0	0	0	10.917	-10.917	18.908	0	0	0	0	0	0	0	0	0	0	0	0	0	0	0	0	0	0	0	0	0	0	0	0	0	0	0	0	0	0	0	0	0	0	0	0	0	0	0	0	-1	0	-2.0278	-17.891	16.968	0	0	0	0	0	0	0	0	0	2
4394	43.94	0	0	0	0	0	0	0	0	0	0	0	0	0	0	0	0	0	0	0	0	0	0	0	0	0	0	0	0	0	0	0	0	0	10.991	-10.991	19.037	0	0	0	0	0	0	0	0	0	0	0	0	0	-1	0	-2.0278	-17.891	16.968	0	0	0	0	0	0	0	0	0	2
4395	43.95	0	0	0	0	0	0	10.917	-10.917	18.908	0	0	0	0	0	0	0	0	0	0	0	0	0	0	0	0	0	0	0	0	0	1	0	0	17.883	2.027	16.961	0	0	0	0	0	0	10.996	-10.996	19.046	0	0	0	0	-1	0	-2.0278	-17.891	16.968	0	0	0	0	0	0	0	0	0	2
4396	43.96	0	0	0	0	0	0	0	0	0	0	0	0	0	0	0	0	0	0	0	0	0	0	0	0	0	0	0	0	0	0	1	0	0	17.883	2.027	16.961	0	0	0	0	0	0	0	0	0	0	0	0	0	0	0	0	0	0	0	0	0	0	0	0	0	0	0	2
4397	43.97	0	0	0	0	0	0	0	0	0	0	0	0	0	0	0	0	0	0	0	0	0	0	0	0	0	0	0	0	0	0	0	0	0	0	0	0	0	0	0	0	0	0	10.996	-10.996	19.046	0	0	0	0	-1	0	-2.0278	-17.891	16.968	0	0	0	0	0	0	0	0	0	2
4398	43.98	0	0	0	0	0	0	0	0	0	0	0	0	0	0	0	0	0	0	0	0	0	0	0	0	10.989	-10.989	19.033	0	0	0	1	0	0	17.883	2.027	16.961	0	0	0	0	0	0	0	0	0	0	0	0	1	-1	0	7.5503	-27.469	31.921	0	0	0	1	0	0	17.47	2.0148	16.554	2
4399	43.99	0	0	0	0	0	0	0	0	0	0	0	0	0	0	0	0	0	0	0	0	0	0	0	0	0	0	0	0	0	0	1	0	0	17.883	2.027	16.961	0	0	0	0	0	0	10.996	-10.996	19.046	0	0	0	0	-1	0	-2.0278	-17.891	16.968	0	0	0	0	0	0	0	0	0	2
4400	44	0	0	0	0	0	0	0	0	0	0	0	0	0	0	0	0	0	0	0	0	0	0	0	0	0	0	0	0	0	0	1	0	0	17.883	2.027	16.961	0	0	0	0	0	0	0	0	0	0	0	0	0	-1	0	-2.0278	-17.891	16.968	0	0	0	0	0	0	0	0	0	2
4401	44.01	0	0	0	0	0	0	10.917	-10.917	18.908	0	0	0	0	0	0	0	0	0	0	0	0	0	0	0	0	0	0	0	0	0	0	0	0	0	0	0	0	0	0	0	0	0	0	0	0	0	0	0	0	-1	0	-2.0278	-17.891	16.968	0	0	0	1	0	0	17.47	2.0148	16.554	2
4402	44.02	0	0	0	0	0	0	0	0	0	0	0	0	0	0	0	0	0	0	0	0	0	0	0	0	0	0	0	0	0	0	1	0	0	17.883	2.027	16.961	0	0	0	0	0	0	10.996	-10.996	19.046	0	0	0	0	-1	0	-2.0278	-17.891	16.968	0	0	0	0	0	0	0	0	0	2
4403	44.03	0	0	0	0	0	0	10.917	-10.917	18.908	0	0	0	0	0	0	0	0	0	0	0	0	0	0	0	0	0	0	0	0	0	1	0	0	17.761	2.1499	16.789	0	0	0	0	0	0	10.996	-10.996	19.046	0	0	0	0	-1	0	-2.0278	-17.891	16.968	0	0	0	1	0	0	17.47	2.0148	16.554	2
4404	44.04	0	0	0	0	0	0	10.917	-10.917	18.908	0	0	0	0	0	0	0	0	0	0	0	0	0	0	0	0	0	0	0	0	0	1	0	0	17.883	2.027	16.961	0	0	0	0	0	0	0	0	0	0	0	0	1	-1	0	7.5503	-27.469	31.921	0	0	0	0	0	0	0	0	0	2
4405	44.05	0	0	0	0	0	0	10.917	-10.917	18.908	0	0	0	0	0	0	0	0	0	0	0	0	0	0	0	0	0	0	0	0	0	1	0	0	17.883	2.027	16.961	0	0	0	0	0	0	10.996	-10.996	19.046	0	0	0	0	0	0	0	0	0	0	0	0	0	0	0	0	0	0	2
4406	44.06	0	0	0	0	0	0	10.917	-10.917	18.908	0	0	0	0	0	0	0	0	0	0	0	0	0	0	0	0	0	0	0	0	0	0	0	0	0	0	0	0	0	0	0	0	0	0	0	0	0	0	0	0	-1	0	-2.0278	-17.891	16.968	0	0	0	0	0	0	0	0	0	2
4407	44.07	0	0	0	0	0	0	0	0	0	0	0	0	0	0	0	0	0	0	0	0	0	0	0	0	0	0	0	0	0	0	0	0	0	0	0	0	0	0	0	0	0	0	0	0	0	0	0	0	0	-1	0	-2.0278	-17.891	16.968	0	0	0	0	0	0	0	0	0	2
4408	44.08	0	0	0	0	0	0	0	0	0	0	0	0	0	0	0	0	0	0	0	0	0	0	0	0	0	0	0	0	0	0	0	0	0	0	0	0	0	0	0	0	0	0	0	0	0	0	0	0	0	0	0	0	0	0	0	0	0	0	0	0	0	0	0	2
4409	44.09	0	0	0	0	0	0	0	0	0	0	0	0	0	0	0	0	0	0	0	0	0	0	0	0	0	0	0	0	0	0	1	0	0	17.883	2.027	16.961	0	0	0	0	0	0	0	0	0	0	0	0	0	-1	0	-2.0278	-17.891	16.968	0	0	0	1	0	0	17.47	2.0148	16.554	2
4410	44.1	0	0	0	0	0	0	0	0	0	0	0	0	0	0	0	0	0	0	0	0	0	0	0	0	0	0	0	0	0	0	1	0	0	17.883	2.027	16.961	0	0	0	0	0	0	0	0	0	0	0	0	1	-1	0	7.5503	-27.469	31.921	0	0	0	0	0	0	0	0	0	2
4411	44.11	0	0	0	0	0	0	10.917	-10.917	18.908	0	0	0	0	0	0	0	0	0	0	0	0	0	0	0	0	0	0	0	0	0	1	0	0	17.883	2.027	16.961	0	0	0	0	0	0	10.996	-10.996	19.046	0	0	0	0	-1	0	-2.0278	-17.891	16.968	0	0	0	0	0	0	0	0	0	2
4412	44.12	0	0	0	0	0	0	0	0	0	0	0	0	0	0	0	0	0	0	0	0	0	0	0	0	0	0	0	0	0	0	1	0	0	17.883	2.027	16.961	0	0	0	0	0	0	10.996	-10.996	19.046	0	0	0	0	-1	0	-2.0278	-17.891	16.968	0	0	0	0	0	0	0	0	0	2
4413	44.13	0	0	0	0	0	0	10.917	-10.917	18.908	0	0	0	0	0	0	0	0	0	0	0	0	0	0	0	0	0	0	0	0	0	1	0	0	17.883	2.027	16.961	0	0	0	0	0	0	0	0	0	0	0	0	0	-1	0	-2.0278	-17.891	16.968	0	0	0	1	0	0	17.47	2.0148	16.554	0
4414	44.14	0	0	0	0	0	0	0	0	0	0	0	0	0	-1	0	-2.0372	-17.821	16.895	0	0	0	0	0	0	0	0	0	0	0	0	1	0	0	17.883	2.027	16.961	0	0	0	0	0	0	0	0	0	0	0	0	0	-1	0	-2.0278	-17.891	16.968	0	0	0	0	0	0	0	0	0	2
4415	44.15	0	0	0	0	0	0	0	0	0	0	0	0	0	0	0	0	0	0	0	0	0	0	0	0	0	0	0	0	0	0	1	0	0	17.883	2.027	16.961	0	0	0	0	0	0	0	0	0	0	0	0	0	-1	0	-2.0278	-17.891	16.968	0	0	0	0	0	0	0	0	0	2
4416	44.16	0	0	0	0	0	0	0	0	0	0	0	0	0	0	0	0	0	0	0	0	0	0	0	0	0	0	0	0	0	0	1	0	0	17.883	2.027	16.961	0	0	0	0	0	0	0	0	0	0	0	0	0	-1	0	-2.0278	-17.891	16.968	0	0	0	0	0	0	0	0	0	0
4417	44.17	0	0	0	0	0	0	10.917	-10.917	18.908	0	0	0	0	-1	0	-8.7632	-30.947	27.628	0	0	0	0	0	0	0	0	0	0	0	0	0	0	0	0	0	0	0	0	0	0	0	0	10.996	-10.996	19.046	0	0	0	0	-1	0	-2.0278	-17.891	16.968	0	0	0	0	0	0	0	0	0	2
4418	44.18	0	0	0	0	0	0	10.917	-10.917	18.908	0	0	0	0	0	0	0	0	0	0	0	0	0	0	0	0	0	0	0	0	0	1	0	0	17.883	2.027	16.961	0	0	0	0	0	0	0	0	0	0	0	0	0	-1	0	-2.0278	-17.891	16.968	0	0	0	0	0	0	0	0	0	2
4419	44.19	0	0	0	0	0	0	0	0	0	0	0	0	0	0	0	0	0	0	0	0	0	0	0	0	0	0	0	0	0	0	0	0	0	0	0	0	0	0	0	0	0	0	0	0	0	0	0	0	0	-1	0	-2.0278	-17.891	16.968	0	0	0	0	0	0	0	0	0	2
4420	44.2	0	0	0	0	0	0	0	0	0	0	0	0	0	0	0	0	0	0	0	0	0	0	0	0	0	0	0	0	0	0	1	0	0	17.883	2.027	16.961	0	0	0	0	0	0	0	0	0	0	0	0	0	-1	0	-2.0278	-17.891	16.968	0	0	0	0	0	0	0	0	0	2
4421	44.21	0	0	0	0	0	0	0	0	0	0	0	0	0	0	0	0	0	0	0	0	0	0	0	0	10.989	-10.989	19.033	0	0	0	1	0	0	17.883	2.027	16.961	0	0	0	0	0	0	0	0	0	0	0	0	0	-1	0	-2.0278	-17.891	16.968	0	0	0	0	0	0	0	0	0	2
4422	44.22	0	0	0	0	0	0	0	0	0	0	0	0	0	0	0	0	0	0	0	0	0	0	0	0	0	0	0	0	0	0	0	0	0	0	0	0	0	0	0	0	0	0	0	0	0	0	0	0	0	-1	0	-2.0278	-17.891	16.968	0	0	0	0	0	0	0	0	0	2
4423	44.23	0	0	0	0	0	0	0	0	0	0	0	0	0	0	0	0	0	0	0	0	0	0	0	0	0	0	0	0	0	0	1	0	0	17.883	2.027	16.961	0	0	0	0	0	0	0	0	0	0	0	0	0	-1	0	-2.0278	-17.891	16.968	0	0	0	0	0	0	0	0	0	2
4424	44.24	0	0	0	0	0	0	10.917	-10.917	18.908	0	0	0	0	0	0	0	0	0	0	0	0	0	0	0	10.989	-10.989	19.033	0	0	0	0	0	0	0	0	0	0	0	0	0	0	0	0	0	0	0	0	0	0	-1	0	-2.0278	-17.891	16.968	0	0	0	0	0	0	0	0	0	2
4425	44.25	0	0	0	0	0	0	0	0	0	0	0	0	0	0	0	0	0	0	0	0	0	0	0	0	0	0	0	0	0	0	1	0	0	17.883	2.027	16.961	0	0	0	0	0	0	0	0	0	0	0	0	0	-1	0	-2.0278	-17.891	16.968	0	0	0	0	0	0	0	0	0	2
4426	44.26	0	0	0	0	0	0	0	0	0	0	0	0	0	0	0	0	0	0	0	0	0	0	0	0	10.989	-10.989	19.033	0	0	0	1	0	0	17.883	2.027	16.961	0	0	0	0	0	0	0	0	0	0	0	0	0	-1	0	-2.0278	-17.891	16.968	0	0	0	0	0	0	0	0	0	2
4427	44.27	0	0	0	0	0	0	10.917	-10.917	18.908	0	0	0	0	0	0	0	0	0	0	0	0	0	0	0	0	0	0	0	0	0	0	0	0	0	0	0	0	0	0	0	0	0	0	0	0	0	0	0	0	-1	0	-2.0278	-17.891	16.968	0	0	0	0	0	0	0	0	0	2
4428	44.28	0	0	0	0	-1	0	-2.0364	-17.814	16.888	0	0	0	0	0	0	0	0	0	0	0	0	0	0	0	10.989	-10.989	19.033	0	0	0	1	0	0	17.883	2.027	16.961	0	0	0	0	0	0	0	0	0	0	0	0	0	0	0	0	0	0	0	0	0	0	0	0	0	0	0	0
4429	44.29	0	0	0	0	0	0	0	0	0	0	0	0	0	0	0	0	0	0	0	0	0	0	-1	0	-2.0266	-17.88	16.957	0	0	0	0	0	0	0	0	0	0	0	0	0	0	0	0	0	0	0	0	0	0	-1	0	-2.0278	-17.891	16.968	0	0	0	0	0	0	0	0	0	2
4430	44.3	0	0	0	0	0	0	0	0	0	0	0	0	0	0	0	0	0	0	0	0	0	0	0	0	0	0	0	0	0	0	1	0	0	17.883	2.027	16.961	0	0	0	0	0	0	10.996	-10.996	19.046	0	0	0	0	-1	0	-2.0278	-17.891	16.968	0	0	0	0	0	0	0	0	0	2
4431	44.31	0	0	0	0	0	0	10.917	-10.917	18.908	0	0	0	0	0	0	0	0	0	0	0	0	0	0	0	0	0	0	0	0	0	1	0	0	17.883	2.027	16.961	0	0	0	0	0	0	0	0	0	0	0	0	0	-1	0	-2.0278	-17.891	16.968	0	0	0	0	0	0	0	0	0	2
4432	44.32	0	0	0	0	0	0	0	0	0	0	0	0	0	0	0	0	0	0	0	0	0	0	0	0	0	0	0	0	0	0	1	0	0	17.883	2.027	16.961	0	0	0	0	0	0	10.996	-10.996	19.046	0	0	0	0	-1	0	-2.0278	-17.891	16.968	0	0	0	0	0	0	0	0	0	2
4433	44.33	0	0	0	0	0	0	0	0	0	0	0	0	0	0	0	0	0	0	0	0	0	0	0	0	0	0	0	0	0	0	1	0	0	17.883	2.027	16.961	0	0	0	0	0	0	10.996	-10.996	19.046	0	0	0	0	-1	0	-2.0278	-17.891	16.968	0	0	0	1	0	0	17.47	2.0148	16.554	2
4434	44.34	0	0	0	0	0	0	0	0	0	0	0	0	0	0	0	0	0	0	0	0	0	0	0	0	0	0	0	0	0	0	0	0	0	0	0	0	0	0	0	0	0	0	0	0	0	0	0	0	1	-1	0	7.5503	-27.469	31.921	0	0	0	0	0	0	10.93	-10.93	18.931	2
4435	44.35	0	0	0	0	0	0	10.917	-10.917	18.908	0	0	0	0	0	0	0	0	0	0	0	0	0	0	0	0	0	0	0	0	0	0	0	0	0	0	0	0	0	0	0	0	0	10.996	-10.996	19.046	0	0	0	0	-1	0	-2.0278	-17.891	16.968	0	0	0	0	0	0	0	0	0	2
4436	44.36	0	0	0	0	0	0	0	0	0	0	0	0	0	0	0	0	0	0	0	0	0	0	0	0	0	0	0	0	0	0	1	0	0	17.761	2.1499	16.789	0	0	0	0	0	0	0	0	0	0	0	0	0	-1	0	-2.0278	-17.891	16.968	0	0	0	1	0	0	17.47	2.0148	16.554	2
4437	44.37	0	0	0	0	0	0	0	0	0	0	0	0	0	0	0	0	0	0	0	0	0	0	0	0	0	0	0	0	0	0	0	0	0	0	0	0	0	0	0	0	0	0	10.996	-10.996	19.046	0	0	0	0	-1	0	-2.0278	-17.891	16.968	0	0	0	0	0	0	0	0	0	2
4438	44.38	0	0	0	0	0	0	10.917	-10.917	18.908	0	0	0	0	0	0	0	0	0	0	0	0	0	0	0	0	0	0	0	0	0	1	0	0	17.883	2.027	16.961	0	0	0	0	0	0	0	0	0	0	0	0	0	-1	0	-2.0278	-17.891	16.968	0	0	0	1	0	0	17.47	2.0148	16.554	2
4439	44.39	0	0	0	0	0	0	0	0	0	0	0	0	0	0	0	0	0	0	0	0	0	0	0	0	0	0	0	0	0	0	0	0	0	0	0	0	0	0	0	0	0	0	10.996	-10.996	19.046	0	0	0	0	-1	0	-2.0278	-17.891	16.968	0	0	0	0	0	0	0	0	0	2
4440	44.4	0	0	0	0	0	0	10.917	-10.917	18.908	0	0	0	0	0	0	0	0	0	0	0	0	0	0	0	0	0	0	0	0	0	1	0	0	17.883	2.027	16.961	0	0	0	0	0	0	10.996	-10.996	19.046	0	0	0	0	-1	0	-2.0278	-17.891	16.968	0	0	0	0	0	0	10.93	-10.93	18.931	2
4441	44.41	0	0	0	0	0	0	10.917	-10.917	18.908	0	0	0	0	0	0	0	0	0	0	0	0	0	0	0	0	0	0	0	0	0	1	0	0	17.883	2.027	16.961	0	0	0	0	0	0	0	0	0	0	0	0	0	-1	0	-2.0278	-17.891	16.968	0	0	0	1	0	0	17.47	2.0148	16.554	2
4442	44.42	0	0	0	0	0	0	10.917	-10.917	18.908	0	0	0	0	0	0	0	0	0	0	0	0	0	0	0	0	0	0	0	0	0	1	0	0	17.883	2.027	16.961	0	0	0	0	0	0	10.996	-10.996	19.046	0	0	0	0	-1	0	-2.0278	-17.891	16.968	0	0	0	0	0	0	0	0	0	2
4443	44.43	0	0	0	0	0	0	0	0	0	0	0	0	0	0	0	0	0	0	0	0	0	0	0	0	0	0	0	0	0	0	1	0	0	17.761	2.1499	16.789	0	0	0	0	0	0	0	0	0	0	0	0	0	-1	0	-2.0278	-17.891	16.968	0	0	0	0	0	0	0	0	0	2
4444	44.44	0	0	0	0	0	0	0	0	0	0	0	0	0	0	0	0	0	0	0	0	0	0	0	0	0	0	0	0	0	0	0	0	0	0	0	0	0	0	0	0	0	0	0	0	0	0	0	0	1	-1	0	7.5503	-27.469	31.921	0	0	0	0	0	0	0	0	0	2
4445	44.45	0	0	0	0	0	0	10.917	-10.917	18.908	0	0	0	0	-1	0	-2.0372	-17.821	16.895	0	0	0	0	0	0	0	0	0	0	0	0	0	0	0	0	0	0	0	0	0	0	0	0	10.996	-10.996	19.046	0	0	0	0	-1	0	-2.0278	-17.891	16.968	0	0	0	0	0	0	0	0	0	0
4446	44.46	0	0	0	0	0	0	10.917	-10.917	18.908	0	0	0	0	0	0	0	0	0	0	0	0	0	0	0	0	0	0	0	0	0	1	0	0	17.883	2.027	16.961	0	0	0	0	0	0	0	0	0	0	0	0	0	-1	0	-2.0278	-17.891	16.968	0	0	0	0	0	0	0	0	0	2
4447	44.47	0	0	0	0	0	0	10.917	-10.917	18.908	0	0	0	0	0	0	0	0	0	0	0	0	0	0	0	0	0	0	0	0	0	1	0	0	17.883	2.027	16.961	0	0	0	0	0	0	0	0	0	0	0	0	0	0	0	0	0	0	0	0	0	0	0	0	0	0	0	2
4448	44.48	0	0	0	0	0	0	0	0	0	0	0	0	0	0	0	0	0	0	0	0	0	0	0	0	0	0	0	0	0	0	1	0	0	17.883	2.027	16.961	0	0	0	0	0	0	0	0	0	0	0	0	0	-1	0	-2.0278	-17.891	16.968	0	0	0	0	0	0	0	0	0	2
4449	44.49	0	0	0	0	0	0	0	0	0	0	0	0	0	0	0	0	0	0	0	0	0	0	0	0	0	0	0	0	0	0	0	0	0	0	0	0	0	0	0	0	0	0	0	0	0	0	0	0	0	-1	0	-2.0278	-17.891	16.968	0	0	0	0	0	0	0	0	0	0
4450	44.5	0	0	0	0	0	0	10.917	-10.917	18.908	0	0	0	0	0	0	0	0	0	0	0	0	0	-1	0	-2.0266	-17.88	16.957	0	0	0	0	0	0	0	0	0	0	0	0	0	0	0	10.996	-10.996	19.046	0	0	0	0	-1	0	-2.0278	-17.891	16.968	0	0	0	0	0	0	0	0	0	2
4451	44.51	0	0	0	0	0	0	10.917	-10.917	18.908	0	0	0	0	0	0	0	0	0	0	0	0	0	0	0	10.989	-10.989	19.033	0	0	0	1	0	0	17.761	2.1499	16.789	0	0	0	0	0	0	0	0	0	0	0	0	1	-1	0	7.5503	-27.469	31.921	0	0	0	0	0	0	0	0	0	2
4452	44.52	0	0	0	0	0	0	0	0	0	0	0	0	0	0	0	0	0	0	0	0	0	0	0	0	0	0	0	0	0	0	1	0	0	17.883	2.027	16.961	0	0	0	0	0	0	10.996	-10.996	19.046	0	0	0	0	-1	0	-2.0278	-17.891	16.968	0	0	0	0	0	0	0	0	0	2
4453	44.53	0	0	0	0	0	0	0	0	0	0	0	0	0	0	0	0	0	0	0	0	0	0	0	0	0	0	0	0	0	0	0	0	0	0	0	0	0	0	0	0	0	0	0	0	0	0	0	0	0	-1	0	-2.0278	-17.891	16.968	0	0	0	1	0	0	17.47	2.0148	16.554	2
4454	44.54	0	0	0	0	0	0	10.917	-10.917	18.908	0	0	0	0	0	0	0	0	0	0	0	0	0	0	0	0	0	0	0	0	0	1	0	0	17.883	2.027	16.961	0	0	0	0	0	0	0	0	0	0	0	0	0	-1	0	-2.0278	-17.891	16.968	0	0	0	0	0	0	0	0	0	2
4455	44.55	0	0	0	0	0	0	0	0	0	0	0	0	0	0	0	0	0	0	0	0	0	0	0	0	0	0	0	0	0	0	1	0	0	17.883	2.027	16.961	0	0	0	0	0	0	10.996	-10.996	19.046	0	0	0	0	-1	0	-2.0278	-17.891	16.968	0	0	0	0	0	0	0	0	0	0
4456	44.56	0	0	0	0	0	0	10.917	-10.917	18.908	0	0	0	0	0	0	0	0	0	0	0	0	0	0	0	0	0	0	0	0	0	0	0	0	0	0	0	0	0	0	0	0	0	0	0	0	0	0	0	0	-1	0	-2.0278	-17.891	16.968	0	0	0	1	0	0	17.471	2.0135	16.556	2
4457	44.57	0	0	0	0	0	0	0	0	0	0	0	0	0	0	0	0	0	0	0	0	0	0	0	0	10.989	-10.989	19.033	0	0	0	1	0	0	17.883	2.027	16.961	0	0	0	0	0	0	0	0	0	0	0	0	0	-1	0	-2.0278	-17.891	16.968	0	0	0	0	0	0	0	0	0	2
4458	44.58	0	0	0	0	0	0	0	0	0	0	0	0	0	0	0	0	0	0	0	0	0	0	0	0	0	0	0	0	0	0	1	0	0	17.883	2.027	16.961	0	0	0	0	0	0	0	0	0	0	0	0	0	-1	0	-2.0278	-17.891	16.968	0	0	0	0	0	0	0	0	0	2
4459	44.59	0	0	0	0	0	0	0	0	0	0	0	0	0	0	0	0	0	0	0	0	0	0	0	0	10.989	-10.989	19.033	0	0	0	0	0	0	0	0	0	0	0	0	0	0	0	0	0	0	0	0	0	0	-1	0	-2.0278	-17.891	16.968	0	0	0	0	0	0	0	0	0	2
4460	44.6	0	0	0	0	0	0	0	0	0	0	0	0	0	0	0	0	0	0	0	0	0	0	0	0	0	0	0	0	0	0	0	0	0	0	0	0	0	0	0	0	0	0	0	0	0	0	0	0	0	-1	0	-2.0278	-17.891	16.968	0	0	0	0	0	0	0	0	0	2
4461	44.61	0	0	0	0	0	0	0	0	0	0	0	0	0	0	0	0	0	0	0	0	0	0	0	0	0	0	0	0	0	0	1	0	0	17.883	2.027	16.961	0	0	0	0	0	0	0	0	0	0	0	0	0	-1	0	-2.0278	-17.891	16.968	0	0	0	1	0	0	17.471	2.0135	16.556	2
4462	44.62	0	0	0	0	-1	0	-2.0364	-17.814	16.888	0	0	0	0	-1	0	-2.0366	-17.816	16.89	0	0	0	0	0	0	0	0	0	0	0	0	0	0	0	0	0	0	0	0	0	0	-1	0	-2.1508	-17.769	16.797	0	0	0	0	-1	0	-2.0278	-17.891	16.968	0	0	0	0	0	0	0	0	0	2
4463	44.63	0	0	0	0	0	0	0	0	0	0	0	0	0	0	0	0	0	0	0	0	0	0	0	0	0	0	0	0	0	0	1	0	0	17.883	2.027	16.961	0	0	0	0	0	0	10.996	-10.996	19.046	0	0	0	0	0	0	0	0	0	0	0	0	0	0	0	0	0	0	0
4464	44.64	0	0	0	0	0	0	10.917	-10.917	18.908	0	0	0	0	0	0	0	0	0	0	0	0	0	0	0	0	0	0	0	0	0	0	0	0	0	0	0	0	0	0	0	0	0	0	0	0	0	0	0	0	-1	0	-2.0278	-17.891	16.968	0	0	0	1	0	0	17.482	2.0162	16.566	2
4465	44.65	0	0	0	0	0	0	0	0	0	0	0	0	0	0	0	0	0	0	0	0	0	0	0	0	0	0	0	0	0	0	0	0	0	0	0	0	0	0	0	0	0	0	10.996	-10.996	19.046	0	0	0	0	-1	0	-2.0278	-17.891	16.968	0	0	0	0	0	0	0	0	0	0
4466	44.66	0	0	0	0	0	0	10.917	-10.917	18.908	0	0	0	0	0	0	0	0	0	0	0	0	0	0	0	0	0	0	0	0	0	1	0	0	17.883	2.027	16.961	0	0	0	1	0	0	17.883	2.027	16.961	0	0	0	0	-1	0	-2.0278	-17.891	16.968	0	0	0	0	0	0	0	0	0	2
4467	44.67	0	0	0	0	0	0	0	0	0	0	0	0	0	0	0	0	0	0	0	0	0	0	0	0	0	0	0	0	0	0	0	0	0	0	0	0	0	0	0	0	0	0	10.996	-10.996	19.046	0	0	0	0	-1	0	-2.0278	-17.891	16.968	0	0	0	0	0	0	0	0	0	2
4468	44.68	0	0	0	0	0	0	0	0	0	0	0	0	0	0	0	0	0	0	0	0	0	0	0	0	0	0	0	0	0	0	1	0	0	17.883	2.027	16.961	0	0	0	0	0	0	0	0	0	0	0	0	0	-1	0	-2.0278	-17.891	16.968	0	0	0	0	0	0	0	0	0	2
4469	44.69	0	0	0	0	0	0	0	0	0	0	0	0	0	0	0	0	0	0	0	0	0	0	0	0	0	0	0	0	0	0	1	0	0	17.883	2.027	16.961	0	0	0	0	0	0	0	0	0	0	0	0	0	-1	0	-2.0278	-17.891	16.968	0	0	0	1	0	0	17.471	2.0135	16.556	2
4470	44.7	0	0	0	0	0	0	0	0	0	0	0	0	0	0	0	0	0	0	0	0	0	0	0	0	0	0	0	0	0	0	1	0	0	17.883	2.027	16.961	0	0	0	0	0	0	10.996	-10.996	19.046	0	0	0	0	-1	0	-2.0278	-17.891	16.968	0	0	0	0	0	0	0	0	0	0
4471	44.71	0	0	0	0	0	0	10.917	-10.917	18.908	0	0	0	0	0	0	0	0	0	0	0	0	0	0	0	10.989	-10.989	19.033	0	0	0	1	0	0	17.883	2.027	16.961	0	0	0	0	0	0	0	0	0	0	0	0	0	-1	0	-2.0278	-17.891	16.968	0	0	0	1	0	0	17.47	2.0148	16.554	2
4472	44.72	0	0	0	0	0	0	0	0	0	0	0	0	0	0	0	0	0	0	0	0	0	0	0	0	10.989	-10.989	19.033	0	0	0	1	0	0	17.883	2.027	16.961	0	0	0	0	0	0	0	0	0	0	0	0	0	-1	0	-2.0278	-17.891	16.968	0	0	0	0	0	0	0	0	0	2
4473	44.73	0	0	0	0	0	0	0	0	0	0	0	0	0	0	0	0	0	0	0	0	0	0	0	0	0	0	0	0	0	0	1	0	0	17.883	2.027	16.961	0	0	0	0	0	0	0	0	0	0	0	0	0	-1	0	-2.0278	-17.891	16.968	0	0	0	0	0	0	0	0	0	2
4474	44.74	0	0	0	0	0	0	0	0	0	0	0	0	0	0	0	0	0	0	0	0	0	0	0	0	0	0	0	0	0	0	0	0	0	0	0	0	0	0	0	0	-1	0	-2.0279	-17.891	16.969	0	0	0	0	-1	0	-2.0278	-17.891	16.968	0	0	0	0	0	0	0	0	0	2
4475	44.75	0	0	0	0	0	0	0	0	0	0	0	0	0	0	0	0	0	0	0	0	0	0	-1	0	-2.0266	-17.88	16.957	0	0	0	0	0	0	0	0	0	0	0	0	0	0	0	0	0	0	0	0	0	1	-1	0	7.5503	-27.469	31.921	0	0	0	0	0	0	0	0	0	2
4476	44.76	0	0	0	0	0	0	0	0	0	0	0	0	0	0	0	0	0	0	0	0	0	0	0	0	10.989	-10.989	19.033	0	0	0	1	0	0	17.883	2.027	16.961	0	0	0	0	0	0	0	0	0	0	0	0	0	0	0	0	0	0	0	0	0	0	0	0	0	0	0	2
4477	44.77	0	0	0	0	0	0	0	0	0	0	0	0	0	0	0	0	0	0	0	0	0	0	0	0	0	0	0	0	0	0	1	0	0	17.883	2.027	16.961	0	0	0	0	0	0	10.996	-10.996	19.046	0	0	0	0	-1	0	-2.0278	-17.891	16.968	0	0	0	0	0	0	0	0	0	2
4478	44.78	0	0	0	0	0	0	0	0	0	0	0	0	0	0	0	0	0	0	0	0	0	0	0	0	0	0	0	0	0	0	1	0	0	17.883	2.027	16.961	0	0	0	0	0	0	10.996	-10.996	19.046	0	0	0	0	-1	0	-2.0278	-17.891	16.968	0	0	0	0	0	0	0	0	0	2
4479	44.79	0	0	0	0	0	0	10.917	-10.917	18.908	0	0	0	0	0	0	0	0	0	0	0	0	0	0	0	0	0	0	0	0	0	0	0	0	0	0	0	0	0	0	0	0	0	0	0	0	0	0	0	0	-1	0	-2.0278	-17.891	16.968	0	0	0	0	0	0	0	0	0	2
4480	44.8	0	0	0	0	0	0	0	0	0	0	0	0	0	0	0	0	0	0	0	0	0	0	-1	0	-2.0266	-17.88	16.957	0	0	0	0	0	0	0	0	0	0	0	0	0	0	0	0	0	0	0	0	0	0	-1	0	-2.0278	-17.891	16.968	0	0	0	0	0	0	0	0	0	2
4481	44.81	0	0	0	0	0	0	0	0	0	0	0	0	0	0	0	0	0	0	0	0	0	0	0	0	0	0	0	0	0	0	0	0	0	10.991	-10.991	19.037	0	0	0	0	0	0	0	0	0	0	0	0	1	-1	0	7.5503	-27.469	31.921	0	0	0	1	0	0	17.482	2.0162	16.566	2
4482	44.82	0	0	0	0	0	0	0	0	0	0	0	0	0	0	0	0	0	0	0	0	0	0	0	0	0	0	0	0	0	0	1	0	0	17.883	2.027	16.961	0	0	0	0	0	0	0	0	0	0	0	0	0	-1	0	-2.0278	-17.891	16.968	0	0	0	0	0	0	0	0	0	2
4483	44.83	0	0	0	0	0	0	0	0	0	0	0	0	0	0	0	0	0	0	0	0	0	0	0	0	0	0	0	0	0	0	1	0	0	17.883	2.027	16.961	0	0	0	0	0	0	0	0	0	0	0	0	0	-1	0	-2.0278	-17.891	16.968	0	0	0	0	0	0	0	0	0	2
4484	44.84	0	0	0	0	0	0	10.917	-10.917	18.908	0	0	0	0	0	0	0	0	0	0	0	0	0	-1	0	-2.0266	-17.88	16.957	0	0	0	1	0	0	17.883	2.027	16.961	0	0	0	0	0	0	0	0	0	0	0	0	0	-1	0	-2.0278	-17.891	16.968	0	0	0	0	0	0	0	0	0	2
4485	44.85	0	0	0	0	0	0	0	0	0	0	0	0	0	0	0	0	0	0	0	0	0	0	0	0	0	0	0	0	0	0	1	0	0	17.883	2.027	16.961	0	0	0	0	0	0	0	0	0	0	0	0	0	-1	0	-2.0278	-17.891	16.968	0	0	0	0	0	0	0	0	0	2
4486	44.86	0	0	0	0	0	0	10.917	-10.917	18.908	0	0	0	0	0	0	0	0	0	0	0	0	0	0	0	10.989	-10.989	19.033	0	0	0	1	0	0	17.883	2.027	16.961	0	0	0	0	0	0	0	0	0	0	0	0	0	-1	0	-2.0278	-17.891	16.968	0	0	0	0	0	0	0	0	0	0
4487	44.87	0	0	0	0	0	0	10.917	-10.917	18.908	0	0	0	0	0	0	0	0	0	0	0	0	0	0	0	0	0	0	0	0	0	1	0	0	17.883	2.027	16.961	0	0	0	0	0	0	0	0	0	0	0	0	0	-1	0	-2.0278	-17.891	16.968	0	0	0	0	0	0	0	0	0	2
4488	44.88	0	0	0	0	0	0	0	0	0	0	0	0	0	0	0	0	0	0	0	0	0	0	0	0	10.989	-10.989	19.033	0	0	0	1	0	0	17.883	2.027	16.961	0	0	0	0	0	0	0	0	0	0	0	0	0	-1	0	-2.0278	-17.891	16.968	0	0	0	0	0	0	0	0	0	2
4489	44.89	0	0	0	0	0	0	0	0	0	0	0	0	0	0	0	0	0	0	0	0	0	0	0	0	0	0	0	0	0	0	1	0	0	17.883	2.027	16.961	0	0	0	0	0	0	0	0	0	0	0	0	0	-1	0	-2.0278	-17.891	16.968	0	0	0	0	0	0	0	0	0	2
4490	44.9	0	0	0	0	0	0	0	0	0	0	0	0	0	0	0	0	0	0	0	0	0	0	0	0	0	0	0	0	0	0	1	0	0	17.883	2.027	16.961	0	0	0	0	0	0	0	0	0	0	0	0	0	-1	0	-2.0278	-17.891	16.968	0	0	0	0	0	0	0	0	0	2
4491	44.91	0	0	0	0	0	0	0	0	0	0	0	0	0	0	0	0	0	0	0	0	0	0	0	0	0	0	0	0	0	0	1	0	0	17.883	2.027	16.961	0	0	0	0	0	0	10.996	-10.996	19.046	0	0	0	0	0	0	10.994	-10.994	19.042	0	0	0	1	0	0	17.482	2.0162	16.566	2
4492	44.92	0	0	0	0	0	0	0	0	0	0	0	0	0	0	0	0	0	0	0	0	0	0	0	0	0	0	0	0	0	0	0	0	0	0	0	0	0	0	0	0	0	0	0	0	0	0	0	0	0	-1	0	-2.0278	-17.891	16.968	0	0	0	0	0	0	0	0	0	2
4493	44.93	0	0	0	0	0	0	10.917	-10.917	18.908	0	0	0	0	-1	0	-2.0366	-17.816	16.89	0	0	0	0	0	0	0	0	0	0	0	0	1	0	0	17.883	2.027	16.961	0	0	0	0	0	0	0	0	0	0	0	0	0	-1	0	-2.0278	-17.891	16.968	0	0	0	1	0	0	17.482	2.0162	16.566	0
4494	44.94	0	0	0	0	0	0	0	0	0	0	0	0	0	0	0	0	0	0	0	0	0	0	0	0	0	0	0	0	0	0	1	0	0	17.883	2.027	16.961	0	0	0	0	0	0	0	0	0	0	0	0	0	-1	0	-2.0278	-17.891	16.968	0	0	0	0	0	0	0	0	0	2
4495	44.95	0	0	0	0	0	0	0	0	0	0	0	0	0	0	0	0	0	0	0	0	0	0	0	0	0	0	0	0	0	0	0	0	0	0	0	0	0	0	0	0	0	0	0	0	0	0	0	0	0	-1	0	-2.0278	-17.891	16.968	0	0	0	0	0	0	0	0	0	2
4496	44.96	0	0	0	0	0	0	0	0	0	0	0	0	0	0	0	0	0	0	0	0	0	0	0	0	10.989	-10.989	19.033	0	0	0	1	0	0	17.883	2.027	16.961	0	0	0	0	0	0	0	0	0	0	0	0	0	-1	0	-2.0278	-17.891	16.968	0	0	0	0	0	0	0	0	0	2
4497	44.97	0	0	0	0	0	0	0	0	0	0	0	0	0	0	0	0	0	0	0	0	0	0	0	0	0	0	0	0	0	0	1	0	0	17.883	2.027	16.961	0	0	0	0	0	0	0	0	0	0	0	0	0	-1	0	-2.0278	-17.891	16.968	0	0	0	0	0	0	0	0	0	2
4498	44.98	0	0	0	0	0	0	0	0	0	0	0	0	0	0	0	0	0	0	0	0	0	0	0	0	0	0	0	0	0	0	1	0	0	17.883	2.027	16.961	0	0	0	0	0	0	0	0	0	0	0	0	0	-1	0	-2.0278	-17.891	16.968	0	0	0	0	0	0	0	0	0	2
4499	44.99	0	0	0	0	0	0	0	0	0	0	0	0	0	0	0	0	0	0	0	0	0	0	0	0	0	0	0	0	0	0	1	0	0	17.883	2.027	16.961	0	0	0	0	0	0	0	0	0	0	0	0	0	-1	0	-2.0278	-17.891	16.968	0	0	0	0	0	0	0	0	0	2
4500	45	0	0	0	0	0	0	0	0	0	0	0	0	0	0	0	0	0	0	0	0	0	0	0	0	0	0	0	0	0	0	0	0	0	0	0	0	0	0	0	0	0	0	0	0	0	0	0	0	0	-1	0	-2.0278	-17.891	16.968	0	0	0	1	0	0	17.47	2.0148	16.554	0
4501	45.01	0	0	0	0	0	0	0	0	0	0	0	0	0	0	0	0	0	0	0	0	0	0	0	0	0	0	0	0	0	0	1	0	0	17.883	2.027	16.961	0	0	0	0	0	0	0	0	0	0	0	0	1	-1	0	7.5503	-27.469	31.921	0	0	0	0	0	0	0	0	0	2
4502	45.02	0	0	0	0	0	0	0	0	0	0	0	0	0	0	0	0	0	0	0	0	0	0	0	0	0	0	0	0	0	0	0	0	0	0	0	0	0	0	0	0	0	0	0	0	0	0	0	0	0	-1	0	-2.0278	-17.891	16.968	0	0	0	0	0	0	0	0	0	2
4503	45.03	0	0	0	0	0	0	0	0	0	0	0	0	0	0	0	0	0	0	0	0	0	0	0	0	0	0	0	0	0	0	1	0	0	17.883	2.027	16.961	0	0	0	0	0	0	0	0	0	0	0	0	1	-1	0	7.5503	-27.469	31.921	0	0	0	0	0	0	0	0	0	2
4504	45.04	0	0	0	0	0	0	0	0	0	0	0	0	0	0	0	0	0	0	0	0	0	0	0	0	0	0	0	0	0	0	1	0	0	17.883	2.027	16.961	0	0	0	0	0	0	0	0	0	0	0	0	0	-1	0	-2.0278	-17.891	16.968	0	0	0	0	0	0	0	0	0	2
4505	45.05	0	0	0	0	0	0	0	0	0	0	0	0	0	0	0	0	0	0	0	0	0	0	0	0	0	0	0	0	0	0	1	0	0	17.883	2.027	16.961	0	0	0	0	0	0	10.996	-10.996	19.046	0	0	0	0	-1	0	-2.0278	-17.891	16.968	0	0	0	0	0	0	0	0	0	0
4506	45.06	0	0	0	0	0	0	0	0	0	0	0	0	0	0	0	0	0	0	0	0	0	0	0	0	10.989	-10.989	19.033	0	0	0	0	0	0	0	0	0	0	0	0	0	0	0	10.996	-10.996	19.046	0	0	0	0	-1	0	-2.0278	-17.891	16.968	0	0	0	0	0	0	10.93	-10.93	18.931	2
4507	45.07	0	0	0	0	0	0	0	0	0	0	0	0	0	0	0	0	0	0	0	0	0	0	0	0	10.989	-10.989	19.033	0	0	0	0	0	0	0	0	0	0	0	0	0	0	0	0	0	0	0	0	0	0	-1	0	-2.0278	-17.891	16.968	0	0	0	0	0	0	0	0	0	2
4508	45.08	0	0	0	0	0	0	0	0	0	0	0	0	0	0	0	0	0	0	0	0	0	0	0	0	0	0	0	0	0	0	0	0	0	0	0	0	0	0	0	0	0	0	0	0	0	0	0	0	0	-1	0	-2.0278	-17.891	16.968	0	0	0	0	0	0	0	0	0	0
4509	45.09	0	0	0	0	0	0	0	0	0	0	0	0	0	0	0	0	0	0	0	0	0	0	0	0	0	0	0	0	0	0	1	0	0	17.883	2.027	16.961	0	0	0	0	0	0	10.996	-10.996	19.046	0	0	0	0	-1	0	-2.0278	-17.891	16.968	0	0	0	0	0	0	0	0	0	2
4510	45.1	0	0	0	0	0	0	10.917	-10.917	18.908	0	0	0	0	0	0	0	0	0	0	0	0	0	0	0	0	0	0	0	0	0	0	0	0	0	0	0	0	0	0	0	0	0	0	0	0	0	0	0	0	0	0	0	0	0	0	0	0	0	0	0	0	0	0	2
4511	45.11	0	0	0	1	-1	0	7.4664	-27.317	31.716	0	0	0	0	0	0	0	0	0	0	0	0	0	0	0	10.989	-10.989	19.033	0	0	0	0	0	0	0	0	0	0	0	0	0	0	0	0	0	0	0	0	0	0	-1	0	-2.0278	-17.891	16.968	0	0	0	1	0	0	17.47	2.0148	16.554	2
4512	45.12	0	0	0	0	0	0	0	0	0	0	0	0	0	0	0	0	0	0	0	0	0	0	0	0	0	0	0	0	0	0	0	0	0	0	0	0	0	0	0	0	0	0	0	0	0	0	0	0	0	-1	0	-2.0278	-17.891	16.968	0	0	0	0	0	0	0	0	0	2
4513	45.13	0	0	0	0	0	0	0	0	0	0	0	0	0	0	0	0	0	0	0	0	0	0	0	0	10.989	-10.989	19.033	0	0	0	1	0	0	17.883	2.027	16.961	0	0	0	0	0	0	10.996	-10.996	19.046	0	0	0	0	-1	0	-2.0278	-17.891	16.968	0	0	0	1	0	0	17.47	2.0148	16.554	0
4514	45.14	0	0	0	0	0	0	10.917	-10.917	18.908	0	0	0	0	0	0	0	0	0	0	0	0	0	0	0	0	0	0	0	0	0	0	0	0	0	0	0	0	0	0	0	0	0	0	0	0	0	0	0	0	-1	0	-2.0278	-17.891	16.968	0	0	0	0	0	0	0	0	0	2
4515	45.15	0	0	0	0	0	0	0	0	0	0	0	0	0	0	0	0	0	0	0	0	0	0	0	0	0	0	0	0	0	0	0	0	0	0	0	0	0	0	0	0	0	0	0	0	0	0	0	0	0	-1	0	-2.0278	-17.891	16.968	0	0	0	0	0	0	0	0	0	2
4516	45.16	0	0	0	0	0	0	10.917	-10.917	18.908	0	0	0	0	0	0	0	0	0	0	0	0	0	0	0	0	0	0	0	0	0	1	0	0	17.883	2.027	16.961	0	0	0	0	0	0	0	0	0	0	0	0	0	-1	0	-2.0278	-17.891	16.968	0	0	0	1	0	0	17.47	2.0148	16.554	2
4517	45.17	0	0	0	0	0	0	0	0	0	0	0	0	0	0	0	0	0	0	0	0	0	0	0	0	0	0	0	0	0	0	1	0	0	17.883	2.027	16.961	0	0	0	0	0	0	0	0	0	0	0	0	0	-1	0	-2.0278	-17.891	16.968	0	0	0	0	0	0	0	0	0	2
4518	45.18	0	0	0	0	0	0	0	0	0	0	0	0	0	0	0	0	0	0	0	0	0	0	0	0	10.989	-10.989	19.033	0	0	0	0	0	0	0	0	0	0	0	0	0	-1	0	-2.0279	-17.891	16.969	0	0	0	0	-1	0	-2.0278	-17.891	16.968	0	0	0	1	0	0	17.47	2.0148	16.554	2
4519	45.19	0	0	0	0	0	0	0	0	0	0	0	0	0	0	0	0	0	0	0	0	0	0	0	0	0	0	0	0	0	0	1	0	0	17.883	2.027	16.961	0	0	0	0	0	0	0	0	0	0	0	0	0	-1	0	-2.0278	-17.891	16.968	0	0	0	0	0	0	0	0	0	2
4520	45.2	0	0	0	0	0	0	10.917	-10.917	18.908	0	0	0	0	0	0	0	0	0	0	0	0	0	0	0	0	0	0	0	0	0	1	0	0	17.883	2.027	16.961	0	0	0	0	0	0	0	0	0	0	0	0	0	-1	0	-2.0278	-17.891	16.968	0	0	0	1	0	0	17.482	2.0162	16.566	2
4521	45.21	0	0	0	0	0	0	0	0	0	0	0	0	0	0	0	0	0	0	0	0	0	0	0	0	0	0	0	0	0	0	0	0	0	0	0	0	0	0	0	0	0	0	0	0	0	0	0	0	0	-1	0	-2.0278	-17.891	16.968	0	0	0	0	0	0	0	0	0	2
4522	45.22	0	0	0	0	0	0	10.917	-10.917	18.908	0	0	0	0	0	0	0	0	0	0	0	0	0	-1	0	-2.0266	-17.88	16.957	0	0	0	0	0	0	0	0	0	0	0	0	0	0	0	0	0	0	0	0	0	0	-1	0	-2.0278	-17.891	16.968	0	0	0	0	0	0	0	0	0	2
4523	45.23	0	0	0	0	0	0	0	0	0	0	0	0	0	0	0	0	0	0	0	0	0	0	0	0	0	0	0	0	0	0	1	0	0	17.883	2.027	16.961	0	0	0	0	0	0	0	0	0	0	0	0	0	-1	0	-2.0278	-17.891	16.968	0	0	0	0	0	0	0	0	0	2
4524	45.24	0	0	0	0	0	0	0	0	0	0	0	0	0	0	0	0	0	0	0	0	0	0	0	0	10.989	-10.989	19.033	0	0	0	1	0	0	17.883	2.027	16.961	0	0	0	0	0	0	0	0	0	0	0	0	0	0	0	0	0	0	0	0	0	0	0	0	0	0	0	2
4525	45.25	0	0	0	0	0	0	0	0	0	0	0	0	0	0	0	0	0	0	0	0	0	0	0	0	0	0	0	0	0	0	0	0	0	0	0	0	0	0	0	0	0	0	0	0	0	0	0	0	0	0	0	0	0	0	0	0	0	0	0	0	0	0	0	2
4526	45.26	0	0	0	0	0	0	10.917	-10.917	18.908	0	0	0	0	0	0	0	0	0	0	0	0	0	0	0	0	0	0	0	0	0	1	0	0	17.883	2.027	16.961	0	0	0	0	0	0	0	0	0	0	0	0	0	-1	0	-2.0278	-17.891	16.968	0	0	0	0	0	0	0	0	0	2
4527	45.27	0	0	0	0	0	0	0	0	0	0	0	0	0	0	0	0	0	0	0	0	0	0	0	0	0	0	0	0	0	0	0	0	0	0	0	0	0	0	0	0	0	0	0	0	0	0	0	0	0	-1	0	-2.0278	-17.891	16.968	0	0	0	0	0	0	0	0	0	2
4528	45.28	0	0	0	0	0	0	0	0	0	0	0	0	0	0	0	0	0	0	0	0	0	0	0	0	0	0	0	0	0	0	1	0	0	17.883	2.027	16.961	0	0	0	0	0	0	0	0	0	0	0	0	0	-1	0	-2.0278	-17.891	16.968	0	0	0	1	0	0	17.47	2.0148	16.554	2
4529	45.29	0	0	0	0	0	0	0	0	0	0	0	0	0	0	0	0	0	0	0	0	0	0	0	0	10.989	-10.989	19.033	0	0	0	1	0	0	17.761	2.1499	16.789	0	0	0	0	0	0	0	0	0	0	0	0	0	-1	0	-2.0278	-17.891	16.968	0	0	0	0	0	0	0	0	0	2
4530	45.3	0	0	0	0	0	0	0	0	0	0	0	0	0	0	0	0	0	0	0	0	0	0	0	0	0	0	0	0	0	0	0	0	0	0	0	0	0	0	0	0	0	0	0	0	0	0	0	0	0	-1	0	-2.0278	-17.891	16.968	0	0	0	0	0	0	0	0	0	2
4531	45.31	0	0	0	0	0	0	0	0	0	0	0	0	0	0	0	0	0	0	0	0	0	0	0	0	10.989	-10.989	19.033	0	0	0	1	0	0	17.883	2.027	16.961	0	0	0	0	0	0	0	0	0	0	0	0	0	-1	0	-2.0278	-17.891	16.968	0	0	0	0	0	0	0	0	0	2
4532	45.32	0	0	0	0	0	0	10.917	-10.917	18.908	0	0	0	0	0	0	0	0	0	0	0	0	0	0	0	0	0	0	0	0	0	0	0	0	0	0	0	0	0	0	0	0	0	0	0	0	0	0	0	0	-1	0	-2.0278	-17.891	16.968	0	0	0	0	0	0	0	0	0	2
4533	45.33	0	0	0	0	0	0	0	0	0	0	0	0	0	0	0	0	0	0	0	0	0	0	0	0	0	0	0	0	0	0	1	0	0	17.883	2.027	16.961	0	0	0	0	0	0	0	0	0	0	0	0	0	-1	0	-2.0278	-17.891	16.968	0	0	0	0	0	0	0	0	0	2
4534	45.34	0	0	0	0	0	0	0	0	0	0	0	0	0	0	0	0	0	0	0	0	0	0	0	0	0	0	0	0	0	0	1	0	0	17.883	2.027	16.961	0	0	0	0	0	0	0	0	0	0	0	0	0	0	0	0	0	0	0	0	0	0	0	0	0	0	0	2
4535	45.35	0	0	0	0	0	0	10.917	-10.917	18.908	0	0	0	0	0	0	0	0	0	0	0	0	0	0	0	0	0	0	0	0	0	1	0	0	17.883	2.027	16.961	0	0	0	0	0	0	10.996	-10.996	19.046	0	0	0	0	-1	0	-2.0278	-17.891	16.968	0	0	0	0	0	0	0	0	0	2
4536	45.36	0	0	0	0	0	0	10.917	-10.917	18.908	0	0	0	0	0	0	0	0	0	0	0	0	0	0	0	10.989	-10.989	19.033	0	0	0	0	0	0	0	0	0	0	0	0	0	0	0	0	0	0	0	0	0	0	-1	0	-2.0278	-17.891	16.968	0	0	0	0	0	0	0	0	0	0
4537	45.37	0	0	0	0	0	0	0	0	0	0	0	0	0	0	0	0	0	0	0	0	0	0	0	0	0	0	0	0	0	0	1	0	0	17.883	2.027	16.961	0	0	0	0	0	0	0	0	0	0	0	0	0	-1	0	-2.0278	-17.891	16.968	0	0	0	0	0	0	0	0	0	2
4538	45.38	0	0	0	0	0	0	10.917	-10.917	18.908	0	0	0	0	0	0	0	0	0	0	0	0	0	0	0	0	0	0	0	0	0	1	0	0	17.761	2.1499	16.789	0	0	0	0	0	0	0	0	0	0	0	0	0	-1	0	-2.0278	-17.891	16.968	0	0	0	0	0	0	0	0	0	2
4539	45.39	0	0	0	0	0	0	0	0	0	0	0	0	0	0	0	0	0	0	0	0	0	0	0	0	0	0	0	0	0	0	1	0	0	17.883	2.027	16.961	0	0	0	0	0	0	0	0	0	0	0	0	0	-1	0	-2.0278	-17.891	16.968	0	0	0	0	0	0	0	0	0	2
4540	45.4	0	0	0	0	0	0	0	0	0	0	0	0	0	0	0	0	0	0	0	0	0	0	0	0	0	0	0	0	0	0	1	0	0	17.883	2.027	16.961	0	0	0	0	0	0	0	0	0	0	0	0	0	-1	0	-2.0278	-17.891	16.968	0	0	0	0	0	0	0	0	0	2
4541	45.41	0	0	0	0	0	0	0	0	0	0	0	0	0	0	0	0	0	0	0	0	0	0	0	0	0	0	0	0	0	0	1	0	0	17.883	2.027	16.961	0	0	0	0	0	0	0	0	0	0	0	0	0	-1	0	-2.0278	-17.891	16.968	0	0	0	0	0	0	0	0	0	2
4542	45.42	0	0	0	0	0	0	0	0	0	0	0	0	0	0	0	0	0	0	0	0	0	0	0	0	0	0	0	0	0	0	0	0	0	0	0	0	0	0	0	0	0	0	0	0	0	0	0	0	0	-1	0	-2.0278	-17.891	16.968	0	0	0	0	0	0	0	0	0	2
4543	45.43	0	0	0	0	0	0	0	0	0	0	0	0	0	0	0	0	0	0	0	0	0	0	0	0	0	0	0	0	0	0	1	0	0	17.883	2.027	16.961	0	0	0	0	0	0	0	0	0	0	0	0	0	-1	0	-2.0278	-17.891	16.968	0	0	0	0	0	0	0	0	0	0
4544	45.44	0	0	0	0	0	0	0	0	0	0	0	0	0	0	0	0	0	0	0	0	0	0	0	0	0	0	0	0	0	0	0	0	0	0	0	0	0	0	0	0	0	0	0	0	0	0	0	0	0	-1	0	-2.0278	-17.891	16.968	0	0	0	1	0	0	17.47	2.0148	16.554	2
4545	45.45	0	0	0	0	0	0	10.917	-10.917	18.908	0	0	0	0	0	0	0	0	0	0	0	0	0	0	0	0	0	0	0	0	0	0	0	0	0	0	0	0	0	0	0	0	0	0	0	0	0	0	0	0	-1	0	-2.0278	-17.891	16.968	0	0	0	0	0	0	0	0	0	2
4546	45.46	0	0	0	0	0	0	10.917	-10.917	18.908	0	0	0	0	0	0	0	0	0	0	0	0	0	0	0	10.989	-10.989	19.033	0	0	0	0	0	0	0	0	0	0	0	0	0	0	0	0	0	0	0	0	0	0	-1	0	-2.0278	-17.891	16.968	0	0	0	0	0	0	0	0	0	2
4547	45.47	0	0	0	0	0	0	0	0	0	0	0	0	0	0	0	0	0	0	0	0	0	0	0	0	0	0	0	0	0	0	1	0	0	17.883	2.027	16.961	0	0	0	0	0	0	0	0	0	0	0	0	0	-1	0	-2.0278	-17.891	16.968	0	0	0	0	0	0	0	0	0	2
4548	45.48	0	0	0	0	0	0	10.917	-10.917	18.908	0	0	0	0	0	0	0	0	0	0	0	0	0	0	0	0	0	0	0	0	0	1	0	0	17.883	2.027	16.961	0	0	0	0	0	0	0	0	0	0	0	0	0	-1	0	-2.0278	-17.891	16.968	0	0	0	0	0	0	0	0	0	2
4549	45.49	0	0	0	0	0	0	0	0	0	0	0	0	0	0	0	0	0	0	0	0	0	0	0	0	0	0	0	0	0	0	0	0	0	0	0	0	0	0	0	0	0	0	0	0	0	0	0	0	0	-1	0	-2.0278	-17.891	16.968	0	0	0	0	0	0	0	0	0	2
4550	45.5	0	0	0	0	0	0	0	0	0	0	0	0	0	0	0	0	0	0	0	0	0	0	0	0	0	0	0	0	0	0	1	0	0	17.883	2.027	16.961	0	0	0	0	0	0	0	0	0	0	0	0	0	0	0	0	0	0	0	0	0	0	0	0	0	0	0	2
4551	45.51	0	0	0	0	0	0	10.917	-10.917	18.908	0	0	0	0	0	0	0	0	0	0	0	0	0	0	0	0	0	0	0	0	0	1	0	0	17.883	2.027	16.961	0	0	0	1	0	0	17.883	2.027	16.961	0	0	0	0	-1	0	-2.0278	-17.891	16.968	0	0	0	0	0	0	10.93	-10.93	18.931	2
4552	45.52	0	0	0	0	0	0	10.917	-10.917	18.908	0	0	0	0	0	0	0	0	0	0	0	0	0	0	0	0	0	0	0	0	0	1	0	0	17.883	2.027	16.961	0	0	0	0	0	0	0	0	0	0	0	0	0	-1	0	-2.0278	-17.891	16.968	0	0	0	0	0	0	0	0	0	2
4553	45.53	0	0	0	0	0	0	0	0	0	0	0	0	0	0	0	0	0	0	0	0	0	0	0	0	0	0	0	0	0	0	1	0	0	17.883	2.027	16.961	0	0	0	0	0	0	0	0	0	0	0	0	0	-1	0	-2.0278	-17.891	16.968	0	0	0	1	0	0	17.47	2.0148	16.554	0
4554	45.54	0	0	0	0	0	0	0	0	0	0	0	0	0	0	0	0	0	0	0	0	0	0	0	0	10.989	-10.989	19.033	0	0	0	0	0	0	0	0	0	0	0	0	0	0	0	0	0	0	0	0	0	0	-1	0	-2.0278	-17.891	16.968	0	0	0	0	0	0	0	0	0	2
4555	45.55	0	0	0	0	0	0	0	0	0	0	0	0	0	0	0	0	0	0	0	0	0	0	0	0	0	0	0	0	0	0	1	0	0	17.883	2.027	16.961	0	0	0	0	0	0	0	0	0	0	0	0	0	-1	0	-2.0278	-17.891	16.968	0	0	0	0	0	0	0	0	0	2
4556	45.56	0	0	0	0	0	0	0	0	0	0	0	0	0	0	0	0	0	0	0	0	0	0	0	0	10.989	-10.989	19.033	0	0	0	1	0	0	17.883	2.027	16.961	0	0	0	0	0	0	0	0	0	0	0	0	0	-1	0	-2.0278	-17.891	16.968	0	0	0	0	0	0	0	0	0	2
4557	45.57	0	0	0	0	0	0	0	0	0	0	0	0	0	0	0	0	0	0	0	0	0	0	0	0	0	0	0	0	0	0	0	0	0	0	0	0	0	0	0	0	0	0	0	0	0	0	0	0	0	-1	0	-2.0278	-17.891	16.968	0	0	0	0	0	0	0	0	0	2
4558	45.58	0	0	0	0	0	0	0	0	0	0	0	0	0	0	0	0	0	0	0	0	0	0	0	0	10.989	-10.989	19.033	0	0	0	1	0	0	17.883	2.027	16.961	0	0	0	0	0	0	0	0	0	0	0	0	1	-1	0	7.5503	-27.469	31.921	0	0	0	0	0	0	10.93	-10.93	18.931	2
4559	45.59	0	0	0	0	0	0	0	0	0	0	0	0	0	0	0	0	0	0	0	0	0	0	0	0	10.989	-10.989	19.033	0	0	0	1	0	0	17.883	2.027	16.961	0	0	0	0	0	0	0	0	0	0	0	0	0	-1	0	-2.0278	-17.891	16.968	0	0	0	0	0	0	0	0	0	2
4560	45.6	0	0	0	0	0	0	0	0	0	0	0	0	0	0	0	0	0	0	0	0	0	0	0	0	0	0	0	0	0	0	1	0	0	17.883	2.027	16.961	0	0	0	0	0	0	0	0	0	0	0	0	0	0	0	0	0	0	0	0	0	1	0	0	17.47	2.0148	16.554	2
4561	45.61	0	0	0	0	0	0	10.917	-10.917	18.908	0	0	0	0	0	0	0	0	0	0	0	0	0	0	0	0	0	0	0	0	0	1	0	0	17.883	2.027	16.961	0	0	0	0	0	0	0	0	0	0	0	0	0	-1	0	-2.0278	-17.891	16.968	0	0	0	0	0	0	0	0	0	2
4562	45.62	0	0	0	0	0	0	0	0	0	0	0	0	0	-1	0	-2.0366	-17.816	16.89	0	0	0	0	0	0	0	0	0	0	0	0	0	0	0	0	0	0	0	0	0	0	0	0	10.996	-10.996	19.046	0	0	0	0	-1	0	-2.0278	-17.891	16.968	0	0	0	0	0	0	0	0	0	2
4563	45.63	0	0	0	0	0	0	0	0	0	0	0	0	0	0	0	0	0	0	0	0	0	0	0	0	0	0	0	0	0	0	1	0	0	17.883	2.027	16.961	0	0	0	0	0	0	0	0	0	0	0	0	0	-1	0	-2.0278	-17.891	16.968	0	0	0	0	0	0	0	0	0	2
4564	45.64	0	0	0	0	0	0	0	0	0	0	0	0	0	0	0	0	0	0	0	0	0	0	0	0	0	0	0	0	0	0	1	0	0	17.883	2.027	16.961	0	0	0	0	0	0	0	0	0	0	0	0	0	-1	0	-2.0278	-17.891	16.968	0	0	0	0	0	0	0	0	0	2
4565	45.65	0	0	0	0	0	0	0	0	0	0	0	0	0	0	0	0	0	0	0	0	0	0	0	0	0	0	0	0	0	0	0	0	0	0	0	0	0	0	0	0	0	0	10.996	-10.996	19.046	0	0	0	0	-1	0	-2.0278	-17.891	16.968	0	0	0	0	0	0	0	0	0	0
4566	45.66	0	0	0	0	0	0	10.917	-10.917	18.908	0	0	0	0	0	0	0	0	0	0	0	0	0	0	0	0	0	0	0	0	0	1	0	0	17.883	2.027	16.961	0	0	0	0	0	0	0	0	0	0	0	0	0	-1	0	-2.0278	-17.891	16.968	0	0	0	0	0	0	0	0	0	2
4567	45.67	0	0	0	0	0	0	0	0	0	0	0	0	0	0	0	0	0	0	0	0	0	0	0	0	0	0	0	0	0	0	1	0	0	17.883	2.027	16.961	0	0	0	0	0	0	10.996	-10.996	19.046	0	0	0	0	-1	0	-2.0278	-17.891	16.968	0	0	0	0	0	0	0	0	0	2
4568	45.68	0	0	0	0	0	0	0	0	0	0	0	0	0	0	0	0	0	0	0	0	0	0	0	0	10.989	-10.989	19.033	0	0	0	1	0	0	17.883	2.027	16.961	0	0	0	0	0	0	0	0	0	0	0	0	0	-1	0	-2.0278	-17.891	16.968	0	0	0	0	0	0	0	0	0	2
4569	45.69	0	0	0	0	0	0	10.917	-10.917	18.908	0	0	0	0	0	0	0	0	0	0	0	0	0	0	0	0	0	0	0	0	0	0	0	0	0	0	0	0	0	0	0	0	0	0	0	0	0	0	0	0	-1	0	-2.0278	-17.891	16.968	0	0	0	0	0	0	0	0	0	2
4570	45.7	0	0	0	0	0	0	0	0	0	0	0	0	0	0	0	0	0	0	0	0	0	0	0	0	0	0	0	0	0	0	0	0	0	0	0	0	0	0	0	0	0	0	0	0	0	0	0	0	0	-1	0	-2.0278	-17.891	16.968	0	0	0	0	0	0	0	0	0	2
4571	45.71	0	0	0	0	0	0	0	0	0	0	0	0	0	0	0	0	0	0	0	0	0	0	0	0	0	0	0	0	0	0	1	0	0	17.883	2.027	16.961	0	0	0	0	0	0	0	0	0	0	0	0	0	-1	0	-2.0278	-17.891	16.968	0	0	0	0	0	0	0	0	0	2
4572	45.72	0	0	0	0	0	0	0	0	0	0	0	0	0	0	0	0	0	0	0	0	0	0	-1	0	-2.0266	-17.88	16.957	0	0	0	0	0	0	0	0	0	0	0	0	0	-1	0	-2.0279	-17.891	16.969	0	0	0	0	-1	0	-2.0278	-17.891	16.968	0	0	0	0	0	0	0	0	0	2
4573	45.73	0	0	0	0	0	0	0	0	0	0	0	0	0	0	0	0	0	0	0	0	0	0	0	0	0	0	0	0	0	0	0	0	0	0	0	0	0	0	0	0	0	0	0	0	0	0	0	0	0	-1	0	-2.0278	-17.891	16.968	0	0	0	0	0	0	0	0	0	2
4574	45.74	0	0	0	0	0	0	0	0	0	0	0	0	0	0	0	0	0	0	0	0	0	0	0	0	0	0	0	0	0	0	1	0	0	17.883	2.027	16.961	0	0	0	0	0	0	0	0	0	0	0	0	0	-1	0	-2.0278	-17.891	16.968	0	0	0	0	0	0	0	0	0	2
4575	45.75	0	0	0	0	0	0	0	0	0	0	0	0	0	-1	0	-2.0366	-17.816	16.89	0	0	0	0	0	0	0	0	0	0	0	0	0	0	0	0	0	0	0	0	0	0	0	0	0	0	0	0	0	0	0	-1	0	-2.0278	-17.891	16.968	0	0	0	0	0	0	0	0	0	2
4576	45.76	0	0	0	0	0	0	0	0	0	0	0	0	0	0	0	0	0	0	0	0	0	0	0	0	0	0	0	0	0	0	1	0	0	17.883	2.027	16.961	0	0	0	0	0	0	0	0	0	0	0	0	0	-1	0	-2.0278	-17.891	16.968	0	0	0	0	0	0	0	0	0	2
4577	45.77	0	0	0	0	0	0	0	0	0	0	0	0	0	0	0	0	0	0	0	0	0	0	0	0	0	0	0	0	0	0	1	0	0	17.883	2.027	16.961	0	0	0	0	0	0	10.996	-10.996	19.046	0	0	0	0	-1	0	-2.0278	-17.891	16.968	0	0	0	0	0	0	0	0	0	0
4578	45.78	0	0	0	0	0	0	0	0	0	0	0	0	0	0	0	0	0	0	0	0	0	0	0	0	0	0	0	0	0	0	1	0	0	17.883	2.027	16.961	0	0	0	0	0	0	0	0	0	0	0	0	0	-1	0	-2.0278	-17.891	16.968	0	0	0	1	0	0	17.47	2.0148	16.554	2
4579	45.79	0	0	0	0	0	0	0	0	0	0	0	0	0	0	0	0	0	0	0	0	0	0	0	0	10.989	-10.989	19.033	0	0	0	0	0	0	0	0	0	0	0	0	0	0	0	0	0	0	0	0	0	0	-1	0	-2.0278	-17.891	16.968	0	0	0	0	0	0	0	0	0	2
4580	45.8	0	0	0	0	0	0	0	0	0	0	0	0	0	0	0	0	0	0	0	0	0	0	0	0	0	0	0	0	0	0	0	0	0	0	0	0	0	0	0	0	0	0	0	0	0	0	0	0	0	-1	0	-2.0278	-17.891	16.968	0	0	0	0	0	0	0	0	0	2
4581	45.81	0	0	0	0	0	0	0	0	0	0	0	0	0	0	0	0	0	0	0	0	0	0	0	0	0	0	0	0	0	0	0	0	0	0	0	0	0	0	0	0	0	0	0	0	0	0	0	0	0	-1	0	-2.0278	-17.891	16.968	0	0	0	1	0	0	17.482	2.0162	16.566	2
4582	45.82	0	0	0	0	0	0	0	0	0	0	0	0	0	0	0	0	0	0	0	0	0	0	0	0	0	0	0	0	0	0	1	0	0	17.883	2.027	16.961	0	0	0	0	0	0	10.996	-10.996	19.046	0	0	0	0	-1	0	-2.0278	-17.891	16.968	0	0	0	0	0	0	0	0	0	0
4583	45.83	0	0	0	0	0	0	10.917	-10.917	18.908	0	0	0	0	0	0	0	0	0	0	0	0	0	0	0	10.989	-10.989	19.033	0	0	0	1	0	0	17.883	2.027	16.961	0	0	0	0	0	0	0	0	0	0	0	0	0	-1	0	-2.0278	-17.891	16.968	0	0	0	0	0	0	0	0	0	2
4584	45.84	0	0	0	0	0	0	10.917	-10.917	18.908	0	0	0	0	0	0	0	0	0	0	0	0	0	0	0	0	0	0	0	0	0	1	0	0	17.883	2.027	16.961	0	0	0	0	0	0	10.996	-10.996	19.046	0	0	0	0	-1	0	-2.0278	-17.891	16.968	0	0	0	0	0	0	0	0	0	2
4585	45.85	0	0	0	0	0	0	0	0	0	0	0	0	0	0	0	0	0	0	0	0	0	0	0	0	0	0	0	0	0	0	0	0	0	0	0	0	0	0	0	0	0	0	0	0	0	0	0	0	0	-1	0	-2.0278	-17.891	16.968	0	0	0	0	0	0	0	0	0	2
4586	45.86	0	0	0	0	0	0	10.917	-10.917	18.908	0	0	0	0	0	0	0	0	0	0	0	0	0	0	0	0	0	0	0	0	0	0	0	0	0	0	0	0	0	0	0	0	0	0	0	0	0	0	0	0	-1	0	-2.0278	-17.891	16.968	0	0	0	0	0	0	0	0	0	2
4587	45.87	0	0	0	0	0	0	0	0	0	0	0	0	0	-1	0	-2.0366	-17.816	16.89	0	0	0	0	-1	0	-2.0266	-17.88	16.957	0	0	0	1	0	0	17.883	2.027	16.961	0	0	0	0	0	0	0	0	0	0	0	0	0	-1	0	-2.0278	-17.891	16.968	0	0	0	0	0	0	0	0	0	2
4588	45.88	0	0	0	0	0	0	10.917	-10.917	18.908	0	0	0	0	0	0	0	0	0	0	0	0	0	0	0	10.989	-10.989	19.033	0	0	0	1	0	0	17.883	2.027	16.961	0	0	0	0	0	0	10.996	-10.996	19.046	0	0	0	0	-1	0	-2.0278	-17.891	16.968	0	0	0	0	0	0	0	0	0	2
4589	45.89	0	0	0	0	0	0	0	0	0	0	0	0	0	0	0	0	0	0	0	0	0	0	0	0	0	0	0	0	0	0	1	0	0	17.883	2.027	16.961	0	0	0	0	0	0	10.996	-10.996	19.046	0	0	0	0	-1	0	-2.0278	-17.891	16.968	0	0	0	0	0	0	0	0	0	2
4590	45.9	0	0	0	0	0	0	0	0	0	0	0	0	0	0	0	0	0	0	0	0	0	0	0	0	0	0	0	0	0	0	0	0	0	0	0	0	0	0	0	0	0	0	0	0	0	0	0	0	0	-1	0	-2.0278	-17.891	16.968	0	0	0	0	0	0	0	0	0	2
4591	45.91	0	0	0	0	0	0	0	0	0	0	0	0	0	0	0	0	0	0	0	0	0	0	0	0	0	0	0	0	0	0	1	0	0	17.883	2.027	16.961	0	0	0	0	0	0	0	0	0	0	0	0	0	-1	0	-2.0278	-17.891	16.968	0	0	0	0	0	0	0	0	0	2
4592	45.92	0	0	0	0	0	0	0	0	0	0	0	0	0	0	0	0	0	0	0	0	0	0	0	0	0	0	0	0	0	0	0	0	0	0	0	0	0	0	0	0	0	0	10.996	-10.996	19.046	0	0	0	0	-1	0	-2.0278	-17.891	16.968	0	0	0	0	0	0	0	0	0	2
4593	45.93	0	0	0	0	0	0	0	0	0	0	0	0	0	0	0	0	0	0	0	0	0	0	0	0	0	0	0	0	0	0	1	0	0	17.883	2.027	16.961	0	0	0	0	0	0	0	0	0	0	0	0	0	-1	0	-2.0278	-17.891	16.968	0	0	0	0	0	0	0	0	0	2
4594	45.94	0	0	0	0	0	0	0	0	0	0	0	0	0	0	0	0	0	0	0	0	0	0	0	0	0	0	0	0	0	0	0	0	0	0	0	0	0	0	0	0	0	0	0	0	0	0	0	0	0	-1	0	-2.0278	-17.891	16.968	0	0	0	0	0	0	0	0	0	2
4595	45.95	0	0	0	0	0	0	0	0	0	0	0	0	0	0	0	0	0	0	0	0	0	0	0	0	10.989	-10.989	19.033	0	0	0	0	0	0	0	0	0	0	0	0	0	0	0	0	0	0	0	0	0	0	-1	0	-2.0278	-17.891	16.968	0	0	0	0	0	0	0	0	0	2
4596	45.96	0	0	0	0	0	0	0	0	0	0	0	0	0	0	0	0	0	0	0	0	0	0	0	0	0	0	0	0	0	0	1	0	0	17.883	2.027	16.961	0	0	0	0	0	0	0	0	0	0	0	0	0	-1	0	-2.0278	-17.891	16.968	0	0	0	0	0	0	0	0	0	2
4597	45.97	0	0	0	0	0	0	0	0	0	0	0	0	0	0	0	0	0	0	0	0	0	0	0	0	0	0	0	0	0	0	0	0	0	0	0	0	0	0	0	0	0	0	0	0	0	0	0	0	0	-1	0	-2.0278	-17.891	16.968	0	0	0	0	0	0	0	0	0	2
4598	45.98	0	0	0	0	0	0	0	0	0	0	0	0	0	0	0	0	0	0	0	0	0	0	0	0	0	0	0	0	0	0	1	0	0	17.883	2.027	16.961	0	0	0	0	0	0	0	0	0	0	0	0	0	-1	0	-2.0278	-17.891	16.968	0	0	0	0	0	0	0	0	0	2
4599	45.99	0	0	0	0	0	0	10.917	-10.917	18.908	0	0	0	0	-1	0	-2.0366	-17.816	16.89	0	0	0	0	0	0	10.989	-10.989	19.033	0	0	0	0	0	0	0	0	0	0	0	0	0	0	0	0	0	0	0	0	0	0	-1	0	-2.0278	-17.891	16.968	0	0	0	0	0	0	0	0	0	2
4600	46	0	0	0	0	0	0	10.917	-10.917	18.908	0	0	0	0	-1	0	-2.0366	-17.816	16.89	0	0	0	0	0	0	0	0	0	0	0	0	0	0	0	0	0	0	0	0	0	0	0	0	0	0	0	0	0	0	0	-1	0	-2.0278	-17.891	16.968	0	0	0	0	0	0	0	0	0	2
4601	46.01	0	0	0	0	0	0	0	0	0	0	0	0	0	0	0	0	0	0	0	0	0	0	0	0	0	0	0	0	0	0	0	0	0	10.991	-10.991	19.037	0	0	0	0	0	0	0	0	0	0	0	0	0	-1	0	-2.0278	-17.891	16.968	0	0	0	0	0	0	0	0	0	2
4602	46.02	0	0	0	0	0	0	0	0	0	0	0	0	0	0	0	0	0	0	0	0	0	0	0	0	10.989	-10.989	19.033	0	0	0	0	0	0	0	0	0	0	0	0	0	0	0	0	0	0	0	0	0	0	-1	0	-2.0278	-17.891	16.968	0	0	0	0	0	0	0	0	0	2
4603	46.03	0	0	0	0	0	0	10.917	-10.917	18.908	0	0	0	0	0	0	0	0	0	0	0	0	0	0	0	10.989	-10.989	19.033	0	0	0	1	0	0	17.883	2.027	16.961	0	0	0	0	0	0	0	0	0	0	0	0	0	-1	0	-2.0278	-17.891	16.968	0	0	0	0	0	0	0	0	0	2
4604	46.04	0	0	0	0	0	0	0	0	0	0	0	0	0	0	0	0	0	0	0	0	0	0	0	0	0	0	0	0	0	0	0	0	0	0	0	0	0	0	0	0	0	0	0	0	0	0	0	0	0	-1	0	-2.0278	-17.891	16.968	0	0	0	0	0	0	0	0	0	2
4605	46.05	0	0	0	0	0	0	0	0	0	0	0	0	0	0	0	0	0	0	0	0	0	0	0	0	0	0	0	0	0	0	0	0	0	0	0	0	0	0	0	0	0	0	0	0	0	0	0	0	0	-1	0	-2.0278	-17.891	16.968	0	0	0	0	0	0	0	0	0	2
4606	46.06	0	0	0	0	0	0	0	0	0	0	0	0	0	0	0	0	0	0	0	0	0	0	0	0	10.989	-10.989	19.033	0	0	0	0	0	0	0	0	0	0	0	0	0	0	0	0	0	0	0	0	0	0	-1	0	-2.0278	-17.891	16.968	0	0	0	0	0	0	0	0	0	2
4607	46.07	0	0	0	0	0	0	10.917	-10.917	18.908	0	0	0	0	0	0	0	0	0	0	0	0	0	0	0	0	0	0	0	0	0	0	0	0	0	0	0	0	0	0	0	0	0	0	0	0	0	0	0	0	-1	0	-2.0278	-17.891	16.968	0	0	0	0	0	0	0	0	0	2
4608	46.08	0	0	0	0	0	0	10.917	-10.917	18.908	0	0	0	0	0	0	0	0	0	0	0	0	0	0	0	0	0	0	0	0	0	1	0	0	17.883	2.027	16.961	0	0	0	0	0	0	0	0	0	0	0	0	0	-1	0	-2.0278	-17.891	16.968	0	0	0	0	0	0	0	0	0	2
4609	46.09	0	0	0	0	0	0	10.917	-10.917	18.908	0	0	0	0	0	0	0	0	0	0	0	0	0	0	0	0	0	0	0	0	0	0	0	0	0	0	0	0	0	0	0	0	0	0	0	0	0	0	0	0	-1	0	-2.0278	-17.891	16.968	0	0	0	0	0	0	10.93	-10.93	18.931	2
4610	46.1	0	0	0	0	0	0	0	0	0	0	0	0	0	0	0	0	0	0	0	0	0	0	0	0	0	0	0	0	0	0	0	0	0	0	0	0	0	0	0	0	0	0	0	0	0	0	0	0	0	-1	0	-2.0278	-17.891	16.968	0	0	0	0	0	0	0	0	0	2
4611	46.11	0	0	0	0	0	0	0	0	0	0	0	0	0	0	0	0	0	0	0	0	0	0	0	0	10.989	-10.989	19.033	0	0	0	1	0	0	17.883	2.027	16.961	0	0	0	0	0	0	0	0	0	0	0	0	0	-1	0	-2.0278	-17.891	16.968	0	0	0	0	0	0	10.93	-10.93	18.931	2
4612	46.12	0	0	0	0	0	0	0	0	0	0	0	0	0	0	0	0	0	0	0	0	0	0	0	0	10.989	-10.989	19.033	0	0	0	0	0	0	0	0	0	0	0	0	0	0	0	0	0	0	0	0	0	0	-1	0	-2.0278	-17.891	16.968	0	0	0	0	0	0	0	0	0	2
4613	46.13	0	0	0	0	0	0	0	0	0	0	0	0	0	0	0	0	0	0	0	0	0	0	0	0	0	0	0	0	0	0	0	0	0	0	0	0	0	0	0	0	0	0	0	0	0	0	0	0	0	-1	0	-2.0278	-17.891	16.968	0	0	0	0	0	0	0	0	0	2
4614	46.14	0	0	0	0	0	0	0	0	0	0	0	0	0	0	0	0	0	0	0	0	0	0	0	0	0	0	0	0	0	0	1	0	0	17.883	2.027	16.961	0	0	0	0	0	0	0	0	0	0	0	0	0	-1	0	-2.0278	-17.891	16.968	0	0	0	0	0	0	0	0	0	2
4615	46.15	0	0	0	0	0	0	0	0	0	0	0	0	0	0	0	0	0	0	0	0	0	0	0	0	0	0	0	0	0	0	0	0	0	0	0	0	0	0	0	0	0	0	0	0	0	0	0	0	0	-1	0	-2.0278	-17.891	16.968	0	0	0	0	0	0	0	0	0	2
4616	46.16	0	0	0	0	0	0	0	0	0	0	0	0	0	0	0	0	0	0	0	0	0	0	0	0	10.989	-10.989	19.033	0	0	0	0	0	0	0	0	0	0	0	0	0	0	0	0	0	0	0	0	0	0	-1	0	-2.0278	-17.891	16.968	0	0	0	0	0	0	0	0	0	2
4617	46.17	0	0	0	0	0	0	0	0	0	0	0	0	0	0	0	0	0	0	0	0	0	0	0	0	0	0	0	0	0	0	0	0	0	0	0	0	0	0	0	0	0	0	0	0	0	0	0	0	0	-1	0	-2.0278	-17.891	16.968	0	0	0	0	0	0	0	0	0	2
4618	46.18	0	0	0	0	0	0	0	0	0	0	0	0	0	0	0	0	0	0	0	0	0	0	0	0	10.989	-10.989	19.033	0	0	0	1	0	0	17.883	2.027	16.961	0	0	0	0	0	0	0	0	0	0	0	0	0	-1	0	-2.0278	-17.891	16.968	0	0	0	0	0	0	0	0	0	2
4619	46.19	0	0	0	0	0	0	0	0	0	0	0	0	0	0	0	0	0	0	0	0	0	0	0	0	0	0	0	0	0	0	0	0	0	0	0	0	0	0	0	0	0	0	0	0	0	0	0	0	0	-1	0	-2.0278	-17.891	16.968	0	0	0	0	0	0	0	0	0	2
4620	46.2	0	0	0	0	0	0	10.917	-10.917	18.908	0	0	0	0	0	0	0	0	0	0	0	0	0	0	0	10.989	-10.989	19.033	0	0	0	0	0	0	0	0	0	0	0	0	0	0	0	0	0	0	0	0	0	0	-1	0	-2.0278	-17.891	16.968	0	0	0	0	0	0	0	0	0	2
4621	46.21	0	0	0	0	0	0	0	0	0	0	0	0	0	0	0	0	0	0	0	0	0	0	0	0	0	0	0	0	0	0	0	0	0	0	0	0	0	0	0	0	0	0	0	0	0	0	0	0	0	-1	0	-2.0278	-17.891	16.968	0	0	0	0	0	0	0	0	0	2
4622	46.22	0	0	0	0	0	0	0	0	0	0	0	0	0	0	0	0	0	0	0	0	0	0	0	0	10.989	-10.989	19.033	0	0	0	0	0	0	0	0	0	0	0	0	0	0	0	0	0	0	0	0	0	0	-1	0	-2.0278	-17.891	16.968	0	0	0	0	0	0	0	0	0	2
4623	46.23	0	0	0	0	0	0	0	0	0	0	0	0	0	0	0	0	0	0	0	0	0	0	0	0	0	0	0	0	0	0	1	0	0	17.883	2.027	16.961	0	0	0	0	0	0	0	0	0	0	0	0	0	-1	0	-2.0278	-17.891	16.968	0	0	0	0	0	0	0	0	0	2
4624	46.24	0	0	0	0	0	0	0	0	0	0	0	0	0	0	0	0	0	0	0	0	0	0	0	0	10.989	-10.989	19.033	0	0	0	0	0	0	0	0	0	0	0	0	0	0	0	0	0	0	0	0	0	0	-1	0	-2.0278	-17.891	16.968	0	0	0	0	0	0	0	0	0	2
4625	46.25	0	0	0	0	0	0	0	0	0	0	0	0	0	0	0	0	0	0	0	0	0	0	0	0	0	0	0	0	0	0	0	0	0	0	0	0	0	0	0	0	0	0	0	0	0	0	0	0	0	-1	0	-2.0278	-17.891	16.968	0	0	0	0	0	0	0	0	0	2
4626	46.26	0	0	0	0	0	0	10.917	-10.917	18.908	0	0	0	0	0	0	0	0	0	0	0	0	0	0	0	10.989	-10.989	19.033	0	0	0	0	0	0	0	0	0	0	0	0	0	0	0	0	0	0	0	0	0	0	-1	0	-2.0278	-17.891	16.968	0	0	0	0	0	0	0	0	0	0
4627	46.27	0	0	0	0	0	0	0	0	0	0	0	0	0	0	0	0	0	0	0	0	0	0	0	0	0	0	0	0	0	0	0	0	0	0	0	0	0	0	0	0	0	0	10.996	-10.996	19.046	0	0	0	0	-1	0	-2.0278	-17.891	16.968	0	0	0	0	0	0	0	0	0	2
4628	46.28	0	0	0	0	0	0	10.917	-10.917	18.908	0	0	0	0	0	0	0	0	0	0	0	0	0	0	0	0	0	0	0	0	0	1	0	0	17.883	2.027	16.961	0	0	0	0	0	0	0	0	0	0	0	0	0	-1	0	-2.0278	-17.891	16.968	0	0	0	0	0	0	0	0	0	2
4629	46.29	0	0	0	0	0	0	0	0	0	0	0	0	0	0	0	0	0	0	0	0	0	0	0	0	0	0	0	0	0	0	1	0	0	17.883	2.027	16.961	0	0	0	0	0	0	0	0	0	0	0	0	0	-1	0	-2.0278	-17.891	16.968	0	0	0	0	0	0	0	0	0	2
4630	46.3	0	0	0	0	0	0	0	0	0	0	0	0	0	0	0	0	0	0	0	0	0	0	0	0	0	0	0	0	0	0	1	0	0	17.883	2.027	16.961	0	0	0	0	0	0	0	0	0	0	0	0	0	-1	0	-2.0278	-17.891	16.968	0	0	0	0	0	0	0	0	0	2
4631	46.31	0	0	0	0	0	0	0	0	0	0	0	0	0	0	0	0	0	0	0	0	0	0	0	0	0	0	0	0	0	0	0	0	0	0	0	0	0	0	0	0	0	0	0	0	0	0	0	0	0	-1	0	-2.0278	-17.891	16.968	0	0	0	0	0	0	0	0	0	2
4632	46.32	0	0	0	0	0	0	0	0	0	0	0	0	0	0	0	0	0	0	0	0	0	0	0	0	0	0	0	0	0	0	0	0	0	0	0	0	0	0	0	0	0	0	0	0	0	0	0	0	0	-1	0	-2.0278	-17.891	16.968	0	0	0	0	0	0	0	0	0	0
4633	46.33	0	0	0	0	0	0	0	0	0	0	0	0	0	0	0	0	0	0	0	0	0	0	0	0	0	0	0	0	0	0	1	0	0	17.883	2.027	16.961	0	0	0	0	0	0	0	0	0	0	0	0	0	-1	0	-2.0278	-17.891	16.968	0	0	0	0	0	0	0	0	0	0
4634	46.34	0	0	0	0	0	0	0	0	0	0	0	0	0	0	0	0	0	0	0	0	0	0	0	0	0	0	0	0	0	0	0	0	0	0	0	0	0	0	0	0	0	0	10.996	-10.996	19.046	0	0	0	0	-1	0	-2.0278	-17.891	16.968	0	0	0	0	0	0	0	0	0	2
4635	46.35	0	0	0	0	0	0	0	0	0	0	0	0	0	0	0	0	0	0	0	0	0	0	0	0	0	0	0	0	0	0	0	0	0	0	0	0	0	0	0	0	0	0	0	0	0	0	0	0	0	-1	0	-2.0278	-17.891	16.968	0	0	0	0	0	0	0	0	0	2
4636	46.36	0	0	0	0	0	0	10.917	-10.917	18.908	0	0	0	0	0	0	0	0	0	0	0	0	0	0	0	10.989	-10.989	19.033	0	0	0	1	0	0	17.883	2.027	16.961	0	0	0	0	0	0	0	0	0	0	0	0	0	-1	0	-2.0278	-17.891	16.968	0	0	0	0	0	0	0	0	0	0
4637	46.37	0	0	0	0	0	0	0	0	0	0	0	0	0	0	0	0	0	0	0	0	0	0	0	0	0	0	0	0	0	0	1	0	0	17.883	2.027	16.961	0	0	0	0	0	0	0	0	0	0	0	0	0	-1	0	-2.0278	-17.891	16.968	0	0	0	0	0	0	0	0	0	2
4638	46.38	0	0	0	0	-1	0	-2.0364	-17.814	16.888	0	0	0	0	0	0	0	0	0	0	0	0	0	0	0	10.989	-10.989	19.033	0	0	0	0	0	0	0	0	0	0	0	0	0	0	0	0	0	0	0	0	0	0	-1	0	-2.0278	-17.891	16.968	0	0	0	0	0	0	0	0	0	2
4639	46.39	0	0	0	0	0	0	0	0	0	0	0	0	0	0	0	0	0	0	0	0	0	0	0	0	0	0	0	0	0	0	1	0	0	17.883	2.027	16.961	0	0	0	0	0	0	0	0	0	0	0	0	0	-1	0	-2.0278	-17.891	16.968	0	0	0	0	0	0	0	0	0	2
4640	46.4	0	0	0	0	0	0	0	0	0	0	0	0	0	0	0	0	0	0	0	0	0	0	0	0	10.989	-10.989	19.033	0	0	0	1	0	0	17.883	2.027	16.961	0	0	0	0	0	0	0	0	0	0	0	0	0	-1	0	-2.0278	-17.891	16.968	0	0	0	0	0	0	0	0	0	2
4641	46.41	0	0	0	0	0	0	0	0	0	0	0	0	0	0	0	0	0	0	0	0	0	0	0	0	0	0	0	0	0	0	1	0	0	17.883	2.027	16.961	0	0	0	0	0	0	0	0	0	0	0	0	0	-1	0	-2.0278	-17.891	16.968	0	0	0	0	0	0	0	0	0	0
4642	46.42	0	0	0	0	0	0	0	0	0	0	0	0	0	0	0	0	0	0	0	0	0	0	0	0	0	0	0	0	0	0	0	0	0	0	0	0	0	0	0	0	0	0	0	0	0	0	0	0	0	-1	0	-2.0278	-17.891	16.968	0	0	0	0	0	0	0	0	0	2
4643	46.43	0	0	0	0	0	0	0	0	0	0	0	0	0	0	0	0	0	0	0	0	0	0	0	0	10.989	-10.989	19.033	0	0	0	0	0	0	0	0	0	0	0	0	0	0	0	0	0	0	0	0	0	0	-1	0	-2.0278	-17.891	16.968	0	0	0	0	0	0	0	0	0	2
4644	46.44	0	0	0	0	0	0	10.917	-10.917	18.908	0	0	0	0	0	0	0	0	0	0	0	0	0	0	0	0	0	0	0	0	0	0	0	0	0	0	0	0	0	0	0	0	0	0	0	0	0	0	0	0	-1	0	-2.0278	-17.891	16.968	0	0	0	0	0	0	0	0	0	2
4645	46.45	0	0	0	0	0	0	10.917	-10.917	18.908	0	0	0	0	0	0	0	0	0	0	0	0	0	0	0	0	0	0	0	0	0	0	0	0	0	0	0	0	0	0	0	0	0	0	0	0	0	0	0	0	-1	0	-2.0278	-17.891	16.968	0	0	0	0	0	0	0	0	0	2
4646	46.46	0	0	0	0	0	0	10.917	-10.917	18.908	0	0	0	0	0	0	0	0	0	0	0	0	0	0	0	0	0	0	0	0	0	1	0	0	17.883	2.027	16.961	0	0	0	0	0	0	0	0	0	0	0	0	0	-1	0	-2.0278	-17.891	16.968	0	0	0	0	0	0	0	0	0	2
4647	46.47	0	0	0	0	0	0	0	0	0	0	0	0	0	0	0	0	0	0	0	0	0	0	0	0	0	0	0	0	0	0	0	0	0	0	0	0	0	0	0	0	0	0	10.996	-10.996	19.046	0	0	0	0	-1	0	-2.0278	-17.891	16.968	0	0	0	0	0	0	0	0	0	2
4648	46.48	0	0	0	0	0	0	0	0	0	0	0	0	0	0	0	0	0	0	0	0	0	0	0	0	0	0	0	0	0	0	0	0	0	0	0	0	0	0	0	0	0	0	0	0	0	0	0	0	0	-1	0	-2.0278	-17.891	16.968	0	0	0	0	0	0	0	0	0	2
4649	46.49	0	0	0	0	0	0	10.917	-10.917	18.908	0	0	0	0	0	0	0	0	0	0	0	0	0	0	0	0	0	0	0	0	0	0	0	0	0	0	0	0	0	0	0	0	0	0	0	0	0	0	0	0	-1	0	-2.0278	-17.891	16.968	0	0	0	0	0	0	0	0	0	2
4650	46.5	0	0	0	0	0	0	0	0	0	0	0	0	0	0	0	0	0	0	0	0	0	0	0	0	0	0	0	0	0	0	0	0	0	0	0	0	0	0	0	0	0	0	0	0	0	0	0	0	0	-1	0	-2.0278	-17.891	16.968	0	0	0	0	0	0	0	0	0	2
4651	46.51	0	0	0	0	0	0	0	0	0	0	0	0	0	0	0	0	0	0	0	0	0	0	0	0	10.989	-10.989	19.033	0	0	0	0	0	0	0	0	0	0	0	0	0	0	0	0	0	0	0	0	0	0	-1	0	-2.0278	-17.891	16.968	0	0	0	0	0	0	0	0	0	2
4652	46.52	0	0	0	0	0	0	0	0	0	0	0	0	0	0	0	0	0	0	0	0	0	0	0	0	0	0	0	0	0	0	0	0	0	0	0	0	0	0	0	0	0	0	0	0	0	0	0	0	0	-1	0	-2.0278	-17.891	16.968	0	0	0	0	0	0	0	0	0	2
4653	46.53	0	0	0	0	0	0	0	0	0	0	0	0	0	0	0	0	0	0	0	0	0	0	0	0	10.989	-10.989	19.033	0	0	0	1	0	0	17.883	2.027	16.961	0	0	0	0	0	0	0	0	0	0	0	0	0	-1	0	-2.0278	-17.891	16.968	0	0	0	0	0	0	0	0	0	2
4654	46.54	0	0	0	0	0	0	10.917	-10.917	18.908	0	0	0	0	0	0	0	0	0	0	0	0	0	0	0	0	0	0	0	0	0	1	0	0	17.883	2.027	16.961	0	0	0	0	0	0	0	0	0	0	0	0	0	-1	0	-2.0278	-17.891	16.968	0	0	0	0	0	0	0	0	0	2
4655	46.55	0	0	0	0	0	0	0	0	0	0	0	0	0	-1	0	-2.0366	-17.816	16.89	0	0	0	0	0	0	0	0	0	0	0	0	0	0	0	0	0	0	0	0	0	0	0	0	0	0	0	0	0	0	0	-1	0	-2.0278	-17.891	16.968	0	0	0	0	0	0	0	0	0	2
4656	46.56	0	0	0	0	0	0	0	0	0	0	0	0	0	0	0	0	0	0	0	0	0	0	0	0	10.989	-10.989	19.033	0	0	0	0	0	0	0	0	0	0	0	0	0	0	0	0	0	0	0	0	0	0	-1	0	-2.0278	-17.891	16.968	0	0	0	0	0	0	0	0	0	2
4657	46.57	0	0	0	0	0	0	0	0	0	0	0	0	0	0	0	0	0	0	0	0	0	0	0	0	0	0	0	0	0	0	0	0	0	0	0	0	0	0	0	0	0	0	0	0	0	0	0	0	0	-1	0	-2.0278	-17.891	16.968	0	0	0	0	0	0	0	0	0	2
4658	46.58	0	0	0	0	0	0	0	0	0	0	0	0	0	0	0	0	0	0	0	0	0	0	0	0	0	0	0	0	0	0	1	0	0	17.883	2.027	16.961	0	0	0	0	0	0	0	0	0	0	0	0	0	-1	0	-2.0278	-17.891	16.968	0	0	0	0	0	0	0	0	0	2
4659	46.59	0	0	0	0	0	0	0	0	0	0	0	0	0	0	0	0	0	0	0	0	0	0	0	0	0	0	0	0	0	0	0	0	0	0	0	0	0	0	0	0	0	0	0	0	0	0	0	0	0	-1	0	-2.0278	-17.891	16.968	0	0	0	0	0	0	0	0	0	2
4660	46.6	0	0	0	0	0	0	0	0	0	0	0	0	0	0	0	0	0	0	0	0	0	0	0	0	0	0	0	0	0	0	0	0	0	0	0	0	0	0	0	0	0	0	0	0	0	0	0	0	0	-1	0	-2.0278	-17.891	16.968	0	0	0	0	0	0	0	0	0	2
4661	46.61	0	0	0	0	0	0	0	0	0	0	0	0	0	0	0	0	0	0	0	0	0	0	0	0	0	0	0	0	0	0	0	0	0	0	0	0	0	0	0	0	0	0	0	0	0	0	0	0	0	-1	0	-2.0278	-17.891	16.968	0	0	0	0	0	0	0	0	0	2
4662	46.62	0	0	0	0	0	0	0	0	0	0	0	0	0	0	0	0	0	0	0	0	0	0	0	0	0	0	0	0	0	0	1	0	0	17.883	2.027	16.961	0	0	0	0	0	0	0	0	0	0	0	0	0	-1	0	-2.0278	-17.891	16.968	0	0	0	0	0	0	0	0	0	2
4663	46.63	0	0	0	0	0	0	0	0	0	0	0	0	0	0	0	0	0	0	0	0	0	0	0	0	0	0	0	0	0	0	1	0	0	17.883	2.027	16.961	0	0	0	0	0	0	10.996	-10.996	19.046	0	0	0	1	-1	0	7.5503	-27.469	31.921	0	0	0	0	0	0	0	0	0	2
4664	46.64	0	0	0	0	0	0	0	0	0	0	0	0	0	0	0	0	0	0	0	0	0	0	0	0	0	0	0	0	0	0	1	0	0	17.883	2.027	16.961	0	0	0	0	0	0	0	0	0	0	0	0	0	-1	0	-2.0278	-17.891	16.968	0	0	0	1	0	0	17.47	2.0148	16.554	2
4665	46.65	0	0	0	0	0	0	0	0	0	0	0	0	0	0	0	0	0	0	0	0	0	0	0	0	10.989	-10.989	19.033	0	0	0	0	-1	0	-2.0265	-17.879	16.957	0	0	0	0	0	0	0	0	0	0	0	0	0	-1	0	-2.0278	-17.891	16.968	0	0	0	0	0	0	0	0	0	2
4666	46.66	0	0	0	0	0	0	0	0	0	0	0	0	0	0	0	0	0	0	0	0	0	0	0	0	0	0	0	0	0	0	0	0	0	0	0	0	0	0	0	0	0	0	0	0	0	0	0	0	0	-1	0	-2.0278	-17.891	16.968	0	0	0	1	0	0	17.47	2.0148	16.554	0
4667	46.67	0	0	0	0	0	0	0	0	0	0	0	0	0	0	0	0	0	0	0	0	0	0	0	0	0	0	0	0	0	0	0	0	0	0	0	0	0	0	0	0	0	0	0	0	0	0	0	0	0	-1	0	-2.0278	-17.891	16.968	0	0	0	0	0	0	0	0	0	2
4668	46.68	0	0	0	0	0	0	0	0	0	0	0	0	0	0	0	0	0	0	0	0	0	0	0	0	10.989	-10.989	19.033	0	0	0	1	0	0	17.883	2.027	16.961	0	0	0	0	0	0	0	0	0	0	0	0	0	-1	0	-2.0278	-17.891	16.968	0	0	0	1	0	0	17.47	2.0148	16.554	0
4669	46.69	0	0	0	0	0	0	0	0	0	0	0	0	0	0	0	0	0	0	0	0	0	0	0	0	0	0	0	0	0	0	0	0	0	0	0	0	0	0	0	0	0	0	0	0	0	0	0	0	0	-1	0	-2.0278	-17.891	16.968	0	0	0	0	0	0	0	0	0	2
4670	46.7	0	0	0	0	0	0	10.917	-10.917	18.908	0	0	0	0	0	0	0	0	0	0	0	0	0	0	0	10.989	-10.989	19.033	0	0	0	1	0	0	17.883	2.027	16.961	0	0	0	0	0	0	0	0	0	0	0	0	0	-1	0	-2.0278	-17.891	16.968	0	0	0	0	0	0	0	0	0	0
4671	46.71	0	0	0	0	0	0	10.917	-10.917	18.908	0	0	0	0	0	0	0	0	0	0	0	0	0	0	0	0	0	0	0	0	0	0	0	0	0	0	0	0	0	0	0	0	0	0	0	0	0	0	0	1	-1	0	7.5503	-27.469	31.921	0	0	0	1	0	0	17.47	2.0148	16.554	2
4672	46.72	0	0	0	0	0	0	0	0	0	0	0	0	0	0	0	0	0	0	0	0	0	0	0	0	0	0	0	0	0	0	1	0	0	17.883	2.027	16.961	0	0	0	0	0	0	0	0	0	0	0	0	0	-1	0	-2.0278	-17.891	16.968	0	0	0	0	0	0	0	0	0	2
4673	46.73	0	0	0	0	0	0	0	0	0	0	0	0	0	0	0	0	0	0	0	0	0	0	0	0	0	0	0	0	0	0	1	0	0	17.883	2.027	16.961	0	0	0	0	0	0	0	0	0	0	0	0	0	-1	0	-2.0278	-17.891	16.968	0	0	0	1	0	0	17.47	2.0148	16.554	2
4674	46.74	0	0	0	0	0	0	0	0	0	0	0	0	0	0	0	0	0	0	0	0	0	0	0	0	10.989	-10.989	19.033	0	0	0	0	0	0	0	0	0	0	0	0	0	0	0	0	0	0	0	0	0	0	-1	0	-2.0278	-17.891	16.968	0	0	0	0	0	0	0	0	0	2
4675	46.75	0	0	0	0	0	0	0	0	0	0	0	0	0	0	0	0	0	0	0	0	0	0	0	0	0	0	0	0	0	0	0	0	0	0	0	0	0	0	0	0	0	0	0	0	0	0	0	0	0	-1	0	-2.0278	-17.891	16.968	0	0	0	0	0	0	0	0	0	2
4676	46.76	0	0	0	0	0	0	0	0	0	0	0	0	0	0	0	0	0	0	0	0	0	0	0	0	10.989	-10.989	19.033	0	0	0	1	0	0	17.883	2.027	16.961	0	0	0	0	0	0	0	0	0	0	0	0	0	-1	0	-2.0278	-17.891	16.968	0	0	0	1	0	0	17.482	2.0162	16.566	2
4677	46.77	0	0	0	0	0	0	0	0	0	0	0	0	0	0	0	0	0	0	0	0	0	0	0	0	0	0	0	0	0	0	1	0	0	17.883	2.027	16.961	0	0	0	0	0	0	0	0	0	0	0	0	0	-1	0	-2.0278	-17.891	16.968	0	0	0	0	0	0	0	0	0	0
4678	46.78	0	0	0	0	0	0	0	0	0	0	0	0	0	0	0	0	0	0	0	0	0	0	0	0	0	0	0	0	0	0	1	0	0	17.883	2.027	16.961	0	0	0	0	0	0	0	0	0	0	0	0	0	-1	0	-2.0278	-17.891	16.968	0	0	0	1	0	0	17.47	2.0148	16.554	2
4679	46.79	0	0	0	0	0	0	0	0	0	0	0	0	0	0	0	0	0	0	0	0	0	0	0	0	0	0	0	0	0	0	0	0	0	0	0	0	0	0	0	0	0	0	0	0	0	0	0	0	0	-1	0	-2.0278	-17.891	16.968	0	0	0	0	0	0	0	0	0	0
4680	46.8	0	0	0	0	0	0	10.917	-10.917	18.908	0	0	0	0	0	0	0	0	0	0	0	0	0	0	0	0	0	0	0	0	0	0	0	0	0	0	0	0	0	0	0	0	0	0	0	0	0	0	0	0	-1	0	-2.0278	-17.891	16.968	0	0	0	0	0	0	0	0	0	2
4681	46.81	0	0	0	0	0	0	0	0	0	0	0	0	0	0	0	0	0	0	0	0	0	0	0	0	0	0	0	0	0	0	1	0	0	17.883	2.027	16.961	0	0	0	0	0	0	0	0	0	0	0	0	0	-1	0	-2.0278	-17.891	16.968	0	0	0	0	0	0	0	0	0	2
4682	46.82	0	0	0	0	0	0	10.917	-10.917	18.908	0	0	0	0	0	0	0	0	0	0	0	0	0	0	0	0	0	0	0	0	0	1	0	0	17.883	2.027	16.961	0	0	0	0	0	0	0	0	0	0	0	0	0	-1	0	-2.0278	-17.891	16.968	0	0	0	0	0	0	0	0	0	0
4683	46.83	0	0	0	0	0	0	10.917	-10.917	18.908	0	0	0	0	0	0	0	0	0	0	0	0	0	0	0	0	0	0	0	0	0	0	0	0	0	0	0	0	0	0	0	0	0	0	0	0	0	0	0	0	-1	0	-2.0278	-17.891	16.968	0	0	0	0	0	0	0	0	0	2
4684	46.84	0	0	0	0	0	0	0	0	0	0	0	0	0	0	0	0	0	0	0	0	0	0	0	0	0	0	0	0	0	0	0	0	0	0	0	0	0	0	0	0	0	0	0	0	0	0	0	0	0	-1	0	-2.0278	-17.891	16.968	0	0	0	0	0	0	0	0	0	2
4685	46.85	0	0	0	0	0	0	0	0	0	0	0	0	0	0	0	0	0	0	0	0	0	0	0	0	0	0	0	0	0	0	1	0	0	17.883	2.027	16.961	0	0	0	0	0	0	0	0	0	0	0	0	0	-1	0	-2.0278	-17.891	16.968	0	0	0	0	0	0	0	0	0	2
4686	46.86	0	0	0	0	0	0	0	0	0	0	0	0	0	0	0	0	0	0	0	0	0	0	0	0	10.989	-10.989	19.033	0	0	0	1	0	0	17.883	2.027	16.961	0	0	0	0	0	0	0	0	0	0	0	0	0	-1	0	-2.0278	-17.891	16.968	0	0	0	0	0	0	0	0	0	2
4687	46.87	0	0	0	0	0	0	0	0	0	0	0	0	0	0	0	0	0	0	0	0	0	0	0	0	0	0	0	0	0	0	1	0	0	17.883	2.027	16.961	0	0	0	0	0	0	0	0	0	0	0	0	0	-1	0	-2.0278	-17.891	16.968	0	0	0	0	0	0	0	0	0	2
4688	46.88	0	0	0	0	0	0	0	0	0	0	0	0	0	0	0	0	0	0	0	0	0	0	0	0	10.989	-10.989	19.033	0	0	0	0	0	0	0	0	0	0	0	0	0	0	0	0	0	0	0	0	0	0	0	0	0	0	0	0	0	0	0	0	0	0	0	0	0
4689	46.89	0	0	0	0	0	0	0	0	0	0	0	0	0	0	0	0	0	0	0	0	0	0	0	0	0	0	0	0	0	0	0	0	0	0	0	0	0	0	0	0	0	0	0	0	0	0	0	0	0	-1	0	-2.0278	-17.891	16.968	0	0	0	0	0	0	0	0	0	2
4690	46.9	0	0	0	0	0	0	10.917	-10.917	18.908	0	0	0	0	0	0	0	0	0	0	0	0	0	0	0	10.989	-10.989	19.033	0	0	0	1	0	0	17.883	2.027	16.961	0	0	0	0	0	0	0	0	0	0	0	0	0	-1	0	-2.0278	-17.891	16.968	0	0	0	0	0	0	0	0	0	0
4691	46.91	0	0	0	0	0	0	0	0	0	0	0	0	0	0	0	0	0	0	0	0	0	0	0	0	0	0	0	0	0	0	0	0	0	0	0	0	0	0	0	0	0	0	0	0	0	0	0	0	0	-1	0	-2.0278	-17.891	16.968	0	0	0	1	0	0	17.482	2.0162	16.566	2
4692	46.92	0	0	0	0	0	0	0	0	0	0	0	0	0	0	0	0	0	0	0	0	0	0	0	0	0	0	0	0	0	0	0	0	0	0	0	0	0	0	0	0	0	0	0	0	0	0	0	0	0	0	0	0	0	0	0	0	0	1	0	0	17.47	2.0148	16.554	2
4693	46.93	0	0	0	0	0	0	10.917	-10.917	18.908	0	0	0	0	0	0	0	0	0	0	0	0	0	0	0	10.989	-10.989	19.033	0	0	0	0	0	0	0	0	0	0	0	0	0	0	0	0	0	0	0	0	0	0	-1	0	-2.0278	-17.891	16.968	0	0	0	0	0	0	0	0	0	0
4694	46.94	0	0	0	0	0	0	0	0	0	0	0	0	0	0	0	0	0	0	0	0	0	0	0	0	0	0	0	0	0	0	0	0	0	0	0	0	0	0	0	0	0	0	10.996	-10.996	19.046	0	0	0	0	-1	0	-2.0278	-17.891	16.968	0	0	0	1	0	0	17.47	2.0148	16.554	2
4695	46.95	0	0	0	0	0	0	0	0	0	0	0	0	0	0	0	0	0	0	0	0	0	0	0	0	10.989	-10.989	19.033	0	0	0	1	0	0	17.883	2.027	16.961	0	0	0	0	0	0	0	0	0	0	0	0	0	-1	0	-2.0278	-17.891	16.968	0	0	0	0	0	0	0	0	0	0
4696	46.96	0	0	0	0	0	0	10.917	-10.917	18.908	0	0	0	0	0	0	0	0	0	0	0	0	0	0	0	10.989	-10.989	19.033	0	0	0	0	0	0	0	0	0	0	0	0	0	0	0	0	0	0	0	0	0	0	-1	0	-2.0278	-17.891	16.968	0	0	0	1	0	0	17.47	2.0148	16.554	0
4697	46.97	0	0	0	0	0	0	0	0	0	0	0	0	0	0	0	0	0	0	0	0	0	0	0	0	0	0	0	0	0	0	0	0	0	0	0	0	0	0	0	0	0	0	0	0	0	0	0	0	0	-1	0	-2.0278	-17.891	16.968	0	0	0	0	0	0	0	0	0	2
4698	46.98	0	0	0	0	0	0	0	0	0	0	0	0	0	0	0	0	0	0	0	0	0	0	0	0	10.989	-10.989	19.033	0	0	0	0	0	0	0	0	0	0	0	0	0	0	0	0	0	0	0	0	0	0	-1	0	-2.0278	-17.891	16.968	0	0	0	0	0	0	0	0	0	2
4699	46.99	0	0	0	0	0	0	0	0	0	0	0	0	0	0	0	0	0	0	0	0	0	0	0	0	0	0	0	0	0	0	1	0	0	17.883	2.027	16.961	0	0	0	0	0	0	10.996	-10.996	19.046	0	0	0	0	-1	0	-2.0278	-17.891	16.968	0	0	0	0	0	0	0	0	0	2
4700	47	0	0	0	0	0	0	0	0	0	0	0	0	0	-1	0	-2.0366	-17.816	16.89	0	0	0	0	0	0	0	0	0	0	0	0	0	0	0	0	0	0	0	0	0	0	0	0	0	0	0	0	0	0	0	-1	0	-2.0278	-17.891	16.968	0	0	0	0	0	0	0	0	0	2
4701	47.01	0	0	0	0	0	0	0	0	0	0	0	0	0	0	0	0	0	0	0	0	0	0	0	0	0	0	0	0	0	0	1	0	0	17.883	2.027	16.961	0	0	0	0	0	0	0	0	0	0	0	0	0	-1	0	-2.0278	-17.891	16.968	0	0	0	0	0	0	0	0	0	2
4702	47.02	0	0	0	0	0	0	0	0	0	0	0	0	0	0	0	0	0	0	0	0	0	0	0	0	0	0	0	0	0	0	0	0	0	0	0	0	0	0	0	0	0	0	0	0	0	0	0	0	0	-1	0	-2.0278	-17.891	16.968	0	0	0	0	0	0	0	0	0	0
4703	47.03	0	0	0	0	0	0	10.917	-10.917	18.908	0	0	0	0	0	0	0	0	0	0	0	0	0	0	0	0	0	0	0	0	0	1	0	0	17.883	2.027	16.961	0	0	0	0	0	0	0	0	0	0	0	0	0	-1	0	-2.0278	-17.891	16.968	0	0	0	0	0	0	0	0	0	2
4704	47.04	0	0	0	0	0	0	10.917	-10.917	18.908	0	0	0	0	0	0	0	0	0	0	0	0	0	0	0	0	0	0	0	0	0	0	0	0	0	0	0	0	0	0	0	0	0	0	0	0	0	0	0	1	-1	0	7.5503	-27.469	31.921	0	0	0	0	0	0	0	0	0	2
4705	47.05	0	0	0	0	0	0	0	0	0	0	0	0	0	0	0	0	0	0	0	0	0	0	0	0	0	0	0	0	0	0	1	0	0	17.883	2.027	16.961	0	0	0	0	0	0	0	0	0	0	0	0	0	-1	0	-2.0278	-17.891	16.968	0	0	0	0	0	0	0	0	0	0
4706	47.06	0	0	0	0	0	0	0	0	0	0	0	0	0	0	0	0	0	0	0	0	0	0	0	0	0	0	0	0	0	0	1	0	0	17.883	2.027	16.961	0	0	0	1	0	0	17.883	2.027	16.961	0	0	0	1	-1	0	7.5503	-27.469	31.921	0	0	0	0	0	0	0	0	0	2
4707	47.07	0	0	0	0	0	0	0	0	0	0	0	0	0	0	0	0	0	0	0	0	0	0	0	0	0	0	0	0	0	0	1	0	0	17.883	2.027	16.961	0	0	0	0	0	0	0	0	0	0	0	0	0	-1	0	-2.0278	-17.891	16.968	0	0	0	0	0	0	0	0	0	2
4708	47.08	0	0	0	0	0	0	10.917	-10.917	18.908	0	0	0	0	0	0	0	0	0	0	0	0	0	0	0	0	0	0	0	0	0	1	0	0	17.883	2.027	16.961	0	0	0	0	0	0	0	0	0	0	0	0	0	0	0	0	0	0	0	0	0	0	0	0	0	0	0	2
4709	47.09	0	0	0	0	0	0	0	0	0	0	0	0	0	0	0	0	0	0	0	0	0	0	0	0	0	0	0	0	0	0	0	0	0	0	0	0	0	0	0	0	0	0	0	0	0	0	0	0	0	-1	0	-2.0278	-17.891	16.968	0	0	0	0	0	0	0	0	0	2
4710	47.1	0	0	0	0	0	0	10.917	-10.917	18.908	0	0	0	0	0	0	0	0	0	0	0	0	0	0	0	10.989	-10.989	19.033	0	0	0	1	0	0	17.883	2.027	16.961	0	0	0	0	0	0	0	0	0	0	0	0	0	-1	0	-2.0278	-17.891	16.968	0	0	0	0	0	0	0	0	0	0
4711	47.11	0	0	0	0	0	0	0	0	0	0	0	0	0	0	0	0	0	0	0	0	0	0	0	0	10.989	-10.989	19.033	0	0	0	0	0	0	0	0	0	0	0	0	0	0	0	0	0	0	0	0	0	0	-1	0	-2.0278	-17.891	16.968	0	0	0	1	0	0	17.482	2.0162	16.566	2
4712	47.12	0	0	0	0	0	0	0	0	0	0	0	0	0	0	0	0	0	0	0	0	0	0	0	0	0	0	0	0	0	0	1	0	0	17.883	2.027	16.961	0	0	0	0	0	0	0	0	0	0	0	0	0	-1	0	-2.0278	-17.891	16.968	0	0	0	0	0	0	0	0	0	2
4713	47.13	0	0	0	0	0	0	0	0	0	0	0	0	0	0	0	0	0	0	0	0	0	0	0	0	0	0	0	0	0	0	0	0	0	0	0	0	0	0	0	0	0	0	0	0	0	0	0	0	0	-1	0	-2.0278	-17.891	16.968	0	0	0	0	0	0	10.93	-10.93	18.931	0
4714	47.14	0	0	0	0	0	0	0	0	0	0	0	0	0	0	0	0	0	0	0	0	0	0	0	0	0	0	0	0	0	0	1	0	0	17.883	2.027	16.961	0	0	0	0	0	0	0	0	0	0	0	0	0	-1	0	-2.0278	-17.891	16.968	0	0	0	1	0	0	17.47	2.0148	16.554	2
4715	47.15	0	0	0	0	0	0	0	0	0	0	0	0	0	0	0	0	0	0	0	0	0	0	0	0	0	0	0	0	0	0	1	0	0	17.883	2.027	16.961	0	0	0	0	0	0	0	0	0	0	0	0	0	0	0	0	0	0	0	0	0	0	0	0	0	0	0	2
4716	47.16	0	0	0	0	0	0	0	0	0	0	0	0	0	0	0	0	0	0	0	0	0	0	0	0	0	0	0	0	0	0	0	0	0	0	0	0	0	0	0	0	0	0	0	0	0	0	0	0	0	0	0	0	0	0	0	0	0	1	0	0	17.482	2.0162	16.566	2
4717	47.17	0	0	0	0	0	0	0	0	0	0	0	0	0	0	0	0	0	0	0	0	0	0	0	0	0	0	0	0	0	0	0	0	0	0	0	0	0	0	0	0	-1	0	-2.0279	-17.891	16.969	0	0	0	0	-1	0	-2.0278	-17.891	16.968	0	0	0	0	0	0	0	0	0	0
4718	47.18	0	0	0	0	0	0	0	0	0	0	0	0	0	0	0	0	0	0	0	0	0	0	0	0	10.989	-10.989	19.033	0	0	0	1	0	0	17.883	2.027	16.961	0	0	0	0	0	0	0	0	0	0	0	0	0	-1	0	-2.0278	-17.891	16.968	0	0	0	0	0	0	0	0	0	2
4719	47.19	0	0	0	0	0	0	0	0	0	0	0	0	0	0	0	0	0	0	0	0	0	0	0	0	0	0	0	0	0	0	1	0	0	17.883	2.027	16.961	0	0	0	0	0	0	0	0	0	0	0	0	0	0	0	10.994	-10.994	19.042	0	0	0	0	0	0	0	0	0	0
4720	47.2	0	0	0	0	0	0	0	0	0	0	0	0	0	0	0	0	0	0	0	0	0	0	0	0	10.989	-10.989	19.033	0	0	0	0	0	0	0	0	0	0	0	0	0	0	0	0	0	0	0	0	0	0	-1	0	-2.0278	-17.891	16.968	0	0	0	0	0	0	0	0	0	2
4721	47.21	0	0	0	0	0	0	0	0	0	0	0	0	0	0	0	0	0	0	0	0	0	0	0	0	10.989	-10.989	19.033	0	0	0	1	0	0	17.883	2.027	16.961	0	0	0	1	0	0	17.883	2.027	16.961	0	0	0	0	-1	0	-2.0278	-17.891	16.968	0	0	0	0	0	0	10.93	-10.93	18.931	2
4722	47.22	0	0	0	0	0	0	0	0	0	0	0	0	0	0	0	0	0	0	0	0	0	0	0	0	0	0	0	0	0	0	0	0	0	0	0	0	0	0	0	0	0	0	0	0	0	0	0	0	0	-1	0	-2.0278	-17.891	16.968	0	0	0	0	0	0	0	0	0	2
4723	47.23	0	0	0	0	0	0	0	0	0	0	0	0	0	0	0	0	0	0	0	0	0	0	0	0	0	0	0	0	0	0	1	0	0	17.883	2.027	16.961	0	0	0	0	0	0	0	0	0	0	0	0	0	-1	0	-2.0278	-17.891	16.968	0	0	0	0	0	0	0	0	0	2
4724	47.24	0	0	0	0	0	0	10.917	-10.917	18.908	0	0	0	0	0	0	0	0	0	0	0	0	0	0	0	0	0	0	0	0	0	1	0	0	17.883	2.027	16.961	0	0	0	0	0	0	0	0	0	0	0	0	0	-1	0	-2.0278	-17.891	16.968	0	0	0	0	0	0	0	0	0	2
4725	47.25	0	0	0	0	0	0	0	0	0	0	0	0	0	0	0	0	0	0	0	0	0	0	0	0	0	0	0	0	0	0	1	0	0	17.883	2.027	16.961	0	0	0	0	-1	0	-2.0279	-17.891	16.969	0	0	0	0	0	0	0	0	0	0	0	0	0	0	0	0	0	0	2
4726	47.26	0	0	0	0	0	0	10.917	-10.917	18.908	0	0	0	0	0	0	0	0	0	0	0	0	0	0	0	10.989	-10.989	19.033	0	0	0	1	0	0	17.883	2.027	16.961	0	0	0	0	0	0	0	0	0	0	0	0	0	0	0	0	0	0	0	0	0	0	0	0	0	0	0	2
4727	47.27	0	0	0	0	0	0	0	0	0	0	0	0	0	0	0	0	0	0	0	0	0	0	0	0	0	0	0	0	0	0	0	0	0	0	0	0	0	0	0	0	0	0	0	0	0	0	0	0	0	-1	0	-2.0278	-17.891	16.968	0	0	0	0	0	0	0	0	0	2
4728	47.28	0	0	0	0	0	0	10.917	-10.917	18.908	0	0	0	0	0	0	0	0	0	0	0	0	0	0	0	0	0	0	0	0	0	1	0	0	17.883	2.027	16.961	0	0	0	0	0	0	0	0	0	0	0	0	0	-1	0	-2.0278	-17.891	16.968	0	0	0	0	0	0	0	0	0	0
4729	47.29	0	0	0	0	0	0	10.917	-10.917	18.908	0	0	0	0	0	0	0	0	0	0	0	0	0	0	0	10.989	-10.989	19.033	0	0	0	0	0	0	0	0	0	0	0	0	0	0	0	0	0	0	0	0	0	0	-1	0	-2.0278	-17.891	16.968	0	0	0	1	0	0	17.482	2.0162	16.566	2
4730	47.3	0	0	0	0	0	0	0	0	0	0	0	0	0	0	0	0	0	0	0	0	0	0	0	0	0	0	0	0	0	0	1	0	0	17.883	2.027	16.961	0	0	0	0	0	0	0	0	0	0	0	0	0	-1	0	-2.0278	-17.891	16.968	0	0	0	0	0	0	0	0	0	2
4731	47.31	0	0	0	0	0	0	0	0	0	0	0	0	0	0	0	0	0	0	0	0	0	0	0	0	10.989	-10.989	19.033	0	0	0	0	0	0	0	0	0	0	0	0	0	0	0	0	0	0	0	0	0	0	-1	0	-2.0278	-17.891	16.968	0	0	0	1	0	0	17.482	2.0162	16.566	0
4732	47.32	0	0	0	0	0	0	0	0	0	0	0	0	0	0	0	0	0	0	0	0	0	0	0	0	0	0	0	0	0	0	0	0	0	0	0	0	0	0	0	0	0	0	0	0	0	0	0	0	0	-1	0	-2.0278	-17.891	16.968	0	0	0	0	0	0	0	0	0	2
4733	47.33	0	0	0	0	0	0	10.917	-10.917	18.908	0	0	0	0	0	0	0	0	0	0	0	0	0	0	0	0	0	0	0	0	0	1	0	0	17.883	2.027	16.961	0	0	0	0	0	0	0	0	0	0	0	0	0	-1	0	-2.0278	-17.891	16.968	0	0	0	0	0	0	0	0	0	2
4734	47.34	0	0	0	0	0	0	10.917	-10.917	18.908	0	0	0	0	0	0	0	0	0	0	0	0	0	0	0	0	0	0	0	0	0	0	0	0	0	0	0	0	0	0	0	0	0	0	0	0	0	0	0	0	-1	0	-2.0278	-17.891	16.968	0	0	0	0	0	0	0	0	0	0
4735	47.35	0	0	0	0	0	0	0	0	0	0	0	0	0	0	0	0	0	0	0	0	0	0	0	0	0	0	0	0	0	0	0	0	0	0	0	0	0	0	0	0	0	0	0	0	0	0	0	0	1	-1	0	7.5503	-27.469	31.921	0	0	0	0	0	0	0	0	0	2
4736	47.36	0	0	0	0	0	0	0	0	0	0	0	0	0	0	0	0	0	0	0	0	0	0	0	0	0	0	0	0	0	0	0	0	0	0	0	0	0	0	0	0	0	0	0	0	0	0	0	0	1	-1	0	7.5503	-27.469	31.921	0	0	0	0	0	0	0	0	0	2
4737	47.37	0	0	0	0	0	0	0	0	0	0	0	0	0	0	0	0	0	0	0	0	0	0	0	0	0	0	0	0	0	0	0	0	0	0	0	0	0	0	0	0	0	0	0	0	0	0	0	0	0	-1	0	-2.0278	-17.891	16.968	0	0	0	0	0	0	0	0	0	2
4738	47.38	0	0	0	0	0	0	0	0	0	0	0	0	0	0	0	0	0	0	0	0	0	0	0	0	0	0	0	0	0	0	0	0	0	0	0	0	0	0	0	0	0	0	0	0	0	0	0	0	0	0	0	0	0	0	0	0	0	0	0	0	0	0	0	0
4739	47.39	0	0	0	0	0	0	0	0	0	0	0	0	0	0	0	0	0	0	0	0	0	0	0	0	0	0	0	0	0	0	0	0	0	0	0	0	0	0	0	0	0	0	0	0	0	0	0	0	0	-1	0	-2.0278	-17.891	16.968	0	0	0	1	0	0	17.482	2.0162	16.566	0
4740	47.4	0	0	0	0	0	0	0	0	0	0	0	0	0	-1	0	-2.0366	-17.816	16.89	0	0	0	0	0	0	0	0	0	0	0	0	1	0	0	17.883	2.027	16.961	0	0	0	0	0	0	0	0	0	0	0	0	0	-1	0	-2.0278	-17.891	16.968	0	0	0	0	0	0	0	0	0	2
4741	47.41	0	0	0	0	0	0	0	0	0	0	0	0	0	0	0	0	0	0	0	0	0	0	0	0	0	0	0	0	0	0	0	0	0	0	0	0	0	0	0	0	0	0	0	0	0	0	0	0	0	-1	0	-2.0278	-17.891	16.968	0	0	0	1	0	0	17.482	2.0162	16.566	2
4742	47.42	0	0	0	0	0	0	10.917	-10.917	18.908	0	0	0	0	0	0	0	0	0	0	0	0	0	0	0	0	0	0	0	0	0	1	0	0	17.883	2.027	16.961	0	0	0	0	-1	0	-2.0279	-17.891	16.969	0	0	0	0	-1	0	-2.0278	-17.891	16.968	0	0	0	0	0	0	0	0	0	0
4743	47.43	0	0	0	0	0	0	0	0	0	0	0	0	0	0	0	0	0	0	0	0	0	0	0	0	0	0	0	0	0	0	1	0	0	17.883	2.027	16.961	0	0	0	0	0	0	0	0	0	0	0	0	0	-1	0	-2.0278	-17.891	16.968	0	0	0	1	0	0	17.47	2.0148	16.554	0
4744	47.44	0	0	0	0	0	0	0	0	0	0	0	0	0	0	0	0	0	0	0	0	0	0	0	0	0	0	0	0	0	0	0	0	0	0	0	0	0	0	0	0	0	0	0	0	0	0	0	0	0	-1	0	-2.0278	-17.891	16.968	0	0	0	0	0	0	0	0	0	2
4745	47.45	0	0	0	0	-1	0	-2.0364	-17.814	16.888	0	0	0	0	0	0	0	0	0	0	0	0	0	0	0	0	0	0	0	0	0	0	0	0	0	0	0	0	0	0	0	0	0	0	0	0	0	0	0	0	-1	0	-2.0278	-17.891	16.968	0	0	0	0	0	0	0	0	0	2
4746	47.46	0	0	0	0	0	0	0	0	0	0	0	0	0	0	0	0	0	0	0	0	0	0	0	0	0	0	0	0	0	0	0	0	0	0	0	0	0	0	0	0	0	0	0	0	0	0	0	0	1	-1	0	7.5503	-27.469	31.921	0	0	0	1	0	0	17.47	2.0148	16.554	2
4747	47.47	0	0	0	0	0	0	0	0	0	0	0	0	0	0	0	0	0	0	0	0	0	0	0	0	0	0	0	0	0	0	0	0	0	0	0	0	0	0	0	0	0	0	0	0	0	0	0	0	0	-1	0	-2.0278	-17.891	16.968	0	0	0	0	0	0	0	0	0	2
4748	47.48	0	0	0	0	0	0	0	0	0	0	0	0	0	0	0	0	0	0	0	0	0	0	0	0	0	0	0	0	0	0	1	0	0	17.883	2.027	16.961	0	0	0	0	0	0	0	0	0	0	0	0	0	0	0	0	0	0	0	0	0	0	0	0	0	0	0	0
4749	47.49	0	0	0	0	0	0	0	0	0	0	0	0	0	0	0	0	0	0	0	0	0	0	0	0	10.989	-10.989	19.033	0	0	0	0	0	0	0	0	0	0	0	0	0	0	0	0	0	0	0	0	0	0	-1	0	-2.0278	-17.891	16.968	0	0	0	0	0	0	0	0	0	2
4750	47.5	0	0	0	0	0	0	0	0	0	0	0	0	0	0	0	0	0	0	0	0	0	0	0	0	0	0	0	0	0	0	0	0	0	0	0	0	0	0	0	0	0	0	0	0	0	0	0	0	1	-1	0	7.5503	-27.469	31.921	0	0	0	0	0	0	0	0	0	0
4751	47.51	0	0	0	0	0	0	0	0	0	0	0	0	0	0	0	0	0	0	0	0	0	0	0	0	10.989	-10.989	19.033	0	0	0	1	0	0	17.761	2.1499	16.789	0	0	0	0	0	0	0	0	0	0	0	0	0	0	0	0	0	0	0	0	0	1	0	0	17.47	2.0148	16.554	2
4752	47.52	0	0	0	0	0	0	0	0	0	0	0	0	0	0	0	0	0	0	0	0	0	0	0	0	0	0	0	0	0	0	1	0	0	17.883	2.027	16.961	0	0	0	0	0	0	0	0	0	0	0	0	0	-1	0	-2.0278	-17.891	16.968	0	0	0	0	0	0	0	0	0	2
4753	47.53	0	0	0	0	0	0	0	0	0	0	0	0	0	0	0	0	0	0	0	0	0	0	0	0	0	0	0	0	0	0	0	0	0	0	0	0	0	0	0	0	0	0	0	0	0	0	0	0	0	-1	0	-2.0278	-17.891	16.968	0	0	0	1	0	0	17.47	2.0148	16.554	0
4754	47.54	0	0	0	0	0	0	0	0	0	0	0	0	0	0	0	0	0	0	0	0	0	0	0	0	10.989	-10.989	19.033	0	0	0	1	0	0	17.883	2.027	16.961	0	0	0	0	0	0	0	0	0	0	0	0	0	-1	0	-2.0278	-17.891	16.968	0	0	0	0	0	0	0	0	0	2
4755	47.55	0	0	0	0	0	0	0	0	0	0	0	0	0	0	0	0	0	0	0	0	0	0	0	0	0	0	0	0	0	0	1	0	0	17.883	2.027	16.961	0	0	0	0	0	0	0	0	0	0	0	0	0	-1	0	-2.0278	-17.891	16.968	0	0	0	1	0	0	17.482	2.0162	16.566	2
4756	47.56	0	0	0	0	0	0	0	0	0	0	0	0	0	0	0	0	0	0	0	0	0	0	0	0	0	0	0	0	0	0	0	0	0	0	0	0	0	0	0	0	0	0	0	0	0	0	0	0	0	-1	0	-2.0278	-17.891	16.968	0	0	0	1	0	0	17.47	2.0148	16.554	2
4757	47.57	0	0	0	0	0	0	0	0	0	0	0	0	0	-1	0	-2.0372	-17.821	16.895	0	0	0	0	0	0	0	0	0	0	0	0	1	0	0	17.883	2.027	16.961	0	0	0	0	0	0	0	0	0	0	0	0	0	-1	0	-2.0278	-17.891	16.968	0	0	0	0	0	0	0	0	0	2
4758	47.58	0	0	0	0	0	0	0	0	0	0	0	0	0	0	0	0	0	0	0	0	0	0	0	0	10.989	-10.989	19.033	0	0	0	1	0	0	17.883	2.027	16.961	0	0	0	0	0	0	0	0	0	0	0	0	0	0	0	0	0	0	0	0	0	0	0	0	0	0	0	2
4759	47.59	0	0	0	0	0	0	0	0	0	0	0	0	0	0	0	0	0	0	0	0	0	0	0	0	10.989	-10.989	19.033	0	0	0	1	0	0	17.883	2.027	16.961	0	0	0	0	0	0	0	0	0	0	0	0	0	-1	0	-2.0278	-17.891	16.968	0	0	0	0	0	0	0	0	0	2
4760	47.6	0	0	0	0	0	0	0	0	0	0	0	0	0	0	0	0	0	0	0	0	0	0	0	0	0	0	0	0	0	0	0	0	0	0	0	0	0	0	0	0	0	0	0	0	0	0	0	0	0	-1	0	-2.0278	-17.891	16.968	0	0	0	0	0	0	0	0	0	2
4761	47.61	0	0	0	0	0	0	0	0	0	0	0	0	0	0	0	0	0	0	0	0	0	0	0	0	10.989	-10.989	19.033	0	0	0	1	0	0	17.883	2.027	16.961	0	0	0	0	0	0	0	0	0	0	0	0	0	-1	0	-2.0278	-17.891	16.968	0	0	0	0	0	0	0	0	0	2
4762	47.62	0	0	0	0	0	0	10.917	-10.917	18.908	0	0	0	0	0	0	0	0	0	0	0	0	0	0	0	0	0	0	0	0	0	0	0	0	0	0	0	0	0	0	0	0	0	0	0	0	0	0	0	0	-1	0	-2.0278	-17.891	16.968	0	0	0	0	0	0	0	0	0	2
4763	47.63	0	0	0	0	0	0	10.917	-10.917	18.908	0	0	0	0	0	0	0	0	0	0	0	0	0	0	0	10.989	-10.989	19.033	0	0	0	1	0	0	17.883	2.027	16.961	0	0	0	0	0	0	0	0	0	0	0	0	0	-1	0	-2.0278	-17.891	16.968	0	0	0	0	0	0	0	0	0	2
4764	47.64	0	0	0	0	0	0	0	0	0	0	0	0	0	0	0	0	0	0	0	0	0	0	0	0	0	0	0	0	0	0	1	0	0	17.883	2.027	16.961	0	0	0	0	0	0	0	0	0	0	0	0	0	-1	0	-2.0278	-17.891	16.968	0	0	0	0	0	0	0	0	0	2
4765	47.65	0	0	0	0	0	0	0	0	0	0	0	0	0	-1	0	-2.0366	-17.816	16.89	0	0	0	0	0	0	0	0	0	0	0	0	0	0	0	10.991	-10.991	19.037	0	0	0	0	0	0	0	0	0	0	0	0	0	-1	0	-2.0278	-17.891	16.968	0	0	0	0	0	0	0	0	0	2
4766	47.66	0	0	0	0	0	0	0	0	0	0	0	0	0	0	0	0	0	0	0	0	0	0	0	0	10.989	-10.989	19.033	0	0	0	1	0	0	17.883	2.027	16.961	0	0	0	0	0	0	0	0	0	0	0	0	0	-1	0	-2.0278	-17.891	16.968	0	0	0	0	0	0	0	0	0	2
4767	47.67	0	0	0	0	0	0	0	0	0	0	0	0	0	0	0	0	0	0	0	0	0	0	0	0	0	0	0	0	0	0	1	0	0	17.883	2.027	16.961	0	0	0	0	0	0	0	0	0	0	0	0	0	-1	0	-2.0278	-17.891	16.968	0	0	0	0	0	0	0	0	0	2
4768	47.68	0	0	0	0	0	0	0	0	0	0	0	0	0	0	0	0	0	0	0	0	0	0	0	0	0	0	0	0	0	0	0	0	0	0	0	0	0	0	0	0	0	0	0	0	0	0	0	0	1	-1	0	7.5503	-27.469	31.921	0	0	0	0	0	0	0	0	0	2
4769	47.69	0	0	0	0	0	0	10.917	-10.917	18.908	0	0	0	0	0	0	0	0	0	0	0	0	0	0	0	10.989	-10.989	19.033	0	0	0	1	0	0	17.883	2.027	16.961	0	0	0	0	0	0	0	0	0	0	0	0	0	-1	0	-2.0278	-17.891	16.968	0	0	0	0	0	0	0	0	0	0
4770	47.7	0	0	0	0	0	0	0	0	0	0	0	0	0	-1	0	-2.0366	-17.816	16.89	0	0	0	0	0	0	0	0	0	0	0	0	1	0	0	17.883	2.027	16.961	0	0	0	0	0	0	0	0	0	0	0	0	1	-1	0	7.5503	-27.469	31.921	0	0	0	0	0	0	0	0	0	2
4771	47.71	0	0	0	0	0	0	10.917	-10.917	18.908	0	0	0	0	0	0	0	0	0	0	0	0	0	0	0	0	0	0	0	0	0	1	0	0	17.883	2.027	16.961	0	0	0	0	0	0	0	0	0	0	0	0	1	-1	0	7.5503	-27.469	31.921	0	0	0	1	0	0	17.482	2.0162	16.566	2
4772	47.72	0	0	0	0	0	0	0	0	0	0	0	0	0	0	0	0	0	0	0	0	0	0	0	0	0	0	0	0	0	0	0	0	0	0	0	0	0	0	0	0	0	0	10.996	-10.996	19.046	0	0	0	0	-1	0	-2.0278	-17.891	16.968	0	0	0	0	0	0	0	0	0	2
4773	47.73	0	0	0	0	0	0	0	0	0	0	0	0	0	0	0	0	0	0	0	0	0	0	0	0	10.989	-10.989	19.033	0	0	0	1	0	0	17.883	2.027	16.961	0	0	0	0	0	0	0	0	0	0	0	0	0	-1	0	-2.0278	-17.891	16.968	0	0	0	0	0	0	0	0	0	2
4774	47.74	0	0	0	0	0	0	0	0	0	0	0	0	0	0	0	0	0	0	0	0	0	0	0	0	10.989	-10.989	19.033	0	0	0	1	0	0	17.883	2.027	16.961	0	0	0	0	0	0	0	0	0	0	0	0	0	-1	0	-2.0278	-17.891	16.968	0	0	0	0	0	0	0	0	0	2
4775	47.75	0	0	0	0	0	0	0	0	0	0	0	0	0	0	0	0	0	0	0	0	0	0	0	0	0	0	0	0	0	0	1	0	0	17.883	2.027	16.961	0	0	0	0	0	0	0	0	0	0	0	0	0	-1	0	-2.0278	-17.891	16.968	0	0	0	0	0	0	0	0	0	0
4776	47.76	0	0	0	0	0	0	0	0	0	0	0	0	0	0	0	0	0	0	0	0	0	0	0	0	10.989	-10.989	19.033	0	0	0	1	0	0	17.883	2.027	16.961	0	0	0	0	0	0	0	0	0	0	0	0	0	0	0	0	0	0	0	0	0	0	0	0	0	0	0	0
4777	47.77	0	0	0	0	0	0	0	0	0	0	0	0	0	0	0	0	0	0	0	0	0	0	0	0	0	0	0	0	0	0	0	0	0	0	0	0	0	0	0	0	0	0	0	0	0	0	0	0	0	-1	0	-2.0278	-17.891	16.968	0	0	0	0	0	0	0	0	0	2
4778	47.78	0	0	0	0	0	0	0	0	0	0	0	0	0	0	0	0	0	0	0	0	0	0	0	0	10.989	-10.989	19.033	0	0	0	1	0	0	17.883	2.027	16.961	0	0	0	0	0	0	0	0	0	0	0	0	0	0	0	0	0	0	0	0	0	0	0	0	0	0	0	2
4779	47.79	0	0	0	0	0	0	0	0	0	0	0	0	0	0	0	0	0	0	0	0	0	0	0	0	10.989	-10.989	19.033	0	0	0	0	0	0	0	0	0	0	0	0	0	0	0	0	0	0	0	0	0	0	-1	0	-2.0278	-17.891	16.968	0	0	0	1	0	0	17.482	2.0162	16.566	2
4780	47.8	0	0	0	0	0	0	0	0	0	0	0	0	0	0	0	0	0	0	0	0	0	0	0	0	0	0	0	0	0	0	1	0	0	17.883	2.027	16.961	0	0	0	0	0	0	10.996	-10.996	19.046	0	0	0	0	0	0	0	0	0	0	0	0	0	0	0	0	0	0	2
4781	47.81	0	0	0	0	0	0	0	0	0	0	0	0	0	0	0	0	0	0	0	0	0	0	0	0	0	0	0	0	0	0	1	0	0	17.761	2.1499	16.789	0	0	0	0	0	0	0	0	0	0	0	0	0	-1	0	-2.0278	-17.891	16.968	0	0	0	0	0	0	0	0	0	2
4782	47.82	0	0	0	0	0	0	0	0	0	0	0	0	0	0	0	0	0	0	0	0	0	0	0	0	10.989	-10.989	19.033	0	0	0	0	0	0	0	0	0	0	0	0	0	0	0	0	0	0	0	0	0	0	-1	0	-2.0278	-17.891	16.968	0	0	0	0	0	0	0	0	0	2
4783	47.83	0	0	0	0	0	0	0	0	0	0	0	0	0	0	0	0	0	0	0	0	0	0	0	0	0	0	0	0	0	0	1	0	0	17.883	2.027	16.961	0	0	0	0	0	0	0	0	0	0	0	0	0	-1	0	-2.0278	-17.891	16.968	0	0	0	0	0	0	0	0	0	0
4784	47.84	0	0	0	0	0	0	0	0	0	0	0	0	0	0	0	0	0	0	0	0	0	0	0	0	10.989	-10.989	19.033	0	0	0	1	0	0	17.883	2.027	16.961	0	0	0	0	0	0	0	0	0	0	0	0	1	-1	0	7.5503	-27.469	31.921	0	0	0	0	0	0	0	0	0	2
4785	47.85	0	0	0	0	0	0	0	0	0	0	0	0	0	0	0	0	0	0	0	0	0	0	0	0	0	0	0	0	0	0	1	0	0	17.883	2.027	16.961	0	0	0	0	0	0	0	0	0	0	0	0	0	-1	0	-2.0278	-17.891	16.968	0	0	0	0	0	0	0	0	0	2
4786	47.86	0	0	0	0	0	0	0	0	0	0	0	0	0	0	0	0	0	0	0	0	0	0	0	0	0	0	0	0	0	0	1	0	0	17.883	2.027	16.961	0	0	0	0	0	0	0	0	0	0	0	0	0	-1	0	-2.0278	-17.891	16.968	0	0	0	1	0	0	17.482	2.0162	16.566	2
4787	47.87	0	0	0	0	0	0	0	0	0	0	0	0	0	0	0	0	0	0	0	0	0	0	0	0	10.989	-10.989	19.033	0	0	0	0	0	0	0	0	0	0	0	0	0	-1	0	-2.0279	-17.891	16.969	0	0	0	0	-1	0	-2.0278	-17.891	16.968	0	0	0	0	0	0	0	0	0	2
4788	47.88	0	0	0	0	0	0	0	0	0	0	0	0	0	0	0	0	0	0	0	0	0	0	0	0	10.989	-10.989	19.033	0	0	0	1	0	0	17.883	2.027	16.961	0	0	0	0	0	0	0	0	0	0	0	0	0	-1	0	-2.0278	-17.891	16.968	0	0	0	0	0	0	0	0	0	2
4789	47.89	0	0	0	0	0	0	0	0	0	0	0	0	0	0	0	0	0	0	0	0	0	0	0	0	10.989	-10.989	19.033	0	0	0	1	0	0	17.883	2.027	16.961	0	0	0	0	0	0	10.996	-10.996	19.046	0	0	0	0	-1	0	-2.0278	-17.891	16.968	0	0	0	0	0	0	10.93	-10.93	18.931	2
4790	47.9	0	0	0	0	0	0	10.917	-10.917	18.908	0	0	0	0	0	0	0	0	0	0	0	0	0	0	0	0	0	0	0	0	0	1	0	0	17.883	2.027	16.961	0	0	0	0	0	0	0	0	0	0	0	0	0	-1	0	-2.0278	-17.891	16.968	0	0	0	0	0	0	0	0	0	0
4791	47.91	0	0	0	0	0	0	0	0	0	0	0	0	0	0	0	0	0	0	0	0	0	0	0	0	10.989	-10.989	19.033	0	0	0	1	0	0	17.883	2.027	16.961	0	0	0	0	0	0	0	0	0	0	0	0	0	-1	0	-2.0278	-17.891	16.968	0	0	0	0	0	0	0	0	0	0
4792	47.92	0	0	0	0	0	0	0	0	0	0	0	0	0	0	0	0	0	0	0	0	0	0	0	0	10.989	-10.989	19.033	0	0	0	0	0	0	0	0	0	0	0	0	0	0	0	0	0	0	0	0	0	0	-1	0	-2.0278	-17.891	16.968	0	0	0	0	0	0	0	0	0	2
4793	47.93	0	0	0	0	0	0	0	0	0	0	0	0	0	0	0	0	0	0	0	0	0	0	0	0	0	0	0	0	0	0	1	0	0	17.883	2.027	16.961	0	0	0	0	0	0	0	0	0	0	0	0	0	0	0	0	0	0	0	0	0	0	0	0	0	0	0	2
4794	47.94	0	0	0	0	0	0	0	0	0	0	0	0	0	0	0	0	0	0	0	0	0	0	0	0	10.989	-10.989	19.033	0	0	0	0	0	0	0	0	0	0	0	0	0	-1	0	-2.0279	-17.891	16.969	0	0	0	0	-1	0	-2.0278	-17.891	16.968	0	0	0	0	0	0	0	0	0	2
4795	47.95	0	0	0	0	0	0	0	0	0	0	0	0	0	0	0	0	0	0	0	0	0	0	0	0	10.989	-10.989	19.033	0	0	0	0	0	0	0	0	0	0	0	0	0	0	0	0	0	0	0	0	0	0	-1	0	-2.0278	-17.891	16.968	0	0	0	0	0	0	0	0	0	2
4796	47.96	0	0	0	0	0	0	0	0	0	0	0	0	0	0	0	0	0	0	0	0	0	0	0	0	10.989	-10.989	19.033	0	0	0	1	0	0	17.883	2.027	16.961	0	0	0	0	0	0	0	0	0	0	0	0	0	0	0	0	0	0	0	0	0	1	0	0	30.423	8.5595	27.174	2
4797	47.97	0	0	0	0	0	0	0	0	0	0	0	0	0	0	0	0	0	0	0	0	0	0	0	0	0	0	0	0	0	0	0	0	0	0	0	0	0	0	0	0	0	0	0	0	0	0	0	0	0	-1	0	-2.0278	-17.891	16.968	0	0	0	0	0	0	0	0	0	2
4798	47.98	0	0	0	0	0	0	0	0	0	0	0	0	0	0	0	0	0	0	0	0	0	0	0	0	10.989	-10.989	19.033	0	0	0	0	0	0	0	0	0	0	0	0	0	0	0	0	0	0	0	0	0	0	-1	0	-2.0278	-17.891	16.968	0	0	0	0	0	0	0	0	0	0
4799	47.99	0	0	0	0	0	0	0	0	0	0	0	0	0	0	0	0	0	0	0	0	0	0	0	0	10.989	-10.989	19.033	0	0	0	1	0	0	17.883	2.027	16.961	0	0	0	0	0	0	0	0	0	0	0	0	0	-1	0	-2.0278	-17.891	16.968	0	0	0	0	0	0	0	0	0	2
4800	48	0	0	0	0	0	0	10.917	-10.917	18.908	0	0	0	0	0	0	0	0	0	0	0	0	0	0	0	10.989	-10.989	19.033	0	0	0	0	0	0	0	0	0	0	0	0	0	0	0	0	0	0	0	0	0	0	-1	0	-2.0278	-17.891	16.968	0	0	0	0	0	0	0	0	0	2
4801	48.01	0	0	0	0	0	0	10.917	-10.917	18.908	0	0	0	0	0	0	0	0	0	0	0	0	0	0	0	0	0	0	0	0	0	1	0	0	17.883	2.027	16.961	0	0	0	0	0	0	0	0	0	0	0	0	0	0	0	0	0	0	0	0	0	0	0	0	0	0	0	2
4802	48.02	0	0	0	0	0	0	0	0	0	0	0	0	0	0	0	0	0	0	0	0	0	0	0	0	10.989	-10.989	19.033	0	0	0	0	0	0	0	0	0	0	0	0	0	0	0	0	0	0	0	0	0	1	-1	0	7.5503	-27.469	31.921	0	0	0	0	0	0	0	0	0	2
4803	48.03	0	0	0	0	0	0	0	0	0	0	0	0	0	0	0	0	0	0	0	0	0	0	0	0	0	0	0	0	0	0	0	0	0	0	0	0	0	0	0	0	0	0	0	0	0	0	0	0	0	-1	0	-2.0278	-17.891	16.968	0	0	0	1	0	0	30.423	8.5595	27.174	2
4804	48.04	0	0	0	0	0	0	10.917	-10.917	18.908	0	0	0	0	0	0	0	0	0	0	0	0	0	0	0	0	0	0	0	0	0	0	0	0	0	0	0	0	0	0	0	-1	0	-2.0279	-17.891	16.969	0	0	0	0	-1	0	-2.0278	-17.891	16.968	0	0	0	0	0	0	0	0	0	2
4805	48.05	0	0	0	0	0	0	0	0	0	0	0	0	0	0	0	0	0	0	0	0	0	0	0	0	0	0	0	0	0	0	0	0	0	0	0	0	0	0	0	0	0	0	10.996	-10.996	19.046	0	0	0	0	-1	0	-2.0278	-17.891	16.968	0	0	0	0	0	0	0	0	0	2
4806	48.06	0	0	0	0	0	0	10.917	-10.917	18.908	0	0	0	0	0	0	0	0	0	0	0	0	0	0	0	10.989	-10.989	19.033	0	0	0	1	0	0	17.761	2.1499	16.789	0	0	0	0	0	0	0	0	0	0	0	0	0	-1	0	-2.0278	-17.891	16.968	0	0	0	1	0	0	17.47	2.0148	16.554	2
4807	48.07	0	0	0	0	0	0	0	0	0	0	0	0	0	0	0	0	0	0	0	0	0	0	0	0	10.989	-10.989	19.033	0	0	0	1	0	0	17.883	2.027	16.961	0	0	0	0	0	0	0	0	0	0	0	0	0	-1	0	-2.0278	-17.891	16.968	0	0	0	0	0	0	0	0	0	2
4808	48.08	0	0	0	0	0	0	0	0	0	0	0	0	0	0	0	0	0	0	0	0	0	0	0	0	10.989	-10.989	19.033	0	0	0	1	0	0	17.883	2.027	16.961	0	0	0	0	0	0	0	0	0	0	0	0	0	0	0	0	0	0	0	0	0	1	0	0	30.423	8.5595	27.174	0
4809	48.09	0	0	0	0	0	0	0	0	0	0	0	0	0	0	0	0	0	0	0	0	0	0	0	0	10.989	-10.989	19.033	0	0	0	0	0	0	0	0	0	0	0	0	0	0	0	0	0	0	0	0	0	0	-1	0	-2.0278	-17.891	16.968	0	0	0	0	0	0	0	0	0	2
4810	48.1	0	0	0	0	0	0	10.917	-10.917	18.908	0	0	0	0	0	0	0	0	0	0	0	0	0	0	0	10.989	-10.989	19.033	0	0	0	0	0	0	0	0	0	0	0	0	0	0	0	0	0	0	0	0	0	0	-1	0	-2.0278	-17.891	16.968	0	0	0	0	0	0	0	0	0	0
4811	48.11	0	0	0	0	0	0	10.917	-10.917	18.908	0	0	0	0	0	0	0	0	0	0	0	0	0	0	0	0	0	0	0	0	0	0	0	0	0	0	0	0	0	0	0	0	0	10.996	-10.996	19.046	0	0	0	0	-1	0	-2.0278	-17.891	16.968	0	0	0	1	0	0	17.47	2.0148	16.554	2
4812	48.12	0	0	0	0	0	0	0	0	0	0	0	0	0	0	0	0	0	0	0	0	0	0	0	0	10.989	-10.989	19.033	0	0	0	0	0	0	0	0	0	0	0	0	0	0	0	10.996	-10.996	19.046	0	0	0	0	-1	0	-2.0278	-17.891	16.968	0	0	0	0	0	0	0	0	0	2
4813	48.13	0	0	0	0	0	0	0	0	0	0	0	0	0	0	0	0	0	0	0	0	0	0	0	0	0	0	0	0	0	0	1	0	0	17.883	2.027	16.961	0	0	0	0	0	0	0	0	0	0	0	0	0	-1	0	-2.0278	-17.891	16.968	0	0	0	0	0	0	0	0	0	2
4814	48.14	0	0	0	0	0	0	10.917	-10.917	18.908	0	0	0	0	0	0	0	0	0	0	0	0	0	0	0	10.989	-10.989	19.033	0	0	0	1	0	0	17.883	2.027	16.961	0	0	0	0	0	0	0	0	0	0	0	0	0	-1	0	-2.0278	-17.891	16.968	0	0	0	0	0	0	0	0	0	2
4815	48.15	0	0	0	0	0	0	0	0	0	0	0	0	0	0	0	0	0	0	0	0	0	0	0	0	0	0	0	0	0	0	0	0	0	0	0	0	0	0	0	0	0	0	10.996	-10.996	19.046	0	0	0	0	-1	0	-2.0278	-17.891	16.968	0	0	0	0	0	0	0	0	0	0
4816	48.16	0	0	0	0	0	0	10.917	-10.917	18.908	0	0	0	0	0	0	0	0	0	0	0	0	0	0	0	10.989	-10.989	19.033	0	0	0	1	0	0	17.883	2.027	16.961	0	0	0	0	0	0	0	0	0	0	0	0	0	-1	0	-2.0278	-17.891	16.968	0	0	0	0	0	0	0	0	0	2
4817	48.17	0	0	0	0	0	0	10.917	-10.917	18.908	0	0	0	0	0	0	0	0	0	0	0	0	0	0	0	0	0	0	0	0	0	0	0	0	0	0	0	0	0	0	0	0	0	0	0	0	0	0	0	0	-1	0	-2.0278	-17.891	16.968	0	0	0	0	0	0	0	0	0	2
4818	48.18	0	0	0	0	0	0	0	0	0	0	0	0	0	0	0	0	0	0	0	0	0	0	0	0	10.989	-10.989	19.033	0	0	0	0	0	0	0	0	0	0	0	0	0	0	0	0	0	0	0	0	0	0	-1	0	-2.0278	-17.891	16.968	0	0	0	0	0	0	0	0	0	2
4819	48.19	0	0	0	0	0	0	0	0	0	0	0	0	0	0	0	0	0	0	0	0	0	0	0	0	10.989	-10.989	19.033	0	0	0	1	0	0	17.883	2.027	16.961	0	0	0	0	0	0	0	0	0	0	0	0	0	0	0	0	0	0	0	0	0	0	0	0	0	0	0	2
4820	48.2	0	0	0	0	0	0	10.917	-10.917	18.908	0	0	0	0	0	0	0	0	0	0	0	0	0	0	0	0	0	0	0	0	0	1	0	0	17.883	2.027	16.961	0	0	0	0	0	0	10.996	-10.996	19.046	0	0	0	0	-1	0	-2.0278	-17.891	16.968	0	0	0	0	0	0	0	0	0	2
4821	48.21	0	0	0	0	0	0	10.917	-10.917	18.908	0	0	0	0	0	0	0	0	0	0	0	0	0	0	0	10.989	-10.989	19.033	0	0	0	1	0	0	17.883	2.027	16.961	0	0	0	0	0	0	0	0	0	0	0	0	0	-1	0	-2.0278	-17.891	16.968	0	0	0	0	0	0	0	0	0	2
4822	48.22	0	0	0	0	0	0	10.917	-10.917	18.908	0	0	0	0	0	0	0	0	0	0	0	0	0	0	0	0	0	0	0	0	0	1	0	0	17.883	2.027	16.961	0	0	0	0	0	0	10.996	-10.996	19.046	0	0	0	0	-1	0	-2.0278	-17.891	16.968	0	0	0	0	0	0	0	0	0	2
4823	48.23	0	0	0	0	-1	0	-2.0364	-17.814	16.888	0	0	0	0	0	0	0	0	0	0	0	0	0	0	0	0	0	0	0	0	0	1	0	0	17.883	2.027	16.961	0	0	0	0	0	0	0	0	0	0	0	0	0	-1	0	-2.0278	-17.891	16.968	0	0	0	0	0	0	0	0	0	2
4824	48.24	0	0	0	0	0	0	10.917	-10.917	18.908	0	0	0	0	0	0	0	0	0	0	0	0	0	0	0	10.989	-10.989	19.033	0	0	0	1	0	0	17.883	2.027	16.961	0	0	0	0	0	0	0	0	0	0	0	0	0	-1	0	-2.0278	-17.891	16.968	0	0	0	0	0	0	0	0	0	2
4825	48.25	0	0	0	0	0	0	0	0	0	0	0	0	0	0	0	0	0	0	0	0	0	0	0	0	0	0	0	0	0	0	1	0	0	17.883	2.027	16.961	0	0	0	0	0	0	0	0	0	0	0	0	0	0	0	0	0	0	0	0	0	0	0	0	0	0	0	2
4826	48.26	0	0	0	0	0	0	0	0	0	0	0	0	0	0	0	0	0	0	0	0	0	0	0	0	10.989	-10.989	19.033	0	0	0	1	0	0	17.883	2.027	16.961	0	0	0	0	0	0	0	0	0	0	0	0	0	-1	0	-2.0278	-17.891	16.968	0	0	0	1	0	0	17.47	2.0148	16.554	0
4827	48.27	0	0	0	0	0	0	0	0	0	0	0	0	0	0	0	0	0	0	0	0	0	0	0	0	0	0	0	0	0	0	0	0	0	0	0	0	0	0	0	0	0	0	0	0	0	0	0	0	0	-1	0	-2.0278	-17.891	16.968	0	0	0	0	0	0	0	0	0	2
4828	48.28	0	0	0	0	0	0	10.917	-10.917	18.908	0	0	0	0	0	0	0	0	0	0	0	0	0	0	0	0	0	0	0	0	0	0	0	0	0	0	0	0	0	0	0	0	0	0	0	0	0	0	0	1	-1	0	7.5503	-27.469	31.921	0	0	0	0	0	0	0	0	0	2
4829	48.29	0	0	0	0	0	0	10.917	-10.917	18.908	0	0	0	0	0	0	0	0	0	0	0	0	0	0	0	10.989	-10.989	19.033	0	0	0	0	0	0	0	0	0	0	0	0	0	0	0	0	0	0	0	0	0	0	-1	0	-2.0278	-17.891	16.968	0	0	0	0	0	0	0	0	0	2
4830	48.3	0	0	0	0	0	0	0	0	0	0	0	0	0	0	0	0	0	0	0	0	0	0	0	0	0	0	0	0	0	0	1	0	0	17.883	2.027	16.961	0	0	0	0	0	0	0	0	0	0	0	0	0	-1	0	-2.0278	-17.891	16.968	0	0	0	0	0	0	0	0	0	2
4831	48.31	0	0	0	0	0	0	10.917	-10.917	18.908	0	0	0	0	0	0	0	0	0	0	0	0	0	0	0	10.989	-10.989	19.033	0	0	0	1	0	0	17.883	2.027	16.961	0	0	0	0	0	0	0	0	0	0	0	0	0	-1	0	-2.0278	-17.891	16.968	0	0	0	0	0	0	0	0	0	2
4832	48.32	0	0	0	0	0	0	0	0	0	0	0	0	0	0	0	0	0	0	0	0	0	0	0	0	0	0	0	0	0	0	1	0	0	17.883	2.027	16.961	0	0	0	0	0	0	0	0	0	0	0	0	0	-1	0	-2.0278	-17.891	16.968	0	0	0	0	0	0	0	0	0	2
4833	48.33	0	0	0	0	0	0	0	0	0	0	0	0	0	0	0	0	0	0	0	0	0	0	0	0	0	0	0	0	0	0	0	0	0	0	0	0	0	0	0	0	0	0	0	0	0	0	0	0	0	-1	0	-2.0278	-17.891	16.968	0	0	0	0	0	0	0	0	0	0
4834	48.34	0	0	0	0	0	0	10.917	-10.917	18.908	0	0	0	0	0	0	0	0	0	0	0	0	0	0	0	0	0	0	0	0	0	0	0	0	0	0	0	0	0	0	0	0	0	0	0	0	0	0	0	0	-1	0	-2.0278	-17.891	16.968	0	0	0	0	0	0	0	0	0	2
4835	48.35	0	0	0	0	0	0	0	0	0	0	0	0	0	0	0	0	0	0	0	0	0	0	0	0	10.989	-10.989	19.033	0	0	0	0	0	0	0	0	0	0	0	0	0	0	0	0	0	0	0	0	0	0	-1	0	-2.0278	-17.891	16.968	0	0	0	0	0	0	0	0	0	2
4836	48.36	0	0	0	0	0	0	10.917	-10.917	18.908	0	0	0	0	0	0	0	0	0	0	0	0	0	0	0	0	0	0	0	0	0	0	0	0	0	0	0	0	0	0	0	0	0	0	0	0	0	0	0	0	-1	0	-2.0278	-17.891	16.968	0	0	0	1	0	0	17.47	2.0148	16.554	2
4837	48.37	0	0	0	0	0	0	0	0	0	0	0	0	0	0	0	0	0	0	0	0	0	0	0	0	0	0	0	0	0	0	1	0	0	17.883	2.027	16.961	0	0	0	0	0	0	0	0	0	0	0	0	0	-1	0	-2.0278	-17.891	16.968	0	0	0	0	0	0	0	0	0	2
4838	48.38	0	0	0	0	0	0	0	0	0	0	0	0	0	0	0	0	0	0	0	0	0	0	0	0	10.989	-10.989	19.033	0	0	0	1	0	0	17.883	2.027	16.961	0	0	0	0	0	0	0	0	0	0	0	0	0	-1	0	-2.0278	-17.891	16.968	0	0	0	0	0	0	0	0	0	2
4839	48.39	0	0	0	0	0	0	10.917	-10.917	18.908	0	0	0	0	0	0	0	0	0	0	0	0	0	0	0	10.989	-10.989	19.033	0	0	0	0	0	0	0	0	0	0	0	0	0	0	0	0	0	0	0	0	0	0	-1	0	-2.0278	-17.891	16.968	0	0	0	0	0	0	0	0	0	2
4840	48.4	0	0	0	0	0	0	0	0	0	0	0	0	0	0	0	0	0	0	0	0	0	0	0	0	10.989	-10.989	19.033	0	0	0	1	0	0	17.883	2.027	16.961	0	0	0	0	0	0	0	0	0	0	0	0	0	0	0	0	0	0	0	0	0	0	0	0	0	0	0	2
4841	48.41	0	0	0	0	0	0	10.917	-10.917	18.908	0	0	0	0	0	0	0	0	0	0	0	0	0	0	0	10.989	-10.989	19.033	0	0	0	1	0	0	17.883	2.027	16.961	0	0	0	0	0	0	0	0	0	0	0	0	0	-1	0	-2.0278	-17.891	16.968	0	0	0	1	0	0	17.47	2.0148	16.554	2
4842	48.42	0	0	0	0	0	0	0	0	0	0	0	0	0	0	0	0	0	0	0	0	0	0	0	0	0	0	0	0	0	0	1	0	0	17.883	2.027	16.961	0	0	0	0	0	0	0	0	0	0	0	0	0	0	0	0	0	0	0	0	0	0	0	0	0	0	0	2
4843	48.43	0	0	0	0	0	0	10.917	-10.917	18.908	0	0	0	0	0	0	0	0	0	0	0	0	0	0	0	10.989	-10.989	19.033	0	0	0	0	0	0	0	0	0	0	0	0	0	0	0	0	0	0	0	0	0	0	-1	0	-2.0278	-17.891	16.968	0	0	0	0	0	0	0	0	0	2
4844	48.44	0	0	0	0	0	0	0	0	0	0	0	0	0	0	0	0	0	0	0	0	0	0	0	0	0	0	0	0	0	0	0	0	0	0	0	0	0	0	0	0	0	0	0	0	0	0	0	0	0	0	0	0	0	0	0	0	0	0	0	0	0	0	0	2
4845	48.45	0	0	0	0	0	0	0	0	0	0	0	0	0	0	0	0	0	0	0	0	0	0	0	0	0	0	0	0	0	0	0	0	0	0	0	0	0	0	0	0	0	0	0	0	0	0	0	0	0	-1	0	-2.0278	-17.891	16.968	0	0	0	0	0	0	0	0	0	2
4846	48.46	0	0	0	0	0	0	0	0	0	0	0	0	0	0	0	0	0	0	0	0	0	0	0	0	10.989	-10.989	19.033	0	0	0	1	0	0	17.883	2.027	16.961	0	0	0	0	0	0	0	0	0	0	0	0	0	-1	0	-2.0278	-17.891	16.968	0	0	0	0	0	0	0	0	0	2
4847	48.47	0	0	0	0	0	0	0	0	0	0	0	0	0	0	0	0	0	0	0	0	0	0	0	0	0	0	0	0	0	0	0	0	0	0	0	0	0	0	0	0	0	0	0	0	0	0	0	0	0	-1	0	-2.0278	-17.891	16.968	0	0	0	0	0	0	0	0	0	2
4848	48.48	0	0	0	0	0	0	0	0	0	0	0	0	0	0	0	0	0	0	0	0	0	0	0	0	10.989	-10.989	19.033	0	0	0	0	0	0	0	0	0	0	0	0	0	0	0	0	0	0	0	0	0	0	-1	0	-2.0278	-17.891	16.968	0	0	0	0	0	0	0	0	0	2
4849	48.49	0	0	0	0	0	0	0	0	0	0	0	0	0	0	0	0	0	0	0	0	0	0	0	0	0	0	0	0	0	0	0	0	0	0	0	0	0	0	0	0	0	0	0	0	0	0	0	0	0	-1	0	-2.0278	-17.891	16.968	0	0	0	1	0	0	17.47	2.0148	16.554	2
4850	48.5	0	0	0	0	0	0	10.917	-10.917	18.908	0	0	0	0	0	0	0	0	0	0	0	0	0	0	0	10.989	-10.989	19.033	0	0	0	1	0	0	17.883	2.027	16.961	0	0	0	0	-1	0	-2.0279	-17.891	16.969	0	0	0	0	-1	0	-2.0278	-17.891	16.968	0	0	0	0	0	0	0	0	0	2
4851	48.51	0	0	0	0	0	0	0	0	0	0	0	0	0	0	0	0	0	0	0	0	0	0	0	0	10.989	-10.989	19.033	0	0	0	1	0	0	17.883	2.027	16.961	0	0	0	0	0	0	0	0	0	0	0	0	0	-1	0	-2.0278	-17.891	16.968	0	0	0	0	0	0	0	0	0	2
4852	48.52	0	0	0	0	0	0	0	0	0	0	0	0	0	0	0	0	0	0	0	0	0	0	0	0	10.989	-10.989	19.033	0	0	0	0	0	0	0	0	0	0	0	0	0	0	0	0	0	0	0	0	0	0	0	0	0	0	0	0	0	0	0	0	0	0	0	0	2
4853	48.53	0	0	0	0	0	0	0	0	0	0	0	0	0	0	0	0	0	0	0	0	0	0	0	0	10.989	-10.989	19.033	0	0	0	0	0	0	0	0	0	0	0	0	0	0	0	0	0	0	0	0	0	0	-1	0	-2.0278	-17.891	16.968	0	0	0	0	0	0	0	0	0	2
4854	48.54	0	0	0	0	0	0	0	0	0	0	0	0	0	0	0	0	0	0	0	0	0	0	0	0	10.989	-10.989	19.033	0	0	0	1	0	0	17.883	2.027	16.961	0	0	0	0	0	0	0	0	0	0	0	0	0	-1	0	-2.0278	-17.891	16.968	0	0	0	0	0	0	0	0	0	2
4855	48.55	0	0	0	0	0	0	0	0	0	0	0	0	0	0	0	0	0	0	0	0	0	0	0	0	10.989	-10.989	19.033	0	0	0	0	0	0	0	0	0	0	0	0	0	0	0	0	0	0	0	0	0	1	-1	0	7.5503	-27.469	31.921	0	0	0	0	0	0	0	0	0	2
4856	48.56	0	0	0	0	0	0	0	0	0	0	0	0	0	0	0	0	0	0	0	0	0	0	0	0	0	0	0	0	0	0	1	0	0	17.883	2.027	16.961	0	0	0	0	0	0	0	0	0	0	0	0	0	0	0	10.994	-10.994	19.042	0	0	0	0	0	0	0	0	0	2
4857	48.57	0	0	0	0	0	0	0	0	0	0	0	0	0	-1	0	-2.0366	-17.816	16.89	0	0	0	0	0	0	10.989	-10.989	19.033	0	0	0	1	0	0	17.883	2.027	16.961	0	0	0	0	0	0	0	0	0	0	0	0	0	-1	0	-2.0278	-17.891	16.968	0	0	0	0	0	0	0	0	0	2
4858	48.58	0	0	0	0	0	0	0	0	0	0	0	0	0	0	0	0	0	0	0	0	0	0	0	0	10.989	-10.989	19.033	0	0	0	0	0	0	0	0	0	0	0	0	0	0	0	0	0	0	0	0	0	0	-1	0	-2.0278	-17.891	16.968	0	0	0	1	0	0	17.482	2.0162	16.566	2
4859	48.59	0	0	0	0	0	0	0	0	0	0	0	0	0	0	0	0	0	0	0	0	0	0	0	0	10.989	-10.989	19.033	0	0	0	0	0	0	0	0	0	0	0	0	0	0	0	0	0	0	0	0	0	0	-1	0	-2.0278	-17.891	16.968	0	0	0	0	0	0	0	0	0	2
4860	48.6	0	0	0	0	0	0	0	0	0	0	0	0	0	-1	0	-2.0366	-17.816	16.89	0	0	0	0	0	0	10.989	-10.989	19.033	0	0	0	1	0	0	17.883	2.027	16.961	0	0	0	0	0	0	0	0	0	0	0	0	0	-1	0	-2.0278	-17.891	16.968	0	0	0	0	0	0	0	0	0	2
4861	48.61	0	0	0	0	0	0	0	0	0	0	0	0	0	0	0	0	0	0	0	0	0	0	0	0	10.989	-10.989	19.033	0	0	0	0	0	0	0	0	0	0	0	0	0	0	0	0	0	0	0	0	0	0	0	0	0	0	0	0	0	0	0	0	0	0	0	0	2
4862	48.62	0	0	0	0	0	0	0	0	0	0	0	0	0	0	0	0	0	0	0	0	0	0	0	0	0	0	0	0	0	0	1	0	0	17.883	2.027	16.961	0	0	0	0	0	0	0	0	0	0	0	0	0	-1	0	-2.0278	-17.891	16.968	0	0	0	0	0	0	0	0	0	0
4863	48.63	0	0	0	0	0	0	0	0	0	0	0	0	0	0	0	0	0	0	0	0	0	0	0	0	10.989	-10.989	19.033	0	0	0	1	0	0	17.883	2.027	16.961	0	0	0	0	0	0	0	0	0	0	0	0	0	-1	0	-2.0278	-17.891	16.968	0	0	0	0	0	0	0	0	0	2
4864	48.64	0	0	0	0	0	0	0	0	0	0	0	0	0	0	0	0	0	0	0	0	0	0	0	0	10.989	-10.989	19.033	0	0	0	1	0	0	17.883	2.027	16.961	0	0	0	0	0	0	0	0	0	0	0	0	0	-1	0	-2.0278	-17.891	16.968	0	0	0	0	0	0	0	0	0	2
4865	48.65	0	0	0	0	0	0	0	0	0	0	0	0	0	-1	0	-2.0366	-17.816	16.89	0	0	0	0	0	0	10.989	-10.989	19.033	0	0	0	0	0	0	0	0	0	0	0	0	0	0	0	0	0	0	0	0	0	0	-1	0	-2.0278	-17.891	16.968	0	0	0	0	0	0	0	0	0	0
4866	48.66	0	0	0	0	0	0	0	0	0	0	0	0	0	0	0	0	0	0	0	0	0	0	0	0	10.989	-10.989	19.033	0	0	0	1	0	0	17.883	2.027	16.961	0	0	0	0	0	0	0	0	0	0	0	0	1	-1	0	7.5503	-27.469	31.921	0	0	0	1	0	0	30.423	8.5595	27.174	2
4867	48.67	0	0	0	0	0	0	0	0	0	0	0	0	0	0	0	0	0	0	0	0	0	0	0	0	10.989	-10.989	19.033	0	0	0	0	0	0	0	0	0	0	0	0	0	0	0	0	0	0	0	0	0	0	-1	0	-2.0278	-17.891	16.968	0	0	0	0	0	0	0	0	0	2
4868	48.68	0	0	0	0	0	0	0	0	0	0	0	0	0	0	0	0	0	0	0	0	0	0	0	0	10.989	-10.989	19.033	0	0	0	0	0	0	0	0	0	0	0	0	0	0	0	0	0	0	0	0	0	0	-1	0	-2.0278	-17.891	16.968	0	0	0	1	0	0	17.482	2.0162	16.566	0
4869	48.69	0	0	0	0	-1	0	-2.0364	-17.814	16.888	0	0	0	0	0	0	0	0	0	0	0	0	0	0	0	0	0	0	0	0	0	0	0	0	0	0	0	0	0	0	0	0	0	0	0	0	0	0	0	0	0	0	0	0	0	0	0	0	0	0	0	0	0	0	2
4870	48.7	0	0	0	0	0	0	0	0	0	0	0	0	0	-1	0	-2.0366	-17.816	16.89	0	0	0	0	0	0	0	0	0	0	0	0	0	0	0	0	0	0	0	0	0	0	0	0	0	0	0	0	0	0	0	-1	0	-2.0278	-17.891	16.968	0	0	0	0	0	0	0	0	0	2
4871	48.71	0	0	0	0	0	0	10.917	-10.917	18.908	0	0	0	0	0	0	0	0	0	0	0	0	0	0	0	10.989	-10.989	19.033	0	0	0	1	0	0	17.883	2.027	16.961	0	0	0	0	0	0	0	0	0	0	0	0	0	-1	0	-2.0278	-17.891	16.968	0	0	0	1	0	0	17.482	2.0162	16.566	2
4872	48.72	0	0	0	0	0	0	0	0	0	0	0	0	0	0	0	0	0	0	0	0	0	0	0	0	10.989	-10.989	19.033	0	0	0	0	0	0	0	0	0	0	0	0	0	0	0	0	0	0	0	0	0	0	-1	0	-2.0278	-17.891	16.968	0	0	0	0	0	0	0	0	0	2
4873	48.73	0	0	0	0	0	0	0	0	0	0	0	0	0	0	0	0	0	0	0	0	0	0	0	0	10.989	-10.989	19.033	0	0	0	1	0	0	17.883	2.027	16.961	0	0	0	0	0	0	0	0	0	0	0	0	0	-1	0	-2.0278	-17.891	16.968	0	0	0	0	0	0	0	0	0	2
4874	48.74	0	0	0	0	0	0	0	0	0	0	0	0	0	0	0	0	0	0	0	0	0	0	0	0	0	0	0	0	0	0	0	0	0	0	0	0	0	0	0	0	0	0	0	0	0	0	0	0	0	-1	0	-2.0278	-17.891	16.968	0	0	0	0	0	0	0	0	0	2
4875	48.75	0	0	0	0	0	0	0	0	0	0	0	0	0	0	0	0	0	0	0	0	0	0	0	0	0	0	0	0	0	0	1	0	0	17.883	2.027	16.961	0	0	0	0	0	0	0	0	0	0	0	0	0	0	0	0	0	0	0	0	0	0	0	0	0	0	0	2
4876	48.76	0	0	0	0	0	0	0	0	0	0	0	0	0	0	0	0	0	0	0	0	0	0	0	0	10.989	-10.989	19.033	0	0	0	1	0	0	17.883	2.027	16.961	0	0	0	0	0	0	0	0	0	0	0	0	0	-1	0	-2.0278	-17.891	16.968	0	0	0	0	0	0	0	0	0	2
4877	48.77	0	0	0	0	0	0	10.917	-10.917	18.908	0	0	0	0	0	0	0	0	0	0	0	0	0	0	0	10.989	-10.989	19.033	0	0	0	0	0	0	0	0	0	0	0	0	0	0	0	0	0	0	0	0	0	0	-1	0	-2.0278	-17.891	16.968	0	0	0	0	0	0	0	0	0	0
4878	48.78	0	0	0	0	0	0	0	0	0	0	0	0	0	-1	0	-2.0366	-17.816	16.89	0	0	0	0	0	0	0	0	0	0	0	0	1	0	0	17.883	2.027	16.961	0	0	0	0	0	0	0	0	0	0	0	0	0	0	0	0	0	0	0	0	0	0	0	0	0	0	0	2
4879	48.79	0	0	0	0	0	0	0	0	0	0	0	0	0	0	0	0	0	0	0	0	0	0	0	0	10.989	-10.989	19.033	0	0	0	1	0	0	17.883	2.027	16.961	0	0	0	0	0	0	0	0	0	0	0	0	0	-1	0	-2.0278	-17.891	16.968	0	0	0	0	0	0	0	0	0	2
4880	48.8	0	0	0	0	0	0	0	0	0	0	0	0	0	0	0	0	0	0	0	0	0	0	0	0	0	0	0	0	0	0	0	0	0	0	0	0	0	0	0	0	0	0	0	0	0	0	0	0	0	0	0	0	0	0	0	0	0	0	0	0	0	0	0	2
4881	48.81	0	0	0	0	0	0	0	0	0	0	0	0	0	0	0	0	0	0	0	0	0	0	0	0	10.989	-10.989	19.033	0	0	0	1	0	0	17.883	2.027	16.961	0	0	0	0	0	0	0	0	0	0	0	0	0	-1	0	-2.0278	-17.891	16.968	0	0	0	0	0	0	0	0	0	0
4882	48.82	0	0	0	0	0	0	0	0	0	0	0	0	0	0	0	0	0	0	0	0	0	0	0	0	0	0	0	0	0	0	0	0	0	0	0	0	0	0	0	0	0	0	0	0	0	0	0	0	1	-1	0	7.5503	-27.469	31.921	0	0	0	0	0	0	0	0	0	2
4883	48.83	0	0	0	0	0	0	0	0	0	0	0	0	0	0	0	0	0	0	0	0	0	0	0	0	0	0	0	0	0	0	1	0	0	17.883	2.027	16.961	0	0	0	0	0	0	0	0	0	0	0	0	0	-1	0	-2.0278	-17.891	16.968	0	0	0	0	0	0	0	0	0	2
4884	48.84	0	0	0	0	0	0	0	0	0	0	0	0	0	0	0	0	0	0	0	0	0	0	0	0	10.989	-10.989	19.033	0	0	0	0	0	0	0	0	0	0	0	0	0	0	0	0	0	0	0	0	0	0	-1	0	-2.0278	-17.891	16.968	0	0	0	0	0	0	0	0	0	2
4885	48.85	0	0	0	0	0	0	0	0	0	0	0	0	0	0	0	0	0	0	0	0	0	0	0	0	0	0	0	0	0	0	1	-1	0	15.733	-15.728	27.247	0	0	0	0	0	0	0	0	0	0	0	0	0	0	0	0	0	0	0	0	0	0	0	0	0	0	0	2
4886	48.86	0	0	0	0	0	0	0	0	0	0	0	0	0	0	0	0	0	0	0	0	0	0	0	0	10.989	-10.989	19.033	0	0	0	1	0	0	17.883	2.027	16.961	0	0	0	0	0	0	0	0	0	0	0	0	0	-1	0	-2.0278	-17.891	16.968	0	0	0	0	0	0	0	0	0	2
4887	48.87	0	0	0	0	0	0	0	0	0	0	0	0	0	0	0	0	0	0	0	0	0	0	0	0	0	0	0	0	0	0	1	0	0	17.883	2.027	16.961	0	0	0	0	0	0	0	0	0	0	0	0	0	-1	0	-2.0278	-17.891	16.968	0	0	0	0	0	0	0	0	0	0
4888	48.88	0	0	0	0	0	0	0	0	0	0	0	0	0	0	0	0	0	0	0	0	0	0	0	0	0	0	0	0	0	0	1	0	0	17.883	2.027	16.961	0	0	0	0	0	0	0	0	0	0	0	0	0	-1	0	-2.0278	-17.891	16.968	0	0	0	0	0	0	0	0	0	2
4889	48.89	0	0	0	0	0	0	0	0	0	0	0	0	0	0	0	0	0	0	0	0	0	0	0	0	10.989	-10.989	19.033	0	0	0	0	0	0	0	0	0	0	0	0	0	0	0	0	0	0	0	0	0	1	-1	0	7.5503	-27.469	31.921	0	0	0	0	0	0	0	0	0	2
4890	48.9	0	0	0	0	0	0	0	0	0	0	0	0	0	0	0	0	0	0	0	0	0	0	0	0	0	0	0	0	0	0	0	0	0	0	0	0	0	0	0	0	0	0	0	0	0	0	0	0	0	-1	0	-2.0278	-17.891	16.968	0	0	0	0	0	0	0	0	0	2
4891	48.91	0	0	0	0	0	0	0	0	0	0	0	0	0	0	0	0	0	0	0	0	0	0	0	0	0	0	0	0	0	0	1	0	0	17.883	2.027	16.961	0	0	0	0	0	0	0	0	0	0	0	0	1	-1	0	7.5503	-27.469	31.921	0	0	0	0	0	0	0	0	0	2
4892	48.92	0	0	0	0	0	0	0	0	0	0	0	0	0	0	0	0	0	0	0	0	0	0	0	0	10.989	-10.989	19.033	0	0	0	1	0	0	17.883	2.027	16.961	0	0	0	0	0	0	0	0	0	0	0	0	0	-1	0	-2.0278	-17.891	16.968	0	0	0	0	0	0	0	0	0	0
4893	48.93	0	0	0	0	0	0	10.917	-10.917	18.908	0	0	0	0	0	0	0	0	0	0	0	0	0	0	0	10.989	-10.989	19.033	0	0	0	1	0	0	17.883	2.027	16.961	0	0	0	0	0	0	0	0	0	0	0	0	1	-1	0	7.5503	-27.469	31.921	0	0	0	0	0	0	0	0	0	2
4894	48.94	0	0	0	0	0	0	10.917	-10.917	18.908	0	0	0	0	0	0	0	0	0	0	0	0	0	0	0	0	0	0	0	0	0	1	0	0	17.883	2.027	16.961	0	0	0	0	0	0	0	0	0	0	0	0	0	0	0	0	0	0	0	0	0	0	0	0	0	0	0	2
4895	48.95	0	0	0	0	0	0	0	0	0	0	0	0	0	0	0	0	0	0	0	0	0	0	0	0	0	0	0	0	0	0	0	0	0	0	0	0	0	0	0	0	0	0	0	0	0	0	0	0	0	-1	0	-2.0278	-17.891	16.968	0	0	0	0	0	0	0	0	0	2
4896	48.96	0	0	0	0	0	0	10.917	-10.917	18.908	0	0	0	0	-1	0	-2.0366	-17.816	16.89	0	0	0	0	0	0	10.989	-10.989	19.033	0	0	0	1	0	0	17.883	2.027	16.961	0	0	0	0	0	0	0	0	0	0	0	0	0	-1	0	-2.0278	-17.891	16.968	0	0	0	0	0	0	0	0	0	2
4897	48.97	0	0	0	0	0	0	10.917	-10.917	18.908	0	0	0	0	0	0	0	0	0	0	0	0	0	0	0	10.989	-10.989	19.033	0	0	0	0	0	0	0	0	0	0	0	0	0	0	0	0	0	0	0	0	0	0	-1	0	-2.0278	-17.891	16.968	0	0	0	0	0	0	0	0	0	0
4898	48.98	0	0	0	0	0	0	0	0	0	0	0	0	0	0	0	0	0	0	0	0	0	0	0	0	0	0	0	0	0	0	1	0	0	17.883	2.027	16.961	0	0	0	0	0	0	0	0	0	0	0	0	0	-1	0	-2.0278	-17.891	16.968	0	0	0	0	0	0	0	0	0	2
4899	48.99	0	0	0	0	0	0	0	0	0	0	0	0	0	0	0	0	0	0	0	0	0	0	0	0	10.989	-10.989	19.033	0	0	0	0	0	0	0	0	0	0	0	0	0	0	0	0	0	0	0	0	0	0	-1	0	-2.0278	-17.891	16.968	0	0	0	0	0	0	10.93	-10.93	18.931	2
4900	49	0	0	0	0	0	0	0	0	0	0	0	0	0	0	0	0	0	0	0	0	0	0	0	0	10.989	-10.989	19.033	0	0	0	1	0	0	17.883	2.027	16.961	0	0	0	0	0	0	0	0	0	0	0	0	0	-1	0	-2.0278	-17.891	16.968	0	0	0	0	0	0	0	0	0	2
4901	49.01	0	0	0	0	0	0	10.917	-10.917	18.908	0	0	0	0	0	0	0	0	0	0	0	0	0	0	0	0	0	0	0	0	0	1	0	0	17.883	2.027	16.961	0	0	0	0	0	0	0	0	0	0	0	0	0	-1	0	-2.0278	-17.891	16.968	0	0	0	1	0	0	17.47	2.0148	16.554	2
4902	49.02	0	0	0	0	0	0	10.917	-10.917	18.908	0	0	0	0	0	0	0	0	0	0	0	0	0	0	0	10.989	-10.989	19.033	0	0	0	1	0	0	17.883	2.027	16.961	0	0	0	0	0	0	0	0	0	0	0	0	0	-1	0	-2.0278	-17.891	16.968	0	0	0	0	0	0	0	0	0	2
4903	49.03	0	0	0	0	0	0	10.917	-10.917	18.908	0	0	0	0	0	0	0	0	0	0	0	0	0	0	0	0	0	0	0	0	0	1	0	0	17.761	2.1499	16.789	0	0	0	0	0	0	0	0	0	0	0	0	0	-1	0	-2.0278	-17.891	16.968	0	0	0	0	0	0	0	0	0	2
4904	49.04	0	0	0	0	0	0	0	0	0	0	0	0	0	0	0	0	0	0	0	0	0	0	0	0	10.989	-10.989	19.033	0	0	0	1	0	0	17.883	2.027	16.961	0	0	0	0	0	0	0	0	0	0	0	0	0	-1	0	-2.0278	-17.891	16.968	0	0	0	1	0	0	17.482	2.0162	16.566	2
4905	49.05	0	0	0	0	0	0	0	0	0	0	0	0	0	-1	0	-2.0366	-17.816	16.89	0	0	0	0	0	0	10.989	-10.989	19.033	0	0	0	1	0	0	17.883	2.027	16.961	0	0	0	0	0	0	0	0	0	0	0	0	0	-1	0	-2.0278	-17.891	16.968	0	0	0	0	0	0	0	0	0	2
4906	49.06	0	0	0	0	0	0	0	0	0	0	0	0	0	0	0	0	0	0	0	0	0	0	0	0	10.989	-10.989	19.033	0	0	0	1	0	0	17.883	2.027	16.961	0	0	0	0	0	0	0	0	0	0	0	0	0	-1	0	-2.0278	-17.891	16.968	0	0	0	0	0	0	0	0	0	0
4907	49.07	0	0	0	0	0	0	0	0	0	0	0	0	0	0	0	0	0	0	0	0	0	0	0	0	0	0	0	0	0	0	1	0	0	17.883	2.027	16.961	0	0	0	0	0	0	0	0	0	0	0	0	0	0	0	0	0	0	0	0	0	0	0	0	0	0	0	2
4908	49.08	0	0	0	0	0	0	10.917	-10.917	18.908	0	0	0	0	0	0	0	0	0	0	0	0	0	0	0	10.989	-10.989	19.033	0	0	0	1	0	0	17.761	2.1499	16.789	0	0	0	0	0	0	0	0	0	0	0	0	0	-1	0	-2.0278	-17.891	16.968	0	0	0	0	0	0	0	0	0	2
4909	49.09	0	0	0	0	0	0	10.917	-10.917	18.908	0	0	0	0	-1	0	-2.0366	-17.816	16.89	0	0	0	0	0	0	0	0	0	0	0	0	0	0	0	0	0	0	0	0	0	0	0	0	0	0	0	0	0	0	0	-1	0	-2.0278	-17.891	16.968	0	0	0	0	0	0	0	0	0	2
4910	49.1	0	0	0	0	0	0	0	0	0	0	0	0	0	0	0	0	0	0	0	0	0	0	0	0	10.989	-10.989	19.033	0	0	0	1	0	0	17.883	2.027	16.961	0	0	0	0	0	0	0	0	0	0	0	0	0	-1	0	-2.0278	-17.891	16.968	0	0	0	1	0	0	17.482	2.0162	16.566	2
4911	49.11	0	0	0	0	0	0	0	0	0	0	0	0	0	0	0	0	0	0	0	0	0	0	0	0	10.989	-10.989	19.033	0	0	0	1	0	0	17.883	2.027	16.961	0	0	0	0	0	0	0	0	0	0	0	0	0	-1	0	-2.0278	-17.891	16.968	0	0	0	0	0	0	0	0	0	2
4912	49.12	0	0	0	0	0	0	0	0	0	0	0	0	0	0	0	0	0	0	0	0	0	0	0	0	0	0	0	0	0	0	0	0	0	0	0	0	0	0	0	0	0	0	0	0	0	0	0	0	0	-1	0	-2.0278	-17.891	16.968	0	0	0	0	0	0	0	0	0	2
4913	49.13	0	0	0	0	0	0	0	0	0	0	0	0	0	0	0	0	0	0	0	0	0	0	0	0	10.989	-10.989	19.033	0	0	0	1	0	0	17.761	2.1499	16.789	0	0	0	0	0	0	0	0	0	0	0	0	0	-1	0	-2.0278	-17.891	16.968	0	0	0	0	0	0	0	0	0	0
4914	49.14	0	0	0	0	0	0	0	0	0	0	0	0	0	0	0	0	0	0	0	0	0	0	0	0	10.989	-10.989	19.033	0	0	0	1	0	0	17.883	2.027	16.961	0	0	0	0	0	0	0	0	0	0	0	0	0	-1	0	-2.0278	-17.891	16.968	0	0	0	0	0	0	0	0	0	2
4915	49.15	0	0	0	0	0	0	0	0	0	0	0	0	0	0	0	0	0	0	0	0	0	0	0	0	0	0	0	0	0	0	0	0	0	0	0	0	0	0	0	0	0	0	0	0	0	0	0	0	0	-1	0	-2.0278	-17.891	16.968	0	0	0	0	0	0	10.93	-10.93	18.931	2
4916	49.16	0	0	0	0	0	0	0	0	0	0	0	0	0	0	0	0	0	0	0	0	0	0	0	0	10.989	-10.989	19.033	0	0	0	1	0	0	17.883	2.027	16.961	0	0	0	0	0	0	0	0	0	0	0	0	0	-1	0	-2.0278	-17.891	16.968	0	0	0	0	0	0	0	0	0	2
4917	49.17	0	0	0	0	0	0	0	0	0	0	0	0	0	0	0	0	0	0	0	0	0	0	0	0	0	0	0	0	0	0	0	0	0	0	0	0	0	0	0	0	0	0	0	0	0	0	0	0	0	-1	0	-2.0278	-17.891	16.968	0	0	0	0	0	0	0	0	0	0
4918	49.18	0	0	0	0	0	0	0	0	0	0	0	0	0	0	0	0	0	0	0	0	0	0	0	0	0	0	0	0	0	0	0	0	0	0	0	0	0	0	0	0	0	0	0	0	0	0	0	0	0	-1	0	-2.0278	-17.891	16.968	0	0	0	0	0	0	10.93	-10.93	18.931	2
4919	49.19	0	0	0	0	0	0	0	0	0	0	0	0	0	0	0	0	0	0	0	0	0	0	0	0	10.989	-10.989	19.033	0	0	0	0	0	0	10.991	-10.991	19.037	0	0	0	0	0	0	0	0	0	0	0	0	0	-1	0	-2.0278	-17.891	16.968	0	0	0	0	0	0	0	0	0	2
4920	49.2	0	0	0	0	0	0	0	0	0	0	0	0	0	0	0	0	0	0	0	0	0	0	0	0	0	0	0	0	0	0	1	0	0	17.883	2.027	16.961	0	0	0	0	0	0	0	0	0	0	0	0	0	-1	0	-2.0278	-17.891	16.968	0	0	0	0	0	0	0	0	0	2
4921	49.21	0	0	0	0	0	0	0	0	0	0	0	0	0	0	0	0	0	0	0	0	0	0	0	0	10.989	-10.989	19.033	0	0	0	1	0	0	17.883	2.027	16.961	0	0	0	0	0	0	0	0	0	0	0	0	0	-1	0	-2.0278	-17.891	16.968	0	0	0	1	0	0	17.47	2.0148	16.554	2
4922	49.22	0	0	0	0	0	0	0	0	0	0	0	0	0	0	0	0	0	0	0	0	0	0	0	0	0	0	0	0	0	0	0	0	0	0	0	0	0	0	0	0	0	0	0	0	0	0	0	0	0	-1	0	-2.0278	-17.891	16.968	0	0	0	0	0	0	0	0	0	2
4923	49.23	0	0	0	0	0	0	0	0	0	0	0	0	0	0	0	0	0	0	0	0	0	0	0	0	10.989	-10.989	19.033	0	0	0	1	0	0	17.883	2.027	16.961	0	0	0	0	0	0	0	0	0	0	0	0	0	-1	0	-2.0278	-17.891	16.968	0	0	0	0	0	0	0	0	0	2
4924	49.24	0	0	0	0	0	0	0	0	0	0	0	0	0	0	0	0	0	0	0	0	0	0	0	0	0	0	0	0	0	0	1	0	0	17.761	2.1499	16.789	0	0	0	0	0	0	0	0	0	0	0	0	0	-1	0	-2.0278	-17.891	16.968	0	0	0	0	0	0	0	0	0	2
4925	49.25	0	0	0	0	0	0	0	0	0	0	0	0	0	0	0	0	0	0	0	0	0	0	0	0	0	0	0	0	0	0	0	0	0	0	0	0	0	0	0	0	0	0	0	0	0	0	0	0	0	-1	0	-2.0278	-17.891	16.968	0	0	0	0	0	0	0	0	0	0
4926	49.26	0	0	0	0	0	0	0	0	0	0	0	0	0	0	0	0	0	0	0	0	0	0	0	0	10.989	-10.989	19.033	0	0	0	1	0	0	17.883	2.027	16.961	0	0	0	0	0	0	0	0	0	0	0	0	0	0	0	0	0	0	0	0	0	0	0	0	0	0	0	2
4927	49.27	0	0	0	0	0	0	0	0	0	0	0	0	0	0	0	0	0	0	0	0	0	0	0	0	10.989	-10.989	19.033	0	0	0	0	0	0	0	0	0	0	0	0	0	0	0	0	0	0	0	0	0	0	-1	0	-2.0278	-17.891	16.968	0	0	0	0	0	0	0	0	0	2
4928	49.28	0	0	0	0	0	0	0	0	0	0	0	0	0	0	0	0	0	0	0	0	0	0	0	0	10.989	-10.989	19.033	0	0	0	0	0	0	0	0	0	0	0	0	0	0	0	0	0	0	0	0	0	0	-1	0	-2.0278	-17.891	16.968	0	0	0	0	0	0	0	0	0	2
4929	49.29	0	0	0	0	0	0	0	0	0	0	0	0	0	0	0	0	0	0	0	0	0	0	0	0	10.989	-10.989	19.033	0	0	0	1	0	0	17.883	2.027	16.961	0	0	0	0	0	0	0	0	0	0	0	0	0	-1	0	-2.0278	-17.891	16.968	0	0	0	0	0	0	0	0	0	2
4930	49.3	0	0	0	0	0	0	0	0	0	0	0	0	0	0	0	0	0	0	0	0	0	0	0	0	10.989	-10.989	19.033	0	0	0	1	0	0	17.883	2.027	16.961	0	0	0	0	0	0	0	0	0	0	0	0	0	-1	0	-2.0278	-17.891	16.968	0	0	0	0	0	0	0	0	0	2
4931	49.31	0	0	0	0	0	0	0	0	0	0	0	0	0	0	0	0	0	0	0	0	0	0	0	0	0	0	0	0	0	0	1	0	0	17.883	2.027	16.961	0	0	0	0	0	0	0	0	0	0	0	0	0	-1	0	-2.0278	-17.891	16.968	0	0	0	0	0	0	0	0	0	2
4932	49.32	0	0	0	0	0	0	0	0	0	0	0	0	0	0	0	0	0	0	0	0	0	0	0	0	0	0	0	0	0	0	1	0	0	17.883	2.027	16.961	0	0	0	0	0	0	0	0	0	0	0	0	0	-1	0	-2.0278	-17.891	16.968	0	0	0	0	0	0	0	0	0	2
4933	49.33	0	0	0	0	0	0	0	0	0	0	0	0	0	0	0	0	0	0	0	0	0	0	0	0	10.989	-10.989	19.033	0	0	0	0	0	0	0	0	0	0	0	0	0	0	0	0	0	0	0	0	0	0	-1	0	-2.0278	-17.891	16.968	0	0	0	0	0	0	0	0	0	2
4934	49.34	0	0	0	0	0	0	0	0	0	0	0	0	0	0	0	0	0	0	0	0	0	0	0	0	0	0	0	0	0	0	1	0	0	17.883	2.027	16.961	0	0	0	0	0	0	0	0	0	0	0	0	0	0	0	0	0	0	0	0	0	0	0	0	0	0	0	2
4935	49.35	0	0	0	0	0	0	10.917	-10.917	18.908	0	0	0	0	0	0	0	0	0	0	0	0	0	0	0	10.989	-10.989	19.033	0	0	0	1	0	0	17.883	2.027	16.961	0	0	0	0	0	0	0	0	0	0	0	0	0	-1	0	-2.0278	-17.891	16.968	0	0	0	0	0	0	0	0	0	2
4936	49.36	0	0	0	0	0	0	0	0	0	0	0	0	0	0	0	0	0	0	0	0	0	0	0	0	10.989	-10.989	19.033	0	0	0	0	0	0	10.991	-10.991	19.037	0	0	0	0	0	0	0	0	0	0	0	0	0	-1	0	-2.0278	-17.891	16.968	0	0	0	0	0	0	10.93	-10.93	18.931	2
4937	49.37	0	0	0	0	0	0	0	0	0	0	0	0	0	0	0	0	0	0	0	0	0	0	0	0	10.989	-10.989	19.033	0	0	0	1	0	0	17.883	2.027	16.961	0	0	0	0	0	0	0	0	0	0	0	0	0	-1	0	-2.0278	-17.891	16.968	0	0	0	0	0	0	0	0	0	2
4938	49.38	0	0	0	0	0	0	0	0	0	0	0	0	0	0	0	0	0	0	0	0	0	0	0	0	0	0	0	0	0	0	0	0	0	0	0	0	0	0	0	0	0	0	0	0	0	0	0	0	0	-1	0	-2.0278	-17.891	16.968	0	0	0	0	0	0	0	0	0	2
4939	49.39	0	0	0	0	0	0	10.917	-10.917	18.908	0	0	0	0	0	0	0	0	0	0	0	0	0	0	0	10.989	-10.989	19.033	0	0	0	0	0	0	0	0	0	0	0	0	0	0	0	0	0	0	0	0	0	0	-1	0	-2.0278	-17.891	16.968	0	0	0	0	0	0	0	0	0	2
4940	49.4	0	0	0	0	0	0	10.917	-10.917	18.908	0	0	0	0	0	0	0	0	0	0	0	0	0	0	0	0	0	0	0	0	0	1	0	0	17.883	2.027	16.961	0	0	0	0	0	0	0	0	0	0	0	0	0	-1	0	-2.0278	-17.891	16.968	0	0	0	0	0	0	0	0	0	2
4941	49.41	0	0	0	0	0	0	0	0	0	0	0	0	0	0	0	0	0	0	0	0	0	0	0	0	10.989	-10.989	19.033	0	0	0	0	0	0	0	0	0	0	0	0	0	0	0	0	0	0	0	0	0	0	-1	0	-2.0278	-17.891	16.968	0	0	0	0	0	0	0	0	0	2
4942	49.42	0	0	0	0	0	0	0	0	0	0	0	0	0	0	0	0	0	0	0	0	0	0	0	0	0	0	0	0	0	0	0	0	0	0	0	0	0	0	0	0	0	0	0	0	0	0	0	0	0	-1	0	-2.0278	-17.891	16.968	0	0	0	0	0	0	0	0	0	2
4943	49.43	0	0	0	0	0	0	0	0	0	0	0	0	0	0	0	0	0	0	0	0	0	0	0	0	10.989	-10.989	19.033	0	0	0	0	0	0	0	0	0	0	0	0	0	0	0	0	0	0	0	0	0	0	-1	0	-2.0278	-17.891	16.968	0	0	0	0	0	0	0	0	0	2
4944	49.44	0	0	0	0	0	0	0	0	0	0	0	0	0	0	0	0	0	0	0	0	0	0	0	0	10.989	-10.989	19.033	0	0	0	0	0	0	0	0	0	0	0	0	0	0	0	0	0	0	0	0	0	0	-1	0	-2.0278	-17.891	16.968	0	0	0	0	0	0	0	0	0	2
4945	49.45	0	0	0	0	0	0	0	0	0	0	0	0	0	-1	0	-2.0366	-17.816	16.89	0	0	0	0	0	0	10.989	-10.989	19.033	0	0	0	0	0	0	0	0	0	0	0	0	0	0	0	10.996	-10.996	19.046	0	0	0	0	-1	0	-2.0278	-17.891	16.968	0	0	0	0	0	0	0	0	0	2
4946	49.46	0	0	0	0	0	0	0	0	0	0	0	0	0	0	0	0	0	0	0	0	0	0	0	0	10.989	-10.989	19.033	0	0	0	1	0	0	17.883	2.027	16.961	0	0	0	0	0	0	0	0	0	0	0	0	0	-1	0	-2.0278	-17.891	16.968	0	0	0	0	0	0	0	0	0	2
4947	49.47	0	0	0	0	0	0	0	0	0	0	0	0	0	0	0	0	0	0	0	0	0	0	0	0	10.989	-10.989	19.033	0	0	0	0	0	0	0	0	0	0	0	0	0	0	0	0	0	0	0	0	0	0	-1	0	-2.0278	-17.891	16.968	0	0	0	0	0	0	0	0	0	2
4948	49.48	0	0	0	0	0	0	0	0	0	0	0	0	0	0	0	0	0	0	0	0	0	0	0	0	10.989	-10.989	19.033	0	0	0	0	0	0	0	0	0	0	0	0	0	0	0	0	0	0	0	0	0	0	-1	0	-2.0278	-17.891	16.968	0	0	0	0	0	0	0	0	0	2
4949	49.49	0	0	0	0	0	0	0	0	0	0	0	0	0	0	0	0	0	0	0	0	0	0	0	0	10.989	-10.989	19.033	0	0	0	1	0	0	17.883	2.027	16.961	0	0	0	0	0	0	0	0	0	0	0	0	0	-1	0	-2.0278	-17.891	16.968	0	0	0	0	0	0	0	0	0	2
4950	49.5	0	0	0	0	0	0	0	0	0	0	0	0	0	-1	0	-2.0366	-17.816	16.89	0	0	0	0	0	0	10.989	-10.989	19.033	0	0	0	0	0	0	0	0	0	0	0	0	0	0	0	0	0	0	0	0	0	0	-1	0	-2.0278	-17.891	16.968	0	0	0	0	0	0	0	0	0	2
4951	49.51	0	0	0	0	0	0	0	0	0	0	0	0	0	0	0	0	0	0	0	0	0	0	0	0	10.989	-10.989	19.033	0	0	0	1	0	0	17.761	2.1499	16.789	0	0	0	0	0	0	0	0	0	0	0	0	0	-1	0	-2.0278	-17.891	16.968	0	0	0	0	0	0	0	0	0	2
4952	49.52	0	0	0	0	0	0	0	0	0	0	0	0	0	0	0	0	0	0	0	0	0	0	0	0	10.989	-10.989	19.033	0	0	0	0	0	0	0	0	0	0	0	0	0	0	0	0	0	0	0	0	0	0	-1	0	-2.0278	-17.891	16.968	0	0	0	0	0	0	0	0	0	2
4953	49.53	0	0	0	0	0	0	10.917	-10.917	18.908	0	0	0	0	0	0	0	0	0	0	0	0	0	0	0	10.989	-10.989	19.033	0	0	0	0	0	0	0	0	0	0	0	0	0	0	0	0	0	0	0	0	0	0	0	0	0	0	0	0	0	0	1	0	0	17.47	2.0148	16.554	2
4954	49.54	0	0	0	0	0	0	0	0	0	0	0	0	0	0	0	0	0	0	0	0	0	0	0	0	10.989	-10.989	19.033	0	0	0	1	0	0	17.883	2.027	16.961	0	0	0	0	0	0	0	0	0	0	0	0	0	-1	0	-2.0278	-17.891	16.968	0	0	0	0	0	0	0	0	0	2
4955	49.55	0	0	0	0	0	0	0	0	0	0	0	0	0	0	0	0	0	0	0	0	0	0	0	0	10.989	-10.989	19.033	0	0	0	0	0	0	0	0	0	0	0	0	0	0	0	0	0	0	0	0	0	0	-1	0	-2.0278	-17.891	16.968	0	0	0	0	0	0	0	0	0	2
4956	49.56	0	0	0	0	0	0	0	0	0	0	0	0	0	0	0	0	0	0	0	0	0	0	0	0	10.989	-10.989	19.033	0	0	0	1	0	0	17.883	2.027	16.961	0	0	0	0	0	0	0	0	0	0	0	0	0	-1	0	-2.0278	-17.891	16.968	0	0	0	0	0	0	0	0	0	2
4957	49.57	0	0	0	0	0	0	0	0	0	0	0	0	0	0	0	0	0	0	0	0	0	0	0	0	0	0	0	0	0	0	0	0	0	10.991	-10.991	19.037	0	0	0	0	0	0	0	0	0	0	0	0	0	-1	0	-2.0278	-17.891	16.968	0	0	0	0	0	0	0	0	0	2
4958	49.58	0	0	0	0	0	0	0	0	0	0	0	0	0	0	0	0	0	0	0	0	0	0	0	0	10.989	-10.989	19.033	0	0	0	0	0	0	0	0	0	0	0	0	0	0	0	0	0	0	0	0	0	0	-1	0	-2.0278	-17.891	16.968	0	0	0	1	0	0	17.47	2.0148	16.554	0
4959	49.59	0	0	0	0	0	0	0	0	0	0	0	0	0	0	0	0	0	0	0	0	0	0	0	0	10.989	-10.989	19.033	0	0	0	1	0	0	17.883	2.027	16.961	0	0	0	0	0	0	0	0	0	0	0	0	0	-1	0	-2.0278	-17.891	16.968	0	0	0	0	0	0	0	0	0	2
4960	49.6	0	0	0	0	0	0	0	0	0	0	0	0	0	0	0	0	0	0	0	0	0	0	0	0	10.989	-10.989	19.033	0	0	0	0	0	0	0	0	0	0	0	0	0	0	0	0	0	0	0	0	0	0	-1	0	-2.0278	-17.891	16.968	0	0	0	0	0	0	0	0	0	2
4961	49.61	0	0	0	0	0	0	0	0	0	0	0	0	0	0	0	0	0	0	0	0	0	0	0	0	10.989	-10.989	19.033	0	0	0	1	0	0	17.883	2.027	16.961	0	0	0	0	0	0	0	0	0	0	0	0	0	-1	0	-2.0278	-17.891	16.968	0	0	0	1	0	0	17.471	2.0135	16.556	0
4962	49.62	0	0	0	0	0	0	0	0	0	0	0	0	0	-1	0	-2.0372	-17.821	16.895	0	0	0	0	0	0	10.989	-10.989	19.033	0	0	0	0	0	0	0	0	0	0	0	0	0	0	0	0	0	0	0	0	0	0	-1	0	-2.0278	-17.891	16.968	0	0	0	0	0	0	0	0	0	2
4963	49.63	0	0	0	0	0	0	10.917	-10.917	18.908	0	0	0	0	0	0	0	0	0	0	0	0	0	0	0	10.989	-10.989	19.033	0	0	0	1	0	0	17.883	2.027	16.961	0	0	0	0	0	0	0	0	0	0	0	0	1	-1	0	7.5503	-27.469	31.921	0	0	0	0	0	0	0	0	0	2
4964	49.64	0	0	0	0	0	0	0	0	0	0	0	0	0	0	0	0	0	0	0	0	0	0	0	0	10.989	-10.989	19.033	0	0	0	0	0	0	0	0	0	0	0	0	0	0	0	0	0	0	0	0	0	0	-1	0	-2.0278	-17.891	16.968	0	0	0	0	0	0	0	0	0	2
4965	49.65	0	0	0	0	0	0	0	0	0	0	0	0	0	0	0	0	0	0	0	0	0	0	0	0	10.989	-10.989	19.033	0	0	0	0	-1	0	-2.0265	-17.879	16.957	0	0	0	0	0	0	0	0	0	0	0	0	0	-1	0	-2.0278	-17.891	16.968	0	0	0	0	0	0	0	0	0	2
4966	49.66	0	0	0	0	0	0	0	0	0	0	0	0	0	0	0	0	0	0	0	0	0	0	0	0	10.989	-10.989	19.033	0	0	0	1	0	0	17.883	2.027	16.961	0	0	0	0	0	0	0	0	0	0	0	0	0	-1	0	-2.0278	-17.891	16.968	0	0	0	1	0	0	17.47	2.0148	16.554	2
4967	49.67	0	0	0	0	0	0	0	0	0	0	0	0	0	0	0	0	0	0	0	0	0	0	0	0	10.989	-10.989	19.033	0	0	0	0	0	0	0	0	0	0	0	0	0	0	0	0	0	0	0	0	0	0	-1	0	-2.0278	-17.891	16.968	0	0	0	0	0	0	0	0	0	2
4968	49.68	0	0	0	0	0	0	0	0	0	0	0	0	0	0	0	0	0	0	0	0	0	0	0	0	10.989	-10.989	19.033	0	0	0	1	0	0	17.883	2.027	16.961	0	0	0	0	0	0	0	0	0	0	0	0	0	-1	0	-2.0278	-17.891	16.968	0	0	0	0	0	0	0	0	0	2
4969	49.69	0	0	0	0	0	0	0	0	0	0	0	0	0	0	0	0	0	0	0	0	0	0	0	0	10.989	-10.989	19.033	0	0	0	0	0	0	0	0	0	0	0	0	0	0	0	0	0	0	0	0	0	0	-1	0	-2.0278	-17.891	16.968	0	0	0	0	0	0	0	0	0	2
4970	49.7	0	0	0	0	0	0	10.917	-10.917	18.908	0	0	0	0	0	0	0	0	0	0	0	0	0	0	0	10.989	-10.989	19.033	0	0	0	0	0	0	0	0	0	0	0	0	0	0	0	0	0	0	0	0	0	0	-1	0	-2.0278	-17.891	16.968	0	0	0	0	0	0	0	0	0	2
4971	49.71	0	0	0	0	0	0	0	0	0	0	0	0	0	0	0	0	0	0	0	0	0	0	0	0	10.989	-10.989	19.033	0	0	0	1	0	0	17.883	2.027	16.961	0	0	0	0	0	0	0	0	0	0	0	0	0	-1	0	-2.0278	-17.891	16.968	0	0	0	1	0	0	17.47	2.0148	16.554	2
4972	49.72	0	0	0	0	0	0	0	0	0	0	0	0	0	0	0	0	0	0	0	0	0	0	0	0	10.989	-10.989	19.033	0	0	0	0	0	0	0	0	0	0	0	0	0	0	0	0	0	0	0	0	0	1	-1	0	7.5503	-27.469	31.921	0	0	0	0	0	0	0	0	0	2
4973	49.73	0	0	0	0	0	0	0	0	0	0	0	0	0	0	0	0	0	0	0	0	0	0	0	0	10.989	-10.989	19.033	0	0	0	0	0	0	0	0	0	0	0	0	0	0	0	0	0	0	0	0	0	0	-1	0	-2.0278	-17.891	16.968	0	0	0	1	0	0	17.47	2.0148	16.554	0
4974	49.74	0	0	0	0	0	0	0	0	0	0	0	0	0	0	0	0	0	0	0	0	0	0	0	0	10.989	-10.989	19.033	0	0	0	0	0	0	0	0	0	0	0	0	0	0	0	0	0	0	0	0	0	0	-1	0	-2.0278	-17.891	16.968	0	0	0	0	0	0	0	0	0	2
4975	49.75	0	0	0	0	0	0	0	0	0	0	0	0	0	0	0	0	0	0	0	0	0	0	0	0	10.989	-10.989	19.033	0	0	0	1	0	0	17.883	2.027	16.961	0	0	0	0	0	0	0	0	0	0	0	0	0	-1	0	-2.0278	-17.891	16.968	0	0	0	0	0	0	0	0	0	2
4976	49.76	0	0	0	0	0	0	0	0	0	0	0	0	0	0	0	0	0	0	0	0	0	0	0	0	10.989	-10.989	19.033	0	0	0	0	0	0	0	0	0	0	0	0	0	0	0	0	0	0	0	0	0	0	0	0	0	0	0	0	0	0	0	0	0	0	0	0	2
4977	49.77	0	0	0	0	0	0	0	0	0	0	0	0	0	0	0	0	0	0	0	0	0	0	0	0	10.989	-10.989	19.033	0	0	0	0	0	0	0	0	0	0	0	0	0	0	0	0	0	0	0	0	0	0	-1	0	-2.0278	-17.891	16.968	0	0	0	0	0	0	0	0	0	2
4978	49.78	0	0	0	0	0	0	0	0	0	0	0	0	0	-1	0	-2.0366	-17.816	16.89	0	0	0	0	0	0	10.989	-10.989	19.033	0	0	0	0	0	0	0	0	0	0	0	0	0	0	0	0	0	0	0	0	0	0	0	0	0	0	0	0	0	0	0	0	0	0	0	0	2
4979	49.79	0	0	0	0	0	0	0	0	0	0	0	0	0	0	0	0	0	0	0	0	0	0	0	0	10.989	-10.989	19.033	0	0	0	1	0	0	17.883	2.027	16.961	0	0	0	0	0	0	0	0	0	0	0	0	0	-1	0	-2.0278	-17.891	16.968	0	0	0	0	0	0	0	0	0	2
4980	49.8	0	0	0	0	0	0	10.917	-10.917	18.908	0	0	0	0	0	0	0	0	0	0	0	0	0	0	0	10.989	-10.989	19.033	0	0	0	0	0	0	0	0	0	0	0	0	0	0	0	0	0	0	0	0	0	0	-1	0	-2.0278	-17.891	16.968	0	0	0	0	0	0	0	0	0	2
4981	49.81	0	0	0	0	0	0	0	0	0	0	0	0	0	0	0	0	0	0	0	0	0	0	0	0	10.989	-10.989	19.033	0	0	0	1	0	0	17.883	2.027	16.961	0	0	0	0	0	0	0	0	0	0	0	0	0	-1	0	-2.0278	-17.891	16.968	0	0	0	1	0	0	17.47	2.0148	16.554	2
4982	49.82	0	0	0	0	0	0	10.917	-10.917	18.908	0	0	0	0	0	0	0	0	0	0	0	0	0	0	0	10.989	-10.989	19.033	0	0	0	0	0	0	0	0	0	0	0	0	0	0	0	0	0	0	0	0	0	0	0	0	0	0	0	0	0	0	0	0	0	0	0	0	2
4983	49.83	0	0	0	0	0	0	0	0	0	0	0	0	0	0	0	0	0	0	0	0	0	0	0	0	0	0	0	0	0	0	0	0	0	0	0	0	0	0	0	0	0	0	0	0	0	0	0	0	0	-1	0	-2.0278	-17.891	16.968	0	0	0	0	0	0	0	0	0	0
4984	49.84	0	0	0	0	0	0	0	0	0	0	0	0	0	0	0	0	0	0	0	0	0	0	0	0	10.989	-10.989	19.033	0	0	0	1	0	0	17.883	2.027	16.961	0	0	0	0	0	0	0	0	0	0	0	0	0	0	0	0	0	0	0	0	0	0	0	0	0	0	0	2
4985	49.85	0	0	0	0	0	0	0	0	0	0	0	0	0	0	0	0	0	0	0	0	0	0	0	0	0	0	0	0	0	0	0	0	0	0	0	0	0	0	0	0	0	0	0	0	0	0	0	0	0	-1	0	-2.0278	-17.891	16.968	0	0	0	0	0	0	0	0	0	2
4986	49.86	0	0	0	0	0	0	0	0	0	0	0	0	0	0	0	0	0	0	0	0	0	0	0	0	10.989	-10.989	19.033	0	0	0	1	0	0	17.883	2.027	16.961	0	0	0	0	0	0	0	0	0	0	0	0	0	-1	0	-2.0278	-17.891	16.968	0	0	0	1	0	0	17.47	2.0148	16.554	2
4987	49.87	0	0	0	0	0	0	0	0	0	0	0	0	0	0	0	0	0	0	0	0	0	0	0	0	10.989	-10.989	19.033	0	0	0	0	0	0	0	0	0	0	0	0	0	0	0	0	0	0	0	0	0	0	0	0	0	0	0	0	0	0	0	0	0	0	0	0	2
4988	49.88	0	0	0	0	0	0	0	0	0	0	0	0	0	0	0	0	0	0	0	0	0	0	0	0	10.989	-10.989	19.033	0	0	0	1	0	0	17.883	2.027	16.961	0	0	0	0	0	0	0	0	0	0	0	0	0	-1	0	-2.0278	-17.891	16.968	0	0	0	0	0	0	0	0	0	2
4989	49.89	0	0	0	0	0	0	0	0	0	0	0	0	0	0	0	0	0	0	0	0	0	0	0	0	10.989	-10.989	19.033	0	0	0	1	0	0	17.883	2.027	16.961	0	0	0	0	0	0	0	0	0	0	0	0	0	-1	0	-2.0278	-17.891	16.968	0	0	0	0	0	0	0	0	0	0
4990	49.9	0	0	0	0	0	0	0	0	0	0	0	0	0	0	0	0	0	0	0	0	0	0	0	0	10.989	-10.989	19.033	0	0	0	0	0	0	0	0	0	0	0	0	0	0	0	0	0	0	0	0	0	0	0	0	0	0	0	0	0	0	0	0	0	0	0	0	2
4991	49.91	0	0	0	0	0	0	0	0	0	0	0	0	0	0	0	0	0	0	0	0	0	0	0	0	10.989	-10.989	19.033	0	0	0	0	0	0	0	0	0	0	0	0	0	0	0	0	0	0	0	0	0	0	-1	0	-2.0278	-17.891	16.968	0	0	0	0	0	0	0	0	0	2
4992	49.92	0	0	0	0	0	0	0	0	0	0	0	0	0	-1	0	-2.0366	-17.816	16.89	0	0	0	0	0	0	10.989	-10.989	19.033	0	0	0	0	0	0	0	0	0	0	0	0	0	0	0	0	0	0	0	0	0	0	0	0	0	0	0	0	0	0	0	0	0	0	0	0	2
4993	49.93	0	0	0	0	0	0	0	0	0	0	0	0	0	0	0	0	0	0	0	0	0	0	0	0	10.989	-10.989	19.033	0	0	0	1	0	0	17.883	2.027	16.961	0	0	0	0	0	0	0	0	0	0	0	0	0	-1	0	-2.0278	-17.891	16.968	0	0	0	0	0	0	0	0	0	2
4994	49.94	0	0	0	0	0	0	0	0	0	0	0	0	0	0	0	0	0	0	0	0	0	0	0	0	10.989	-10.989	19.033	0	0	0	1	0	0	17.883	2.027	16.961	0	0	0	0	0	0	0	0	0	0	0	0	0	-1	0	-2.0278	-17.891	16.968	0	0	0	0	0	0	0	0	0	2
4995	49.95	0	0	0	0	0	0	0	0	0	0	0	0	0	0	0	0	0	0	0	0	0	0	0	0	10.989	-10.989	19.033	0	0	0	1	0	0	17.883	2.027	16.961	0	0	0	0	0	0	0	0	0	0	0	0	0	-1	0	-2.0278	-17.891	16.968	0	0	0	0	0	0	0	0	0	2
4996	49.96	0	0	0	0	0	0	0	0	0	0	0	0	0	0	0	0	0	0	0	0	0	0	0	0	10.989	-10.989	19.033	0	0	0	1	0	0	17.883	2.027	16.961	0	0	0	0	0	0	0	0	0	0	0	0	0	0	0	0	0	0	0	0	0	0	0	0	0	0	0	2
4997	49.97	0	0	0	0	0	0	0	0	0	0	0	0	0	0	0	0	0	0	0	0	0	0	0	0	0	0	0	0	0	0	1	0	0	17.883	2.027	16.961	0	0	0	0	0	0	0	0	0	0	0	0	0	-1	0	-2.0278	-17.891	16.968	0	0	0	0	0	0	0	0	0	2
4998	49.98	0	0	0	0	0	0	0	0	0	0	0	0	0	0	0	0	0	0	0	0	0	0	0	0	10.989	-10.989	19.033	0	0	0	1	0	0	17.883	2.027	16.961	0	0	0	0	0	0	0	0	0	0	0	0	0	-1	0	-2.0278	-17.891	16.968	0	0	0	0	0	0	0	0	0	2
4999	49.99	0	0	0	0	0	0	0	0	0	0	0	0	0	0	0	0	0	0	0	0	0	0	0	0	10.989	-10.989	19.033	0	0	0	0	0	0	0	0	0	0	0	0	0	0	0	0	0	0	0	0	0	0	0	0	0	0	0	0	0	0	0	0	0	0	0	0	2
5000	50	0	0	0	0	0	0	0	0	0	0	0	0	0	0	0	0	0	0	0	0	0	0	0	0	10.989	-10.989	19.033	0	0	0	1	0	0	17.883	2.027	16.961	0	0	0	0	0	0	0	0	0	0	0	0	0	-1	0	-2.0278	-17.891	16.968	0	0	0	0	0	0	0	0	0	0
5001	50.01	0	0	0	0	0	0	0	0	0	0	0	0	0	0	0	0	0	0	0	0	0	0	0	0	10.989	-10.989	19.033	0	0	0	0	0	0	10.991	-10.991	19.037	0	0	0	0	0	0	0	0	0	0	0	0	0	-1	0	-2.0278	-17.891	16.968	0	0	0	1	0	0	17.47	2.0148	16.554	2
5002	50.02	0	0	0	0	0	0	0	0	0	0	0	0	0	0	0	0	0	0	0	0	0	0	0	0	10.989	-10.989	19.033	0	0	0	0	0	0	0	0	0	0	0	0	0	0	0	0	0	0	0	0	0	0	-1	0	-2.0278	-17.891	16.968	0	0	0	0	0	0	0	0	0	2
5003	50.03	0	0	0	0	0	0	10.917	-10.917	18.908	0	0	0	0	0	0	0	0	0	0	0	0	0	0	0	10.989	-10.989	19.033	0	0	0	0	0	0	0	0	0	0	0	0	0	0	0	0	0	0	0	0	0	0	-1	0	-2.0278	-17.891	16.968	0	0	0	0	0	0	0	0	0	2
5004	50.04	0	0	0	0	0	0	0	0	0	0	0	0	0	0	0	0	0	0	0	0	0	0	0	0	10.989	-10.989	19.033	0	0	0	0	0	0	0	0	0	0	0	0	0	0	0	0	0	0	0	0	0	0	0	0	0	0	0	0	0	0	0	0	0	0	0	0	2
5005	50.05	0	0	0	0	0	0	0	0	0	0	0	0	0	0	0	0	0	0	0	0	0	0	0	0	0	0	0	0	0	0	0	0	0	0	0	0	0	0	0	0	0	0	0	0	0	0	0	0	0	-1	0	-2.0278	-17.891	16.968	0	0	0	0	0	0	0	0	0	2
5006	50.06	0	0	0	0	0	0	10.917	-10.917	18.908	0	0	0	0	0	0	0	0	0	0	0	0	0	0	0	10.989	-10.989	19.033	0	0	0	1	0	0	17.883	2.027	16.961	0	0	0	0	0	0	0	0	0	0	0	0	0	-1	0	-2.0278	-17.891	16.968	0	0	0	0	0	0	0	0	0	2
5007	50.07	0	0	0	0	0	0	0	0	0	0	0	0	0	0	0	0	0	0	0	0	0	0	0	0	10.989	-10.989	19.033	0	0	0	1	0	0	17.883	2.027	16.961	0	0	0	0	0	0	0	0	0	0	0	0	0	-1	0	-2.0278	-17.891	16.968	0	0	0	0	0	0	0	0	0	2
5008	50.08	0	0	0	0	0	0	0	0	0	0	0	0	0	0	0	0	0	0	0	0	0	0	0	0	10.989	-10.989	19.033	0	0	0	0	0	0	0	0	0	0	0	0	0	0	0	0	0	0	0	0	0	0	-1	0	-2.0278	-17.891	16.968	0	0	0	0	0	0	0	0	0	2
5009	50.09	0	0	0	0	0	0	10.917	-10.917	18.908	0	0	0	0	0	0	0	0	0	0	0	0	0	0	0	10.989	-10.989	19.033	0	0	0	0	0	0	0	0	0	0	0	0	0	0	0	0	0	0	0	0	0	0	-1	0	-2.0278	-17.891	16.968	0	0	0	0	0	0	0	0	0	2
5010	50.1	0	0	0	0	0	0	0	0	0	0	0	0	0	0	0	0	0	0	0	0	0	0	0	0	0	0	0	0	0	0	0	0	0	0	0	0	0	0	0	0	0	0	0	0	0	0	0	0	0	-1	0	-2.0278	-17.891	16.968	0	0	0	0	0	0	0	0	0	2
5011	50.11	0	0	0	0	0	0	10.917	-10.917	18.908	0	0	0	0	0	0	0	0	0	0	0	0	0	0	0	10.989	-10.989	19.033	0	0	0	1	0	0	17.883	2.027	16.961	0	0	0	0	0	0	0	0	0	0	0	0	0	-1	0	-2.0278	-17.891	16.968	0	0	0	0	0	0	0	0	0	2
5012	50.12	0	0	0	0	0	0	0	0	0	0	0	0	0	0	0	0	0	0	0	0	0	0	0	0	0	0	0	0	0	0	0	0	0	0	0	0	0	0	0	0	0	0	0	0	0	0	0	0	0	-1	0	-2.0278	-17.891	16.968	0	0	0	0	0	0	0	0	0	2
5013	50.13	0	0	0	0	0	0	0	0	0	0	0	0	0	0	0	0	0	0	0	0	0	0	0	0	10.989	-10.989	19.033	0	0	0	1	0	0	17.883	2.027	16.961	0	0	0	0	0	0	0	0	0	0	0	0	0	-1	0	-2.0278	-17.891	16.968	0	0	0	0	0	0	10.93	-10.93	18.931	2
5014	50.14	0	0	0	0	0	0	0	0	0	0	0	0	0	0	0	0	0	0	0	0	0	0	0	0	10.989	-10.989	19.033	0	0	0	1	0	0	17.883	2.027	16.961	0	0	0	0	0	0	0	0	0	0	0	0	0	-1	0	-2.0278	-17.891	16.968	0	0	0	0	0	0	0	0	0	2
5015	50.15	0	0	0	0	0	0	10.917	-10.917	18.908	0	0	0	0	0	0	0	0	0	0	0	0	0	0	0	10.989	-10.989	19.033	0	0	0	1	0	0	17.883	2.027	16.961	0	0	0	0	0	0	0	0	0	0	0	0	0	-1	0	-2.0278	-17.891	16.968	0	0	0	0	0	0	0	0	0	2
5016	50.16	0	0	0	0	0	0	0	0	0	0	0	0	0	0	0	0	0	0	0	0	0	0	0	0	10.989	-10.989	19.033	0	0	0	0	0	0	0	0	0	0	0	0	0	0	0	0	0	0	0	0	0	1	-1	0	7.5503	-27.469	31.921	0	0	0	1	0	0	17.482	2.0162	16.566	2
5017	50.17	0	0	0	0	0	0	0	0	0	0	0	0	0	0	0	0	0	0	0	0	0	0	0	0	10.989	-10.989	19.033	0	0	0	1	0	0	17.883	2.027	16.961	0	0	0	0	0	0	0	0	0	0	0	0	0	-1	0	-2.0278	-17.891	16.968	0	0	0	0	0	0	0	0	0	2
5018	50.18	0	0	0	0	0	0	0	0	0	0	0	0	0	0	0	0	0	0	0	0	0	0	0	0	0	0	0	0	0	0	1	0	0	17.883	2.027	16.961	0	0	0	0	0	0	0	0	0	0	0	0	0	-1	0	-2.0278	-17.891	16.968	0	0	0	0	0	0	0	0	0	2
5019	50.19	0	0	0	0	0	0	0	0	0	0	0	0	0	0	0	0	0	0	0	0	0	0	0	0	10.989	-10.989	19.033	0	0	0	1	0	0	17.883	2.027	16.961	0	0	0	0	0	0	0	0	0	0	0	0	0	-1	0	-2.0278	-17.891	16.968	0	0	0	1	0	0	17.482	2.0162	16.566	2
5020	50.2	0	0	0	0	0	0	0	0	0	0	0	0	0	0	0	0	0	0	0	0	0	0	0	0	10.989	-10.989	19.033	0	0	0	1	0	0	17.883	2.027	16.961	0	0	0	0	0	0	0	0	0	0	0	0	0	0	0	0	0	0	0	0	0	0	0	0	0	0	0	2
5021	50.21	0	0	0	0	0	0	0	0	0	0	0	0	0	0	0	0	0	0	0	0	0	0	0	0	10.989	-10.989	19.033	0	0	0	1	0	0	17.883	2.027	16.961	0	0	0	0	0	0	0	0	0	0	0	0	0	0	0	0	0	0	0	0	0	0	0	0	10.93	-10.93	18.931	2
5022	50.22	0	0	0	0	0	0	10.917	-10.917	18.908	0	0	0	0	0	0	0	0	0	0	0	0	0	0	0	10.989	-10.989	19.033	0	0	0	1	0	0	17.883	2.027	16.961	0	0	0	0	0	0	0	0	0	0	0	0	0	-1	0	-2.0278	-17.891	16.968	0	0	0	0	0	0	0	0	0	2
5023	50.23	0	0	0	0	0	0	0	0	0	0	0	0	0	0	0	0	0	0	0	0	0	0	0	0	10.989	-10.989	19.033	0	0	0	0	0	0	0	0	0	0	0	0	0	0	0	0	0	0	0	0	0	0	-1	0	-2.0278	-17.891	16.968	0	0	0	0	0	0	0	0	0	2
5024	50.24	0	0	0	0	0	0	0	0	0	0	0	0	0	0	0	0	0	0	0	0	0	0	0	0	10.989	-10.989	19.033	0	0	0	1	0	0	17.883	2.027	16.961	0	0	0	0	0	0	0	0	0	0	0	0	1	-1	0	7.5503	-27.469	31.921	0	0	0	0	0	0	0	0	0	2
5025	50.25	0	0	0	0	0	0	0	0	0	0	0	0	0	0	0	0	0	0	0	0	0	0	0	0	10.989	-10.989	19.033	0	0	0	1	0	0	17.883	2.027	16.961	0	0	0	0	0	0	10.996	-10.996	19.046	0	0	0	0	-1	0	-2.0278	-17.891	16.968	0	0	0	0	0	0	0	0	0	0
5026	50.26	0	0	0	0	0	0	0	0	0	0	0	0	0	0	0	0	0	0	0	0	0	0	0	0	10.989	-10.989	19.033	0	0	0	0	0	0	0	0	0	0	0	0	0	0	0	0	0	0	0	0	0	1	-1	0	7.5503	-27.469	31.921	0	0	0	0	0	0	0	0	0	2
5027	50.27	0	0	0	0	0	0	0	0	0	0	0	0	0	0	0	0	0	0	0	0	0	0	0	0	10.989	-10.989	19.033	0	0	0	0	0	0	0	0	0	0	0	0	0	0	0	0	0	0	0	0	0	0	-1	0	-2.0278	-17.891	16.968	0	0	0	0	0	0	0	0	0	2
5028	50.28	0	0	0	0	0	0	0	0	0	0	0	0	0	0	0	0	0	0	0	0	0	0	0	0	10.989	-10.989	19.033	0	0	0	0	0	0	0	0	0	0	0	0	0	0	0	0	0	0	0	0	0	0	-1	0	-2.0278	-17.891	16.968	0	0	0	1	0	0	17.47	2.0148	16.554	2
5029	50.29	0	0	0	0	0	0	0	0	0	0	0	0	0	0	0	0	0	0	0	0	0	0	0	0	10.989	-10.989	19.033	0	0	0	1	0	0	17.883	2.027	16.961	0	0	0	0	0	0	0	0	0	0	0	0	0	-1	0	-2.0278	-17.891	16.968	0	0	0	0	0	0	10.93	-10.93	18.931	2
5030	50.3	0	0	0	0	0	0	10.917	-10.917	18.908	0	0	0	0	0	0	0	0	0	0	0	0	0	0	0	10.989	-10.989	19.033	0	0	0	0	0	0	0	0	0	0	0	0	0	0	0	0	0	0	0	0	0	0	-1	0	-2.0278	-17.891	16.968	0	0	0	0	0	0	0	0	0	2
5031	50.31	0	0	0	0	0	0	10.917	-10.917	18.908	0	0	0	0	0	0	0	0	0	0	0	0	0	0	0	10.989	-10.989	19.033	0	0	0	1	0	0	17.883	2.027	16.961	0	0	0	0	0	0	0	0	0	0	0	0	0	-1	0	-2.0278	-17.891	16.968	0	0	0	1	0	0	17.47	2.0148	16.554	2
5032	50.32	0	0	0	0	0	0	10.917	-10.917	18.908	0	0	0	0	0	0	0	0	0	0	0	0	0	0	0	10.989	-10.989	19.033	0	0	0	0	0	0	0	0	0	0	0	0	0	0	0	0	0	0	0	0	0	0	-1	0	-2.0278	-17.891	16.968	0	0	0	0	0	0	0	0	0	2
5033	50.33	0	0	0	0	0	0	10.917	-10.917	18.908	0	0	0	0	0	0	0	0	0	0	0	0	0	0	0	10.989	-10.989	19.033	0	0	0	1	0	0	17.883	2.027	16.961	0	0	0	0	0	0	0	0	0	0	0	0	0	-1	0	-2.0278	-17.891	16.968	0	0	0	1	0	0	17.482	2.0162	16.566	2
5034	50.34	0	0	0	0	0	0	0	0	0	0	0	0	0	0	0	0	0	0	0	0	0	0	0	0	10.989	-10.989	19.033	0	0	0	1	0	0	17.883	2.027	16.961	0	0	0	0	0	0	0	0	0	0	0	0	0	-1	0	-2.0278	-17.891	16.968	0	0	0	0	0	0	0	0	0	2
5035	50.35	0	0	0	0	0	0	0	0	0	0	0	0	0	0	0	0	0	0	0	0	0	0	0	0	10.989	-10.989	19.033	0	0	0	1	0	0	17.883	2.027	16.961	0	0	0	0	0	0	0	0	0	0	0	0	0	-1	0	-2.0278	-17.891	16.968	0	0	0	0	0	0	0	0	0	2
5036	50.36	0	0	0	0	0	0	10.917	-10.917	18.908	0	0	0	0	0	0	0	0	0	0	0	0	0	0	0	10.989	-10.989	19.033	0	0	0	1	0	0	17.883	2.027	16.961	0	0	0	0	0	0	0	0	0	0	0	0	0	-1	0	-2.0278	-17.891	16.968	0	0	0	1	0	0	17.47	2.0148	16.554	2
5037	50.37	0	0	0	0	0	0	0	0	0	0	0	0	0	0	0	0	0	0	0	0	0	0	0	0	10.989	-10.989	19.033	0	0	0	1	0	0	17.883	2.027	16.961	0	0	0	0	0	0	0	0	0	0	0	0	0	-1	0	-2.0278	-17.891	16.968	0	0	0	0	0	0	0	0	0	2
5038	50.38	0	0	0	0	0	0	0	0	0	0	0	0	0	0	0	0	0	0	0	0	0	0	0	0	10.989	-10.989	19.033	0	0	0	1	0	0	17.883	2.027	16.961	0	0	0	0	0	0	0	0	0	0	0	0	0	-1	0	-2.0278	-17.891	16.968	0	0	0	0	0	0	0	0	0	2
5039	50.39	0	0	0	0	0	0	0	0	0	0	0	0	0	0	0	0	0	0	0	0	0	0	0	0	10.989	-10.989	19.033	0	0	0	1	0	0	17.883	2.027	16.961	0	0	0	0	0	0	0	0	0	0	0	0	1	-1	0	7.5503	-27.469	31.921	0	0	0	0	0	0	0	0	0	2
5040	50.4	0	0	0	0	0	0	0	0	0	0	0	0	0	0	0	0	0	0	0	0	0	0	0	0	0	0	0	0	0	0	0	0	0	0	0	0	0	0	0	0	0	0	0	0	0	0	0	0	0	-1	0	-2.0278	-17.891	16.968	0	0	0	0	0	0	0	0	0	0
5041	50.41	0	0	0	0	0	0	0	0	0	0	0	0	0	0	0	0	0	0	0	0	0	0	0	0	10.989	-10.989	19.033	0	0	0	1	0	0	17.883	2.027	16.961	0	0	0	0	0	0	0	0	0	0	0	0	0	-1	0	-2.0278	-17.891	16.968	0	0	0	0	0	0	0	0	0	2
5042	50.42	0	0	0	0	0	0	0	0	0	0	0	0	0	0	0	0	0	0	0	0	0	0	0	0	10.989	-10.989	19.033	0	0	0	0	0	0	0	0	0	0	0	0	0	0	0	0	0	0	0	0	0	0	-1	0	-2.0278	-17.891	16.968	0	0	0	0	0	0	0	0	0	2
5043	50.43	0	0	0	0	0	0	10.917	-10.917	18.908	0	0	0	0	0	0	0	0	0	0	0	0	0	0	0	10.989	-10.989	19.033	0	0	0	0	0	0	0	0	0	0	0	0	0	0	0	0	0	0	0	0	0	0	-1	0	-2.0278	-17.891	16.968	0	0	0	1	0	0	17.482	2.0162	16.566	2
5044	50.44	0	0	0	0	0	0	0	0	0	0	0	0	0	0	0	0	0	0	0	0	0	0	0	0	10.989	-10.989	19.033	0	0	0	1	0	0	17.883	2.027	16.961	0	0	0	0	0	0	0	0	0	0	0	0	1	-1	0	7.5503	-27.469	31.921	0	0	0	0	0	0	0	0	0	2
5045	50.45	0	0	0	0	0	0	0	0	0	0	0	0	0	0	0	0	0	0	0	0	0	0	0	0	10.989	-10.989	19.033	0	0	0	1	0	0	17.761	2.1499	16.789	0	0	0	0	0	0	0	0	0	0	0	0	0	-1	0	-2.0278	-17.891	16.968	0	0	0	0	0	0	0	0	0	2
5046	50.46	0	0	0	0	0	0	0	0	0	0	0	0	0	0	0	0	0	0	0	0	0	0	0	0	10.989	-10.989	19.033	0	0	0	1	0	0	17.883	2.027	16.961	0	0	0	1	0	0	17.883	2.027	16.961	0	0	0	0	-1	0	-2.0278	-17.891	16.968	0	0	0	0	0	0	0	0	0	2
5047	50.47	0	0	0	0	-1	0	-2.0364	-17.814	16.888	0	0	0	0	0	0	0	0	0	0	0	0	0	0	0	0	0	0	0	0	0	1	0	0	17.883	2.027	16.961	0	0	0	0	0	0	0	0	0	0	0	0	0	-1	0	-2.0278	-17.891	16.968	0	0	0	0	0	0	0	0	0	2
5048	50.48	0	0	0	0	0	0	0	0	0	0	0	0	0	0	0	0	0	0	0	0	0	0	0	0	10.989	-10.989	19.033	0	0	0	1	0	0	17.883	2.027	16.961	0	0	0	0	0	0	0	0	0	0	0	0	1	-1	0	7.5503	-27.469	31.921	0	0	0	0	0	0	0	0	0	2
5049	50.49	0	0	0	0	-1	0	-2.0364	-17.814	16.888	0	0	0	0	0	0	0	0	0	0	0	0	0	0	0	10.989	-10.989	19.033	0	0	0	1	0	0	17.883	2.027	16.961	0	0	0	0	0	0	0	0	0	0	0	0	0	-1	0	-2.0278	-17.891	16.968	0	0	0	0	0	0	0	0	0	2
5050	50.5	0	0	0	0	0	0	0	0	0	0	0	0	0	0	0	0	0	0	0	0	0	0	0	0	10.989	-10.989	19.033	0	0	0	0	0	0	0	0	0	0	0	0	0	0	0	0	0	0	0	0	0	0	-1	0	-2.0278	-17.891	16.968	0	0	0	0	0	0	0	0	0	2
5051	50.51	0	0	0	0	0	0	0	0	0	0	0	0	0	0	0	0	0	0	0	0	0	0	0	0	10.989	-10.989	19.033	0	0	0	1	0	0	17.883	2.027	16.961	0	0	0	0	0	0	0	0	0	0	0	0	0	-1	0	-2.0278	-17.891	16.968	0	0	0	0	0	0	0	0	0	2
5052	50.52	0	0	0	0	0	0	0	0	0	0	0	0	0	0	0	0	0	0	0	0	0	0	0	0	10.989	-10.989	19.033	0	0	0	1	0	0	17.883	2.027	16.961	0	0	0	0	0	0	0	0	0	0	0	0	0	-1	0	-2.0278	-17.891	16.968	0	0	0	0	0	0	0	0	0	2
5053	50.53	0	0	0	0	0	0	10.917	-10.917	18.908	0	0	0	0	0	0	0	0	0	0	0	0	0	0	0	10.989	-10.989	19.033	0	0	0	1	0	0	17.883	2.027	16.961	0	0	0	0	0	0	0	0	0	0	0	0	0	-1	0	-2.0278	-17.891	16.968	0	0	0	0	0	0	0	0	0	2
5054	50.54	0	0	0	0	0	0	0	0	0	0	0	0	0	0	0	0	0	0	0	0	0	0	0	0	10.989	-10.989	19.033	0	0	0	0	0	0	0	0	0	0	0	0	0	0	0	0	0	0	0	0	0	0	-1	0	-2.0278	-17.891	16.968	0	0	0	0	0	0	0	0	0	2
5055	50.55	0	0	0	0	0	0	0	0	0	0	0	0	0	-1	0	-2.0372	-17.821	16.895	0	0	0	0	0	0	10.989	-10.989	19.033	0	0	0	1	0	0	17.883	2.027	16.961	0	0	0	0	0	0	0	0	0	0	0	0	0	-1	0	-2.0278	-17.891	16.968	0	0	0	0	0	0	0	0	0	2
5056	50.56	0	0	0	0	0	0	0	0	0	0	0	0	0	0	0	0	0	0	0	0	0	0	0	0	10.989	-10.989	19.033	0	0	0	1	0	0	17.883	2.027	16.961	0	0	0	0	0	0	0	0	0	0	0	0	0	-1	0	-2.0278	-17.891	16.968	0	0	0	0	0	0	0	0	0	2
5057	50.57	0	0	0	0	0	0	10.917	-10.917	18.908	0	0	0	0	0	0	0	0	0	0	0	0	0	0	0	0	0	0	0	0	0	1	0	0	17.883	2.027	16.961	0	0	0	0	0	0	0	0	0	0	0	0	0	-1	0	-2.0278	-17.891	16.968	0	0	0	1	0	0	17.47	2.0148	16.554	2
5058	50.58	0	0	0	0	0	0	0	0	0	0	0	0	0	0	0	0	0	0	0	0	0	0	0	0	10.989	-10.989	19.033	0	0	0	1	0	0	17.883	2.027	16.961	0	0	0	0	0	0	0	0	0	0	0	0	0	0	0	0	0	0	0	0	0	0	0	0	0	0	0	2
5059	50.59	0	0	0	0	0	0	0	0	0	0	0	0	0	0	0	0	0	0	0	0	0	0	0	0	10.989	-10.989	19.033	0	0	0	1	0	0	17.761	2.1499	16.789	0	0	0	0	0	0	0	0	0	0	0	0	0	-1	0	-2.0278	-17.891	16.968	0	0	0	0	0	0	0	0	0	2
5060	50.6	0	0	0	0	0	0	0	0	0	0	0	0	0	0	0	0	0	0	0	0	0	0	0	0	10.989	-10.989	19.033	0	0	0	0	0	0	0	0	0	0	0	0	0	0	0	0	0	0	0	0	0	0	-1	0	-2.0278	-17.891	16.968	0	0	0	0	0	0	0	0	0	2
5061	50.61	0	0	0	0	0	0	0	0	0	0	0	0	0	0	0	0	0	0	0	0	0	0	0	0	10.989	-10.989	19.033	0	0	0	1	0	0	17.883	2.027	16.961	0	0	0	0	0	0	0	0	0	0	0	0	0	-1	0	-2.0278	-17.891	16.968	0	0	0	0	0	0	0	0	0	2
5062	50.62	0	0	0	0	0	0	0	0	0	0	0	0	0	0	0	0	0	0	0	0	0	0	0	0	10.989	-10.989	19.033	0	0	0	0	0	0	0	0	0	0	0	0	0	0	0	0	0	0	0	0	0	0	-1	0	-2.0278	-17.891	16.968	0	0	0	0	0	0	0	0	0	2
5063	50.63	0	0	0	0	0	0	10.917	-10.917	18.908	0	0	0	0	0	0	0	0	0	0	0	0	0	0	0	10.989	-10.989	19.033	0	0	0	0	0	0	0	0	0	0	0	0	0	0	0	0	0	0	0	0	0	1	-1	0	7.5503	-27.469	31.921	0	0	0	0	0	0	0	0	0	2
5064	50.64	0	0	0	0	0	0	0	0	0	0	0	0	0	0	0	0	0	0	0	0	0	0	0	0	10.989	-10.989	19.033	0	0	0	1	0	0	17.883	2.027	16.961	0	0	0	0	0	0	0	0	0	0	0	0	0	-1	0	-2.0278	-17.891	16.968	0	0	0	0	0	0	0	0	0	2
5065	50.65	0	0	0	0	0	0	0	0	0	0	0	0	0	0	0	0	0	0	0	0	0	0	0	0	10.989	-10.989	19.033	0	0	0	1	0	0	17.883	2.027	16.961	0	0	0	0	0	0	0	0	0	0	0	0	0	0	0	0	0	0	0	0	0	0	0	0	0	0	0	2
5066	50.66	0	0	0	0	0	0	0	0	0	0	0	0	0	0	0	0	0	0	0	0	0	0	0	0	10.989	-10.989	19.033	0	0	0	1	0	0	17.883	2.027	16.961	0	0	0	0	0	0	0	0	0	0	0	0	0	-1	0	-2.0278	-17.891	16.968	0	0	0	0	0	0	0	0	0	2
5067	50.67	0	0	0	0	0	0	0	0	0	0	0	0	0	0	0	0	0	0	0	0	0	0	0	0	10.989	-10.989	19.033	0	0	0	0	0	0	0	0	0	0	0	0	0	0	0	0	0	0	0	0	0	1	-1	0	7.5503	-27.469	31.921	0	0	0	0	0	0	0	0	0	2
5068	50.68	0	0	0	0	0	0	0	0	0	0	0	0	0	0	0	0	0	0	0	0	0	0	0	0	10.989	-10.989	19.033	0	0	0	1	0	0	17.883	2.027	16.961	0	0	0	0	0	0	0	0	0	0	0	0	0	-1	0	-2.0278	-17.891	16.968	0	0	0	0	0	0	0	0	0	2
5069	50.69	0	0	0	0	0	0	0	0	0	0	0	0	0	0	0	0	0	0	0	0	0	0	0	0	10.989	-10.989	19.033	0	0	0	1	0	0	17.883	2.027	16.961	0	0	0	0	0	0	0	0	0	0	0	0	1	-1	0	7.5503	-27.469	31.921	0	0	0	0	0	0	0	0	0	2
5070	50.7	0	0	0	0	0	0	0	0	0	0	0	0	0	0	0	0	0	0	0	0	0	0	0	0	10.989	-10.989	19.033	0	0	0	0	0	0	0	0	0	0	0	0	0	0	0	0	0	0	0	0	0	0	-1	0	-2.0278	-17.891	16.968	0	0	0	0	0	0	0	0	0	2
5071	50.71	0	0	0	0	0	0	0	0	0	0	0	0	0	0	0	0	0	0	0	0	0	0	0	0	10.989	-10.989	19.033	0	0	0	1	0	0	17.883	2.027	16.961	0	0	0	0	0	0	0	0	0	0	0	0	1	-1	0	7.5503	-27.469	31.921	0	0	0	0	0	0	0	0	0	2
5072	50.72	0	0	0	0	0	0	0	0	0	0	0	0	0	0	0	0	0	0	0	0	0	0	0	0	10.989	-10.989	19.033	0	0	0	1	0	0	17.883	2.027	16.961	0	0	0	0	0	0	0	0	0	0	0	0	0	-1	0	-2.0278	-17.891	16.968	0	0	0	0	0	0	0	0	0	2
5073	50.73	0	0	0	0	0	0	0	0	0	0	0	0	0	0	0	0	0	0	0	0	0	0	0	0	10.989	-10.989	19.033	0	0	0	1	0	0	17.883	2.027	16.961	0	0	0	0	0	0	0	0	0	0	0	0	0	-1	0	-2.0278	-17.891	16.968	0	0	0	0	0	0	0	0	0	2
5074	50.74	0	0	0	0	0	0	0	0	0	0	0	0	0	-1	0	-2.0366	-17.816	16.89	0	0	0	0	0	0	10.989	-10.989	19.033	0	0	0	1	0	0	17.883	2.027	16.961	0	0	0	0	0	0	0	0	0	0	0	0	0	-1	0	-2.0278	-17.891	16.968	0	0	0	0	0	0	10.93	-10.93	18.931	2
5075	50.75	0	0	0	0	0	0	0	0	0	0	0	0	0	0	0	0	0	0	0	0	0	0	0	0	10.989	-10.989	19.033	0	0	0	0	0	0	0	0	0	0	0	0	0	0	0	0	0	0	0	0	0	0	-1	0	-2.0278	-17.891	16.968	0	0	0	0	0	0	0	0	0	2
5076	50.76	0	0	0	0	0	0	0	0	0	0	0	0	0	-1	0	-2.0366	-17.816	16.89	0	0	0	0	0	0	10.989	-10.989	19.033	0	0	0	1	0	0	17.883	2.027	16.961	0	0	0	0	0	0	0	0	0	0	0	0	1	-1	0	7.5503	-27.469	31.921	0	0	0	0	0	0	0	0	0	2
5077	50.77	0	0	0	0	0	0	0	0	0	0	0	0	0	0	0	0	0	0	0	0	0	0	0	0	10.989	-10.989	19.033	0	0	0	1	0	0	17.883	2.027	16.961	0	0	0	0	0	0	0	0	0	0	0	0	0	-1	0	-2.0278	-17.891	16.968	0	0	0	0	0	0	0	0	0	2
5078	50.78	0	0	0	0	0	0	0	0	0	0	0	0	0	0	0	0	0	0	0	0	0	0	0	0	10.989	-10.989	19.033	0	0	0	1	0	0	17.883	2.027	16.961	0	0	0	0	0	0	0	0	0	0	0	0	0	-1	0	-2.0278	-17.891	16.968	0	0	0	0	0	0	0	0	0	2
5079	50.79	0	0	0	0	0	0	10.917	-10.917	18.908	0	0	0	0	0	0	0	0	0	0	0	0	0	0	0	10.989	-10.989	19.033	0	0	0	1	0	0	17.883	2.027	16.961	0	0	0	0	0	0	0	0	0	0	0	0	0	-1	0	-2.0278	-17.891	16.968	0	0	0	0	0	0	0	0	0	2
5080	50.8	0	0	0	0	0	0	0	0	0	0	0	0	0	0	0	0	0	0	0	0	0	0	0	0	10.989	-10.989	19.033	0	0	0	0	0	0	0	0	0	0	0	0	0	0	0	0	0	0	0	0	0	0	-1	0	-2.0278	-17.891	16.968	0	0	0	0	0	0	0	0	0	2
5081	50.81	0	0	0	0	0	0	0	0	0	0	0	0	0	0	0	0	0	0	0	0	0	0	0	0	0	0	0	0	0	0	1	0	0	17.883	2.027	16.961	0	0	0	0	0	0	0	0	0	0	0	0	0	-1	0	-2.0278	-17.891	16.968	0	0	0	0	0	0	0	0	0	2
5082	50.82	0	0	0	0	0	0	0	0	0	0	0	0	0	0	0	0	0	0	0	0	0	0	0	0	10.989	-10.989	19.033	0	0	0	1	0	0	17.883	2.027	16.961	0	0	0	0	0	0	0	0	0	0	0	0	0	-1	0	-2.0278	-17.891	16.968	0	0	0	0	0	0	0	0	0	2
5083	50.83	0	0	0	0	0	0	0	0	0	0	0	0	0	0	0	0	0	0	0	0	0	0	0	0	10.989	-10.989	19.033	0	0	0	0	0	0	0	0	0	0	0	0	0	0	0	0	0	0	0	0	0	0	-1	0	-2.0278	-17.891	16.968	0	0	0	1	0	0	17.47	2.0148	16.554	2
5084	50.84	0	0	0	0	0	0	0	0	0	0	0	0	0	0	0	0	0	0	0	0	0	0	0	0	10.989	-10.989	19.033	0	0	0	1	0	0	17.883	2.027	16.961	0	0	0	0	0	0	0	0	0	0	0	0	0	-1	0	-2.0278	-17.891	16.968	0	0	0	1	0	0	17.482	2.0162	16.566	0
5085	50.85	0	0	0	0	0	0	0	0	0	0	0	0	0	0	0	0	0	0	0	0	0	0	0	0	10.989	-10.989	19.033	0	0	0	0	0	0	0	0	0	0	0	0	0	0	0	0	0	0	0	0	0	0	-1	0	-2.0278	-17.891	16.968	0	0	0	0	0	0	0	0	0	2
5086	50.86	0	0	0	0	0	0	10.917	-10.917	18.908	0	0	0	0	0	0	0	0	0	0	0	0	0	0	0	10.989	-10.989	19.033	0	0	0	1	0	0	17.883	2.027	16.961	0	0	0	0	0	0	0	0	0	0	0	0	0	-1	0	-2.0278	-17.891	16.968	0	0	0	1	0	0	17.47	2.0148	16.554	2
5087	50.87	0	0	0	0	0	0	0	0	0	0	0	0	0	0	0	0	0	0	0	0	0	0	0	0	10.989	-10.989	19.033	0	0	0	0	0	0	0	0	0	0	0	0	0	0	0	0	0	0	0	0	0	0	-1	0	-2.0278	-17.891	16.968	0	0	0	0	0	0	0	0	0	2
5088	50.88	0	0	0	0	0	0	0	0	0	0	0	0	0	0	0	0	0	0	0	0	0	0	0	0	10.989	-10.989	19.033	0	0	0	1	0	0	17.883	2.027	16.961	0	0	0	0	0	0	0	0	0	0	0	0	0	-1	0	-2.0278	-17.891	16.968	0	0	0	0	0	0	0	0	0	2
5089	50.89	0	0	0	0	0	0	10.917	-10.917	18.908	0	0	0	0	0	0	0	0	0	0	0	0	0	0	0	10.989	-10.989	19.033	0	0	0	0	0	0	0	0	0	0	0	0	0	0	0	0	0	0	0	0	0	0	-1	0	-2.0278	-17.891	16.968	0	0	0	0	0	0	0	0	0	0
5090	50.9	0	0	0	0	0	0	0	0	0	0	0	0	0	0	0	0	0	0	0	0	0	0	0	0	10.989	-10.989	19.033	0	0	0	1	0	0	17.883	2.027	16.961	0	0	0	0	0	0	0	0	0	0	0	0	0	0	0	10.994	-10.994	19.042	0	0	0	0	0	0	0	0	0	2
5091	50.91	0	0	0	0	0	0	0	0	0	0	0	0	0	0	0	0	0	0	0	0	0	0	0	0	10.989	-10.989	19.033	0	0	0	1	0	0	17.883	2.027	16.961	0	0	0	0	0	0	0	0	0	0	0	0	0	-1	0	-2.0278	-17.891	16.968	0	0	0	0	0	0	0	0	0	2
5092	50.92	0	0	0	0	0	0	0	0	0	0	0	0	0	0	0	0	0	0	0	0	0	0	0	0	10.989	-10.989	19.033	0	0	0	0	0	0	0	0	0	0	0	0	0	0	0	0	0	0	0	0	0	0	-1	0	-2.0278	-17.891	16.968	0	0	0	0	0	0	0	0	0	2
5093	50.93	0	0	0	0	0	0	10.917	-10.917	18.908	0	0	0	0	0	0	0	0	0	0	0	0	0	0	0	0	0	0	0	0	0	0	0	0	0	0	0	0	0	0	0	0	0	0	0	0	0	0	0	1	-1	0	7.5503	-27.469	31.921	0	0	0	1	0	0	17.47	2.0148	16.554	2
5094	50.94	0	0	0	0	0	0	0	0	0	0	0	0	0	0	0	0	0	0	0	0	0	0	0	0	10.989	-10.989	19.033	0	0	0	0	0	0	0	0	0	0	0	0	0	0	0	0	0	0	0	0	0	0	-1	0	-2.0278	-17.891	16.968	0	0	0	0	0	0	0	0	0	2
5095	50.95	0	0	0	0	0	0	0	0	0	0	0	0	0	0	0	0	0	0	0	0	0	0	0	0	10.989	-10.989	19.033	0	0	0	0	0	0	0	0	0	0	0	0	0	0	0	0	0	0	0	0	0	0	-1	0	-2.0278	-17.891	16.968	0	0	0	0	0	0	0	0	0	2
5096	50.96	0	0	0	0	0	0	0	0	0	0	0	0	0	0	0	0	0	0	0	0	0	0	0	0	10.989	-10.989	19.033	0	0	0	1	0	0	17.883	2.027	16.961	0	0	0	0	0	0	0	0	0	0	0	0	0	-1	0	-2.0278	-17.891	16.968	0	0	0	0	0	0	0	0	0	0
5097	50.97	0	0	0	0	0	0	0	0	0	0	0	0	0	0	0	0	0	0	0	0	0	0	0	0	10.989	-10.989	19.033	0	0	0	1	0	0	17.883	2.027	16.961	0	0	0	0	0	0	0	0	0	0	0	0	0	-1	0	-2.0278	-17.891	16.968	0	0	0	0	0	0	0	0	0	2
5098	50.98	0	0	0	0	0	0	10.917	-10.917	18.908	0	0	0	0	0	0	0	0	0	0	0	0	0	0	0	10.989	-10.989	19.033	0	0	0	1	0	0	17.883	2.027	16.961	0	0	0	0	0	0	0	0	0	0	0	0	1	-1	0	7.5503	-27.469	31.921	0	0	0	0	0	0	0	0	0	2
5099	50.99	0	0	0	0	0	0	0	0	0	0	0	0	0	0	0	0	0	0	0	0	0	0	0	0	10.989	-10.989	19.033	0	0	0	1	0	0	17.883	2.027	16.961	0	0	0	0	0	0	0	0	0	0	0	0	0	0	0	0	0	0	0	0	0	0	0	0	0	0	0	2
5100	51	0	0	0	0	0	0	0	0	0	0	0	0	0	0	0	0	0	0	0	0	0	0	0	0	10.989	-10.989	19.033	0	0	0	1	0	0	17.883	2.027	16.961	0	0	0	0	0	0	0	0	0	0	0	0	0	-1	0	-2.0278	-17.891	16.968	0	0	0	0	0	0	0	0	0	2
5101	51.01	0	0	0	0	0	0	0	0	0	0	0	0	0	0	0	0	0	0	0	0	0	0	0	0	10.989	-10.989	19.033	0	0	0	1	0	0	17.883	2.027	16.961	0	0	0	0	0	0	0	0	0	0	0	0	1	-1	0	7.5503	-27.469	31.921	0	0	0	1	0	0	17.482	2.0162	16.566	2
5102	51.02	0	0	0	0	0	0	0	0	0	0	0	0	0	0	0	0	0	0	0	0	0	0	0	0	10.989	-10.989	19.033	0	0	0	1	0	0	17.883	2.027	16.961	0	0	0	0	0	0	0	0	0	0	0	0	0	-1	0	-2.0278	-17.891	16.968	0	0	0	0	0	0	0	0	0	2
5103	51.03	0	0	0	0	0	0	0	0	0	0	0	0	0	0	0	0	0	0	0	0	0	0	0	0	10.989	-10.989	19.033	0	0	0	0	0	0	0	0	0	0	0	0	0	0	0	0	0	0	0	0	0	0	-1	0	-2.0278	-17.891	16.968	0	0	0	0	0	0	0	0	0	2
5104	51.04	0	0	0	0	0	0	0	0	0	0	0	0	0	0	0	0	0	0	0	0	0	0	0	0	10.989	-10.989	19.033	0	0	0	1	0	0	17.883	2.027	16.961	0	0	0	0	0	0	0	0	0	0	0	0	0	0	0	10.994	-10.994	19.042	0	0	0	0	0	0	10.93	-10.93	18.931	2
5105	51.05	0	0	0	0	0	0	0	0	0	0	0	0	0	0	0	0	0	0	0	0	0	0	0	0	10.989	-10.989	19.033	0	0	0	0	0	0	0	0	0	0	0	0	0	0	0	0	0	0	0	0	0	0	-1	0	-2.0278	-17.891	16.968	0	0	0	0	0	0	0	0	0	2
5106	51.06	0	0	0	0	0	0	0	0	0	0	0	0	0	0	0	0	0	0	0	0	0	0	0	0	10.989	-10.989	19.033	0	0	0	1	0	0	17.883	2.027	16.961	0	0	0	0	0	0	0	0	0	0	0	0	0	-1	0	-2.0278	-17.891	16.968	0	0	0	1	0	0	17.47	2.0148	16.554	2
5107	51.07	0	0	0	0	0	0	0	0	0	0	0	0	0	0	0	0	0	0	0	0	0	0	0	0	10.989	-10.989	19.033	0	0	0	1	0	0	17.883	2.027	16.961	0	0	0	0	0	0	0	0	0	0	0	0	0	-1	0	-2.0278	-17.891	16.968	0	0	0	0	0	0	0	0	0	2
5108	51.08	0	0	0	0	0	0	0	0	0	0	0	0	0	0	0	0	0	0	0	0	0	0	0	0	10.989	-10.989	19.033	0	0	0	1	0	0	17.883	2.027	16.961	0	0	0	0	0	0	0	0	0	0	0	0	0	0	0	0	0	0	0	0	0	0	0	0	10.93	-10.93	18.931	2
5109	51.09	0	0	0	0	0	0	0	0	0	0	0	0	0	0	0	0	0	0	0	0	0	0	0	0	10.989	-10.989	19.033	0	0	0	1	0	0	17.883	2.027	16.961	0	0	0	0	0	0	0	0	0	0	0	0	0	-1	0	-2.0278	-17.891	16.968	0	0	0	1	0	0	17.47	2.0148	16.554	2
5110	51.1	0	0	0	0	0	0	0	0	0	0	0	0	0	0	0	0	0	0	0	0	0	0	0	0	10.989	-10.989	19.033	0	0	0	1	0	0	17.883	2.027	16.961	0	0	0	0	0	0	0	0	0	0	0	0	0	-1	0	-2.0278	-17.891	16.968	0	0	0	0	0	0	0	0	0	2
5111	51.11	0	0	0	0	0	0	0	0	0	0	0	0	0	0	0	0	0	0	0	0	0	0	0	0	10.989	-10.989	19.033	0	0	0	1	0	0	17.883	2.027	16.961	0	0	0	0	0	0	0	0	0	0	0	0	0	0	0	0	0	0	0	0	0	0	0	0	0	0	0	2
5112	51.12	0	0	0	0	0	0	0	0	0	0	0	0	0	0	0	0	0	0	0	0	0	0	0	0	10.989	-10.989	19.033	0	0	0	0	0	0	0	0	0	0	0	0	0	0	0	0	0	0	0	0	0	0	-1	0	-2.0278	-17.891	16.968	0	0	0	0	0	0	0	0	0	2
5113	51.13	0	0	0	0	-1	0	-2.0364	-17.814	16.888	0	0	0	0	0	0	0	0	0	0	0	0	0	0	0	10.989	-10.989	19.033	0	0	0	1	0	0	17.883	2.027	16.961	0	0	0	0	0	0	0	0	0	0	0	0	0	-1	0	-2.0278	-17.891	16.968	0	0	0	0	0	0	0	0	0	2
5114	51.14	0	0	0	0	0	0	0	0	0	0	0	0	0	0	0	0	0	0	0	0	0	0	0	0	10.989	-10.989	19.033	0	0	0	0	0	0	0	0	0	0	0	0	0	0	0	0	0	0	0	0	0	0	0	0	0	0	0	0	0	0	0	0	0	0	0	0	2
5115	51.15	0	0	0	0	0	0	0	0	0	0	0	0	0	0	0	0	0	0	0	0	0	0	0	0	10.989	-10.989	19.033	0	0	0	1	0	0	17.883	2.027	16.961	0	0	0	0	0	0	0	0	0	0	0	0	1	-1	0	7.5503	-27.469	31.921	0	0	0	0	0	0	0	0	0	2
5116	51.16	0	0	0	0	0	0	0	0	0	0	0	0	0	0	0	0	0	0	0	0	0	0	0	0	10.989	-10.989	19.033	0	0	0	0	0	0	0	0	0	0	0	0	0	0	0	0	0	0	0	0	0	0	-1	0	-2.0278	-17.891	16.968	0	0	0	0	0	0	0	0	0	2
5117	51.17	0	0	0	0	0	0	0	0	0	0	0	0	0	-1	0	-2.0366	-17.816	16.89	0	0	0	0	0	0	10.989	-10.989	19.033	0	0	0	1	0	0	17.883	2.027	16.961	0	0	0	0	0	0	0	0	0	0	0	0	0	-1	0	-2.0278	-17.891	16.968	0	0	0	0	0	0	0	0	0	2
5118	51.18	0	0	0	0	0	0	0	0	0	0	0	0	0	0	0	0	0	0	0	0	0	0	0	0	10.989	-10.989	19.033	0	0	0	1	0	0	17.883	2.027	16.961	0	0	0	0	0	0	0	0	0	0	0	0	0	-1	0	-2.0278	-17.891	16.968	0	0	0	0	0	0	0	0	0	2
5119	51.19	0	0	0	0	0	0	10.917	-10.917	18.908	0	0	0	0	0	0	0	0	0	0	0	0	0	0	0	10.989	-10.989	19.033	0	0	0	1	0	0	17.883	2.027	16.961	0	0	0	0	0	0	0	0	0	0	0	0	1	-1	0	7.5503	-27.469	31.921	0	0	0	0	0	0	0	0	0	2
5120	51.2	0	0	0	0	0	0	0	0	0	0	0	0	0	0	0	0	0	0	0	0	0	0	0	0	10.989	-10.989	19.033	0	0	0	0	0	0	0	0	0	0	0	0	0	0	0	0	0	0	0	0	0	0	-1	0	-2.0278	-17.891	16.968	0	0	0	1	0	0	17.482	2.0162	16.566	2
5121	51.21	0	0	0	0	0	0	0	0	0	0	0	0	0	0	0	0	0	0	0	0	0	1	0	0	17.755	2.1475	16.785	0	0	0	1	0	0	17.883	2.027	16.961	0	0	0	0	0	0	0	0	0	0	0	0	0	-1	0	-2.0278	-17.891	16.968	0	0	0	0	0	0	0	0	0	2
5122	51.22	0	0	0	0	0	0	0	0	0	0	0	0	0	0	0	0	0	0	0	0	0	0	0	0	10.989	-10.989	19.033	0	0	0	1	0	0	17.883	2.027	16.961	0	0	0	0	0	0	0	0	0	0	0	0	0	-1	0	-2.0278	-17.891	16.968	0	0	0	0	0	0	0	0	0	2
5123	51.23	0	0	0	0	0	0	0	0	0	0	0	0	0	0	0	0	0	0	0	0	0	0	0	0	10.989	-10.989	19.033	0	0	0	1	0	0	17.883	2.027	16.961	0	0	0	0	0	0	0	0	0	0	0	0	0	-1	0	-2.0278	-17.891	16.968	0	0	0	0	0	0	0	0	0	2
5124	51.24	0	0	0	0	0	0	10.917	-10.917	18.908	0	0	0	0	0	0	0	0	0	0	0	0	0	0	0	10.989	-10.989	19.033	0	0	0	0	0	0	0	0	0	0	0	0	0	0	0	0	0	0	0	0	0	0	-1	0	-2.0278	-17.891	16.968	0	0	0	1	0	0	17.47	2.0148	16.554	2
5125	51.25	0	0	0	0	0	0	0	0	0	0	0	0	0	0	0	0	0	0	0	0	0	0	0	0	10.989	-10.989	19.033	0	0	0	1	0	0	17.883	2.027	16.961	0	0	0	0	0	0	0	0	0	0	0	0	0	-1	0	-2.0278	-17.891	16.968	0	0	0	0	0	0	0	0	0	2
5126	51.26	0	0	0	0	0	0	0	0	0	0	0	0	0	0	0	0	0	0	0	0	0	0	0	0	10.989	-10.989	19.033	0	0	0	1	0	0	17.761	2.1499	16.789	0	0	0	0	0	0	0	0	0	0	0	0	0	-1	0	-2.0278	-17.891	16.968	0	0	0	1	0	0	17.482	2.0162	16.566	2
5127	51.27	0	0	0	0	0	0	10.917	-10.917	18.908	0	0	0	0	0	0	0	0	0	0	0	0	0	0	0	10.989	-10.989	19.033	0	0	0	1	0	0	17.883	2.027	16.961	0	0	0	0	0	0	0	0	0	0	0	0	0	-1	0	-2.0278	-17.891	16.968	0	0	0	0	0	0	0	0	0	2
5128	51.28	0	0	0	0	0	0	0	0	0	0	0	0	0	0	0	0	0	0	0	0	0	0	0	0	10.989	-10.989	19.033	0	0	0	0	0	0	0	0	0	0	0	0	0	0	0	0	0	0	0	0	0	0	0	0	0	0	0	0	0	0	1	0	0	17.47	2.0148	16.554	2
5129	51.29	0	0	0	0	0	0	0	0	0	0	0	0	0	0	0	0	0	0	0	0	0	0	0	0	10.989	-10.989	19.033	0	0	0	1	0	0	17.883	2.027	16.961	0	0	0	0	0	0	0	0	0	0	0	0	0	-1	0	-2.0278	-17.891	16.968	0	0	0	0	0	0	0	0	0	2
5130	51.3	0	0	0	0	0	0	0	0	0	0	0	0	0	0	0	0	0	0	0	0	0	0	0	0	10.989	-10.989	19.033	0	0	0	1	0	0	17.883	2.027	16.961	0	0	0	0	0	0	0	0	0	0	0	0	0	-1	0	-2.0278	-17.891	16.968	0	0	0	0	0	0	0	0	0	2
5131	51.31	0	0	0	0	0	0	0	0	0	0	0	0	0	-1	0	-2.0366	-17.816	16.89	0	0	0	0	0	0	10.989	-10.989	19.033	0	0	0	1	0	0	17.883	2.027	16.961	0	0	0	0	0	0	0	0	0	0	0	0	0	-1	0	-2.0278	-17.891	16.968	0	0	0	0	0	0	0	0	0	2
5132	51.32	0	0	0	0	0	0	0	0	0	0	0	0	0	0	0	0	0	0	0	0	0	0	0	0	10.989	-10.989	19.033	0	0	0	0	0	0	0	0	0	0	0	0	0	0	0	0	0	0	0	0	0	0	0	0	0	0	0	0	0	0	0	0	0	0	0	0	2
5133	51.33	0	0	0	0	0	0	0	0	0	0	0	0	0	0	0	0	0	0	0	0	0	0	0	0	10.989	-10.989	19.033	0	0	0	1	0	0	17.883	2.027	16.961	0	0	0	0	0	0	0	0	0	0	0	0	0	-1	0	-2.0278	-17.891	16.968	0	0	0	0	0	0	0	0	0	2
5134	51.34	0	0	0	0	0	0	10.917	-10.917	18.908	0	0	0	0	0	0	0	0	0	0	0	0	0	0	0	10.989	-10.989	19.033	0	0	0	1	0	0	17.761	2.1499	16.789	0	0	0	0	0	0	0	0	0	0	0	0	0	0	0	0	0	0	0	0	0	0	0	0	0	0	0	2
5135	51.35	0	0	0	0	0	0	0	0	0	0	0	0	0	0	0	0	0	0	0	0	0	0	0	0	10.989	-10.989	19.033	0	0	0	1	0	0	17.883	2.027	16.961	0	0	0	0	0	0	10.996	-10.996	19.046	0	0	0	0	-1	0	-2.0278	-17.891	16.968	0	0	0	0	0	0	0	0	0	2
5136	51.36	0	0	0	0	0	0	10.917	-10.917	18.908	0	0	0	0	0	0	0	0	0	0	0	0	0	0	0	10.989	-10.989	19.033	0	0	0	1	0	0	17.883	2.027	16.961	0	0	0	0	0	0	0	0	0	0	0	0	0	-1	0	-2.0278	-17.891	16.968	0	0	0	0	0	0	0	0	0	2
5137	51.37	0	0	0	0	0	0	0	0	0	0	0	0	0	-1	0	-2.0366	-17.816	16.89	0	0	0	0	0	0	10.989	-10.989	19.033	0	0	0	0	0	0	0	0	0	0	0	0	0	0	0	0	0	0	0	0	0	0	-1	0	-2.0278	-17.891	16.968	0	0	0	0	0	0	0	0	0	2
5138	51.38	0	0	0	0	0	0	0	0	0	0	0	0	0	0	0	0	0	0	0	0	0	0	0	0	10.989	-10.989	19.033	0	0	0	1	0	0	17.883	2.027	16.961	0	0	0	0	0	0	0	0	0	0	0	0	0	-1	0	-2.0278	-17.891	16.968	0	0	0	0	0	0	0	0	0	2
5139	51.39	0	0	0	0	0	0	0	0	0	0	0	0	0	0	0	0	0	0	0	0	0	0	0	0	10.989	-10.989	19.033	0	0	0	1	0	0	17.883	2.027	16.961	0	0	0	0	0	0	0	0	0	0	0	0	0	-1	0	-2.0278	-17.891	16.968	0	0	0	1	0	0	17.47	2.0148	16.554	2
5140	51.4	0	0	0	0	0	0	0	0	0	0	0	0	0	0	0	0	0	0	0	0	0	0	0	0	10.989	-10.989	19.033	0	0	0	0	0	0	0	0	0	0	0	0	0	0	0	0	0	0	0	0	0	0	-1	0	-2.0278	-17.891	16.968	0	0	0	0	0	0	0	0	0	2
5141	51.41	0	0	0	0	0	0	0	0	0	0	0	0	0	0	0	0	0	0	0	0	0	0	0	0	10.989	-10.989	19.033	0	0	0	1	0	0	17.883	2.027	16.961	0	0	0	0	0	0	0	0	0	0	0	0	0	-1	0	-2.0278	-17.891	16.968	0	0	0	0	0	0	0	0	0	0
5142	51.42	0	0	0	0	0	0	0	0	0	0	0	0	0	0	0	0	0	0	0	0	0	0	0	0	10.989	-10.989	19.033	0	0	0	1	0	0	17.883	2.027	16.961	0	0	0	0	0	0	0	0	0	0	0	0	0	0	0	0	0	0	0	0	0	0	0	0	0	0	0	2
5143	51.43	0	0	0	0	0	0	10.917	-10.917	18.908	0	0	0	0	-1	0	-2.0366	-17.816	16.89	0	0	0	0	0	0	10.989	-10.989	19.033	0	0	0	0	0	0	0	0	0	0	0	0	0	0	0	0	0	0	0	0	0	0	0	0	0	0	0	0	0	0	0	0	0	0	0	0	2
5144	51.44	0	0	0	0	0	0	0	0	0	0	0	0	0	0	0	0	0	0	0	0	0	0	0	0	10.989	-10.989	19.033	0	0	0	1	0	0	17.883	2.027	16.961	0	0	0	0	0	0	0	0	0	0	0	0	0	-1	0	-2.0278	-17.891	16.968	0	0	0	1	0	0	17.47	2.0148	16.554	2
5145	51.45	0	0	0	0	0	0	0	0	0	0	0	0	0	0	0	0	0	0	0	0	0	0	0	0	10.989	-10.989	19.033	0	0	0	0	0	0	0	0	0	0	0	0	0	0	0	0	0	0	0	0	0	0	-1	0	-2.0278	-17.891	16.968	0	0	0	0	0	0	0	0	0	2
5146	51.46	0	0	0	0	0	0	0	0	0	0	0	0	0	0	0	0	0	0	0	0	0	0	0	0	10.989	-10.989	19.033	0	0	0	1	0	0	17.883	2.027	16.961	0	0	0	0	0	0	0	0	0	0	0	0	0	-1	0	-2.0278	-17.891	16.968	0	0	0	0	0	0	0	0	0	2
5147	51.47	0	0	0	0	0	0	10.917	-10.917	18.908	0	0	0	0	0	0	0	0	0	0	0	0	0	0	0	10.989	-10.989	19.033	0	0	0	1	0	0	17.883	2.027	16.961	0	0	0	0	0	0	0	0	0	0	0	0	0	-1	0	-2.0278	-17.891	16.968	0	0	0	1	0	0	17.47	2.0148	16.554	2
5148	51.48	0	0	0	0	0	0	0	0	0	0	0	0	0	0	0	0	0	0	0	0	0	0	0	0	10.989	-10.989	19.033	0	0	0	1	0	0	17.883	2.027	16.961	0	0	0	0	0	0	0	0	0	0	0	0	0	-1	0	-2.0278	-17.891	16.968	0	0	0	0	0	0	0	0	0	2
5149	51.49	0	0	0	0	0	0	10.917	-10.917	18.908	0	0	0	0	-1	0	-2.0366	-17.816	16.89	0	0	0	0	0	0	10.989	-10.989	19.033	0	0	0	1	0	0	17.761	2.1499	16.789	0	0	0	0	0	0	0	0	0	0	0	0	0	-1	0	-2.0278	-17.891	16.968	0	0	0	0	0	0	0	0	0	2
5150	51.5	0	0	0	0	0	0	0	0	0	0	0	0	0	0	0	0	0	0	0	0	0	0	0	0	10.989	-10.989	19.033	0	0	0	1	0	0	17.883	2.027	16.961	0	0	0	0	0	0	0	0	0	0	0	0	0	-1	0	-2.0278	-17.891	16.968	0	0	0	0	0	0	0	0	0	2
5151	51.51	0	0	0	0	0	0	0	0	0	0	0	0	0	0	0	0	0	0	0	0	0	0	0	0	10.989	-10.989	19.033	0	0	0	1	0	0	17.883	2.027	16.961	0	0	0	0	0	0	0	0	0	0	0	0	0	-1	0	-2.0278	-17.891	16.968	0	0	0	0	0	0	0	0	0	2
5152	51.52	0	0	0	0	0	0	10.917	-10.917	18.908	0	0	0	0	0	0	0	0	0	0	0	0	0	0	0	10.989	-10.989	19.033	0	0	0	1	0	0	17.883	2.027	16.961	0	0	0	0	0	0	0	0	0	0	0	0	0	-1	0	-2.0278	-17.891	16.968	0	0	0	0	0	0	0	0	0	2
5153	51.53	0	0	0	0	0	0	10.917	-10.917	18.908	0	0	0	0	0	0	0	0	0	0	0	0	0	0	0	10.989	-10.989	19.033	0	0	0	0	0	0	0	0	0	0	0	0	0	0	0	0	0	0	0	0	0	0	0	0	0	0	0	0	0	0	0	0	0	0	0	0	0
5154	51.54	0	0	0	0	0	0	0	0	0	0	0	0	0	0	0	0	0	0	0	0	0	0	0	0	10.989	-10.989	19.033	0	0	0	1	0	0	17.883	2.027	16.961	0	0	0	0	0	0	0	0	0	0	0	0	0	-1	0	-2.0278	-17.891	16.968	0	0	0	0	0	0	0	0	0	2
5155	51.55	0	0	0	0	0	0	0	0	0	0	0	0	0	0	0	0	0	0	0	0	0	0	0	0	0	0	0	0	0	0	0	0	0	0	0	0	0	0	0	0	0	0	0	0	0	0	0	0	0	-1	0	-2.0278	-17.891	16.968	0	0	0	0	0	0	0	0	0	2
5156	51.56	0	0	0	0	0	0	10.917	-10.917	18.908	0	0	0	0	0	0	0	0	0	0	0	0	0	0	0	10.989	-10.989	19.033	0	0	0	1	0	0	17.883	2.027	16.961	0	0	0	0	0	0	0	0	0	0	0	0	1	-1	0	7.5503	-27.469	31.921	0	0	0	0	0	0	0	0	0	0
5157	51.57	0	0	0	0	0	0	0	0	0	0	0	0	0	0	0	0	0	0	0	0	0	0	0	0	10.989	-10.989	19.033	0	0	0	1	0	0	17.883	2.027	16.961	0	0	0	0	0	0	0	0	0	0	0	0	0	-1	0	-2.0278	-17.891	16.968	0	0	0	0	0	0	0	0	0	2
5158	51.58	0	0	0	0	0	0	0	0	0	0	0	0	0	0	0	0	0	0	0	0	0	0	0	0	10.989	-10.989	19.033	0	0	0	1	0	0	17.883	2.027	16.961	0	0	0	0	0	0	0	0	0	0	0	0	0	-1	0	-2.0278	-17.891	16.968	0	0	0	0	0	0	0	0	0	0
5159	51.59	0	0	0	0	0	0	10.917	-10.917	18.908	0	0	0	0	0	0	0	0	0	0	0	0	0	0	0	10.989	-10.989	19.033	0	0	0	1	0	0	17.883	2.027	16.961	0	0	0	0	0	0	0	0	0	0	0	0	0	-1	0	-2.0278	-17.891	16.968	0	0	0	0	0	0	0	0	0	2
5160	51.6	0	0	0	0	0	0	0	0	0	0	0	0	0	-1	0	-2.0366	-17.816	16.89	0	0	0	0	0	0	10.989	-10.989	19.033	0	0	0	1	0	0	17.883	2.027	16.961	0	0	0	0	0	0	0	0	0	0	0	0	0	0	0	0	0	0	0	0	0	0	0	0	0	0	0	2
5161	51.61	0	0	0	0	0	0	0	0	0	0	0	0	0	0	0	0	0	0	0	0	0	0	0	0	10.989	-10.989	19.033	0	0	0	0	0	0	11.258	-11.253	19.496	0	0	0	0	0	0	0	0	0	0	0	0	1	-1	0	7.5503	-27.469	31.921	0	0	0	0	0	0	0	0	0	2
5162	51.62	0	0	0	0	0	0	0	0	0	0	0	0	0	0	0	0	0	0	0	0	0	0	0	0	10.989	-10.989	19.033	0	0	0	0	0	0	0	0	0	0	0	0	0	0	0	0	0	0	0	0	0	0	-1	0	-2.0278	-17.891	16.968	0	0	0	0	0	0	10.93	-10.93	18.931	2
5163	51.63	0	0	0	0	0	0	10.917	-10.917	18.908	0	0	0	0	0	0	0	0	0	0	0	0	0	0	0	10.989	-10.989	19.033	0	0	0	1	0	0	17.883	2.027	16.961	0	0	0	0	0	0	0	0	0	0	0	0	0	-1	0	-2.0278	-17.891	16.968	0	0	0	0	0	0	0	0	0	2
5164	51.64	0	0	0	0	0	0	0	0	0	0	0	0	0	0	0	0	0	0	0	0	0	0	0	0	10.989	-10.989	19.033	0	0	0	1	0	0	17.883	2.027	16.961	0	0	0	0	0	0	0	0	0	0	0	0	1	-1	0	7.5503	-27.469	31.921	0	0	0	0	0	0	0	0	0	2
5165	51.65	0	0	0	0	0	0	0	0	0	0	0	0	0	0	0	0	0	0	0	0	0	0	0	0	10.989	-10.989	19.033	0	0	0	0	0	0	0	0	0	0	0	0	0	0	0	0	0	0	0	0	0	0	-1	0	-2.0278	-17.891	16.968	0	0	0	0	0	0	0	0	0	2
5166	51.66	0	0	0	0	0	0	10.917	-10.917	18.908	0	0	0	0	0	0	0	0	0	0	0	0	0	0	0	10.989	-10.989	19.033	0	0	0	1	0	0	17.883	2.027	16.961	0	0	0	0	0	0	0	0	0	0	0	0	0	-1	0	-2.0278	-17.891	16.968	0	0	0	0	0	0	0	0	0	2
5167	51.67	0	0	0	0	0	0	10.917	-10.917	18.908	0	0	0	0	0	0	0	0	0	0	0	0	0	0	0	10.989	-10.989	19.033	0	0	0	1	0	0	17.883	2.027	16.961	0	0	0	0	0	0	0	0	0	0	0	0	0	-1	0	-2.0278	-17.891	16.968	0	0	0	0	0	0	0	0	0	2
5168	51.68	0	0	0	0	0	0	0	0	0	0	0	0	0	0	0	0	0	0	0	0	0	0	0	0	10.989	-10.989	19.033	0	0	0	0	0	0	0	0	0	0	0	0	0	0	0	0	0	0	0	0	0	0	-1	0	-2.0278	-17.891	16.968	0	0	0	0	0	0	0	0	0	2
5169	51.69	0	0	0	0	0	0	0	0	0	0	0	0	0	0	0	0	0	0	0	0	0	0	0	0	10.989	-10.989	19.033	0	0	0	1	0	0	17.883	2.027	16.961	0	0	0	0	0	0	0	0	0	0	0	0	0	-1	0	-2.0278	-17.891	16.968	0	0	0	0	0	0	0	0	0	2
5170	51.7	0	0	0	0	0	0	0	0	0	0	0	0	0	0	0	0	0	0	0	0	0	0	0	0	10.989	-10.989	19.033	0	0	0	0	0	0	0	0	0	0	0	0	0	0	0	0	0	0	0	0	0	0	-1	0	-2.0278	-17.891	16.968	0	0	0	0	0	0	0	0	0	2
5171	51.71	0	0	0	0	0	0	0	0	0	0	0	0	0	0	0	0	0	0	0	0	0	0	0	0	10.989	-10.989	19.033	0	0	0	1	0	0	17.883	2.027	16.961	0	0	0	0	0	0	0	0	0	0	0	0	0	-1	0	-2.0278	-17.891	16.968	0	0	0	0	0	0	0	0	0	2
5172	51.72	0	0	0	0	0	0	10.917	-10.917	18.908	0	0	0	0	0	0	0	0	0	0	0	0	0	0	0	0	0	0	0	0	0	1	0	0	17.883	2.027	16.961	0	0	0	0	0	0	0	0	0	0	0	0	0	-1	0	-2.0278	-17.891	16.968	0	0	0	0	0	0	0	0	0	2
5173	51.73	0	0	0	0	0	0	0	0	0	0	0	0	0	0	0	0	0	0	0	0	0	0	0	0	10.989	-10.989	19.033	0	0	0	1	0	0	17.883	2.027	16.961	0	0	0	0	0	0	0	0	0	0	0	0	0	-1	0	-2.0278	-17.891	16.968	0	0	0	0	0	0	0	0	0	2
5174	51.74	0	0	0	0	0	0	10.917	-10.917	18.908	0	0	0	0	0	0	0	0	0	0	0	0	0	0	0	10.989	-10.989	19.033	0	0	0	1	0	0	17.883	2.027	16.961	0	0	0	0	0	0	0	0	0	0	0	0	0	0	0	10.994	-10.994	19.042	0	0	0	0	0	0	0	0	0	2
5175	51.75	0	0	0	0	0	0	0	0	0	0	0	0	0	0	0	0	0	0	0	0	0	0	0	0	10.989	-10.989	19.033	0	0	0	0	0	0	0	0	0	0	0	0	0	0	0	0	0	0	0	0	0	0	-1	0	-2.0278	-17.891	16.968	0	0	0	0	0	0	0	0	0	2
5176	51.76	0	0	0	0	0	0	0	0	0	0	0	0	0	0	0	0	0	0	0	0	0	0	0	0	10.989	-10.989	19.033	0	0	0	1	0	0	17.883	2.027	16.961	0	0	0	0	0	0	0	0	0	0	0	0	0	-1	0	-2.0278	-17.891	16.968	0	0	0	0	0	0	0	0	0	0
5177	51.77	0	0	0	0	0	0	0	0	0	0	0	0	0	0	0	0	0	0	0	0	0	0	0	0	0	0	0	0	0	0	0	0	0	0	0	0	0	0	0	0	0	0	0	0	0	0	0	0	0	-1	0	-2.0278	-17.891	16.968	0	0	0	0	0	0	0	0	0	2
5178	51.78	0	0	0	0	0	0	0	0	0	0	0	0	0	0	0	0	0	0	0	0	0	0	0	0	10.989	-10.989	19.033	0	0	0	1	0	0	17.883	2.027	16.961	0	0	0	0	0	0	0	0	0	0	0	0	0	-1	0	-2.0278	-17.891	16.968	0	0	0	0	0	0	0	0	0	2
5179	51.79	0	0	0	0	0	0	10.917	-10.917	18.908	0	0	0	0	0	0	0	0	0	0	0	0	0	0	0	10.989	-10.989	19.033	0	0	0	0	0	0	0	0	0	0	0	0	0	0	0	0	0	0	0	0	0	0	-1	0	-2.0278	-17.891	16.968	0	0	0	0	0	0	0	0	0	2
5180	51.8	0	0	0	0	0	0	0	0	0	0	0	0	0	0	0	0	0	0	0	0	0	0	0	0	10.989	-10.989	19.033	0	0	0	1	0	0	17.883	2.027	16.961	0	0	0	0	0	0	0	0	0	0	0	0	0	0	0	0	0	0	0	0	0	0	0	0	0	0	0	2
5181	51.81	0	0	0	0	0	0	0	0	0	0	0	0	0	0	0	0	0	0	0	0	0	0	0	0	0	0	0	0	0	0	0	0	0	0	0	0	0	0	0	0	0	0	0	0	0	0	0	0	0	-1	0	-2.0278	-17.891	16.968	0	0	0	0	0	0	0	0	0	2
5182	51.82	0	0	0	0	0	0	0	0	0	0	0	0	0	0	0	0	0	0	0	0	0	0	0	0	10.989	-10.989	19.033	0	0	0	0	0	0	0	0	0	0	0	0	0	0	0	0	0	0	0	0	0	1	-1	0	7.5503	-27.469	31.921	0	0	0	0	0	0	0	0	0	2
5183	51.83	0	0	0	0	0	0	0	0	0	0	0	0	0	0	0	0	0	0	0	0	0	0	0	0	10.989	-10.989	19.033	0	0	0	0	0	0	0	0	0	0	0	0	0	0	0	0	0	0	0	0	0	0	-1	0	-2.0278	-17.891	16.968	0	0	0	0	0	0	0	0	0	2
5184	51.84	0	0	0	0	0	0	0	0	0	0	0	0	0	0	0	0	0	0	0	0	0	0	0	0	10.989	-10.989	19.033	0	0	0	1	0	0	17.883	2.027	16.961	0	0	0	0	0	0	0	0	0	0	0	0	0	-1	0	-2.0278	-17.891	16.968	0	0	0	0	0	0	0	0	0	2
5185	51.85	0	0	0	0	0	0	0	0	0	0	0	0	0	0	0	0	0	0	0	0	0	0	0	0	10.989	-10.989	19.033	0	0	0	1	0	0	17.883	2.027	16.961	0	0	0	0	0	0	0	0	0	0	0	0	0	-1	0	-2.0278	-17.891	16.968	0	0	0	0	0	0	0	0	0	2
5186	51.86	0	0	0	0	0	0	0	0	0	0	0	0	0	0	0	0	0	0	0	0	0	0	0	0	10.989	-10.989	19.033	0	0	0	0	0	0	10.991	-10.991	19.037	0	0	0	0	0	0	0	0	0	0	0	0	0	-1	0	-2.0278	-17.891	16.968	0	0	0	0	0	0	0	0	0	2
5187	51.87	0	0	0	0	0	0	0	0	0	0	0	0	0	0	0	0	0	0	0	0	0	0	0	0	10.989	-10.989	19.033	0	0	0	1	0	0	17.883	2.027	16.961	0	0	0	0	0	0	0	0	0	0	0	0	0	-1	0	-2.0278	-17.891	16.968	0	0	0	0	0	0	0	0	0	2
5188	51.88	0	0	0	0	0	0	0	0	0	0	0	0	0	0	0	0	0	0	0	0	0	0	0	0	10.989	-10.989	19.033	0	0	0	0	0	0	0	0	0	0	0	0	0	0	0	0	0	0	0	0	0	0	-1	0	-2.0278	-17.891	16.968	0	0	0	0	0	0	0	0	0	0
5189	51.89	0	0	0	0	0	0	10.917	-10.917	18.908	0	0	0	0	0	0	0	0	0	0	0	0	0	0	0	10.989	-10.989	19.033	0	0	0	1	0	0	17.883	2.027	16.961	0	0	0	0	0	0	0	0	0	0	0	0	0	-1	0	-2.0278	-17.891	16.968	0	0	0	0	0	0	0	0	0	2
5190	51.9	0	0	0	0	0	0	0	0	0	0	0	0	0	0	0	0	0	0	0	0	0	0	0	0	10.989	-10.989	19.033	0	0	0	0	0	0	0	0	0	0	0	0	0	0	0	0	0	0	0	0	0	0	-1	0	-2.0278	-17.891	16.968	0	0	0	0	0	0	0	0	0	2
5191	51.91	0	0	0	0	0	0	0	0	0	0	0	0	0	0	0	0	0	0	0	0	0	0	0	0	10.989	-10.989	19.033	0	0	0	0	0	0	0	0	0	0	0	0	0	0	0	0	0	0	0	0	0	0	-1	0	-2.0278	-17.891	16.968	0	0	0	1	0	0	17.47	2.0148	16.554	2
5192	51.92	0	0	0	0	0	0	0	0	0	0	0	0	0	0	0	0	0	0	0	0	0	0	0	0	10.989	-10.989	19.033	0	0	0	0	0	0	0	0	0	0	0	0	0	0	0	0	0	0	0	0	0	0	-1	0	-2.0278	-17.891	16.968	0	0	0	0	0	0	0	0	0	2
5193	51.93	0	0	0	0	0	0	0	0	0	0	0	0	0	0	0	0	0	0	0	0	0	0	0	0	10.989	-10.989	19.033	0	0	0	1	0	0	17.883	2.027	16.961	0	0	0	0	0	0	0	0	0	0	0	0	0	-1	0	-2.0278	-17.891	16.968	0	0	0	0	0	0	0	0	0	2
5194	51.94	0	0	0	0	0	0	10.917	-10.917	18.908	0	0	0	0	0	0	0	0	0	0	0	0	0	0	0	10.989	-10.989	19.033	0	0	0	1	0	0	17.761	2.1499	16.789	0	0	0	0	0	0	0	0	0	0	0	0	0	-1	0	-2.0278	-17.891	16.968	0	0	0	0	0	0	0	0	0	2
5195	51.95	0	0	0	0	0	0	10.917	-10.917	18.908	0	0	0	0	0	0	0	0	0	0	0	0	0	0	0	10.989	-10.989	19.033	0	0	0	1	0	0	17.883	2.027	16.961	0	0	0	0	0	0	0	0	0	0	0	0	0	0	0	0	0	0	0	0	0	0	0	0	0	0	0	2
5196	51.96	0	0	0	0	0	0	10.917	-10.917	18.908	0	0	0	0	0	0	0	0	0	0	0	0	0	0	0	10.989	-10.989	19.033	0	0	0	0	0	0	0	0	0	0	0	0	0	0	0	0	0	0	0	0	0	1	-1	0	7.5503	-27.469	31.921	0	0	0	0	0	0	0	0	0	2
5197	51.97	0	0	0	0	0	0	0	0	0	0	0	0	0	0	0	0	0	0	0	0	0	0	0	0	0	0	0	0	0	0	1	0	0	17.883	2.027	16.961	0	0	0	0	0	0	0	0	0	0	0	0	0	-1	0	-2.0278	-17.891	16.968	0	0	0	0	0	0	0	0	0	2
5198	51.98	0	0	0	0	0	0	0	0	0	0	0	0	0	0	0	0	0	0	0	0	0	0	0	0	10.989	-10.989	19.033	0	0	0	0	0	0	0	0	0	0	0	0	0	0	0	0	0	0	0	0	0	0	-1	0	-2.0278	-17.891	16.968	0	0	0	0	0	0	0	0	0	2
5199	51.99	0	0	0	0	0	0	0	0	0	0	0	0	0	0	0	0	0	0	0	0	0	0	0	0	10.989	-10.989	19.033	0	0	0	1	0	0	17.883	2.027	16.961	0	0	0	0	0	0	0	0	0	0	0	0	0	-1	0	-2.0278	-17.891	16.968	0	0	0	0	0	0	0	0	0	2
5200	52	0	0	0	0	0	0	0	0	0	0	0	0	0	0	0	0	0	0	0	0	0	0	0	0	10.989	-10.989	19.033	0	0	0	0	0	0	0	0	0	0	0	0	0	0	0	0	0	0	0	0	0	0	-1	0	-2.0278	-17.891	16.968	0	0	0	0	0	0	0	0	0	2
5201	52.01	0	0	0	0	0	0	0	0	0	0	0	0	0	0	0	0	0	0	0	0	0	0	0	0	0	0	0	0	0	0	1	0	0	17.883	2.027	16.961	0	0	0	0	0	0	0	0	0	0	0	0	0	-1	0	-2.0278	-17.891	16.968	0	0	0	1	0	0	17.482	2.0162	16.566	2
5202	52.02	0	0	0	0	0	0	0	0	0	0	0	0	0	0	0	0	0	0	0	0	0	0	0	0	10.989	-10.989	19.033	0	0	0	0	0	0	0	0	0	0	0	0	0	0	0	0	0	0	0	0	0	0	-1	0	-2.0278	-17.891	16.968	0	0	0	0	0	0	0	0	0	2
5203	52.03	0	0	0	0	0	0	0	0	0	0	0	0	0	0	0	0	0	0	0	0	0	0	0	0	10.989	-10.989	19.033	0	0	0	1	0	0	17.883	2.027	16.961	0	0	0	0	0	0	0	0	0	0	0	0	0	-1	0	-2.0278	-17.891	16.968	0	0	0	0	0	0	0	0	0	2
5204	52.04	0	0	0	0	0	0	10.917	-10.917	18.908	0	0	0	0	0	0	0	0	0	0	0	0	0	0	0	10.989	-10.989	19.033	0	0	0	0	0	0	0	0	0	0	0	0	0	0	0	0	0	0	0	0	0	0	-1	0	-2.0278	-17.891	16.968	0	0	0	0	0	0	0	0	0	2
5205	52.05	0	0	0	0	0	0	0	0	0	0	0	0	0	0	0	0	0	0	0	0	0	0	0	0	10.989	-10.989	19.033	0	0	0	0	0	0	0	0	0	0	0	0	0	0	0	0	0	0	0	0	0	0	0	0	10.994	-10.994	19.042	0	0	0	0	0	0	0	0	0	2
5206	52.06	0	0	0	0	0	0	0	0	0	0	0	0	0	0	0	0	0	0	0	0	0	0	0	0	10.989	-10.989	19.033	0	0	0	0	0	0	10.991	-10.991	19.037	0	0	0	0	0	0	0	0	0	0	0	0	0	-1	0	-2.0278	-17.891	16.968	0	0	0	0	0	0	0	0	0	2
5207	52.07	0	0	0	0	0	0	0	0	0	0	0	0	0	0	0	0	0	0	0	0	0	0	0	0	10.989	-10.989	19.033	0	0	0	0	0	0	0	0	0	0	0	0	0	0	0	0	0	0	0	0	0	0	-1	0	-2.0278	-17.891	16.968	0	0	0	0	0	0	0	0	0	2
5208	52.08	0	0	0	0	0	0	0	0	0	0	0	0	0	0	0	0	0	0	0	0	0	0	0	0	10.989	-10.989	19.033	0	0	0	1	0	0	17.883	2.027	16.961	0	0	0	0	0	0	0	0	0	0	0	0	0	-1	0	-2.0278	-17.891	16.968	0	0	0	1	0	0	17.482	2.0162	16.566	2
5209	52.09	0	0	0	0	0	0	0	0	0	0	0	0	0	0	0	0	0	0	0	0	0	0	0	0	10.989	-10.989	19.033	0	0	0	0	0	0	0	0	0	0	0	0	0	0	0	0	0	0	0	0	0	0	-1	0	-2.0278	-17.891	16.968	0	0	0	0	0	0	0	0	0	2
5210	52.1	0	0	0	0	0	0	10.917	-10.917	18.908	0	0	0	0	0	0	0	0	0	0	0	0	0	0	0	0	0	0	0	0	0	1	0	0	17.883	2.027	16.961	0	0	0	0	0	0	0	0	0	0	0	0	0	-1	0	-2.0278	-17.891	16.968	0	0	0	0	0	0	0	0	0	2
5211	52.11	0	0	0	0	0	0	0	0	0	0	0	0	0	0	0	0	0	0	0	0	0	0	0	0	10.989	-10.989	19.033	0	0	0	1	0	0	17.883	2.027	16.961	0	0	0	0	0	0	0	0	0	0	0	0	0	-1	0	-2.0278	-17.891	16.968	0	0	0	0	0	0	0	0	0	2
5212	52.12	0	0	0	0	0	0	0	0	0	0	0	0	0	0	0	0	0	0	0	0	0	0	0	0	10.989	-10.989	19.033	0	0	0	1	0	0	17.883	2.027	16.961	0	0	0	0	0	0	0	0	0	0	0	0	0	-1	0	-2.0278	-17.891	16.968	0	0	0	0	0	0	0	0	0	2
5213	52.13	0	0	0	0	0	0	0	0	0	0	0	0	0	0	0	0	0	0	0	0	0	0	0	0	10.989	-10.989	19.033	0	0	0	1	0	0	17.883	2.027	16.961	0	0	0	0	0	0	0	0	0	0	0	0	0	-1	0	-2.0278	-17.891	16.968	0	0	0	0	0	0	0	0	0	2
5214	52.14	0	0	0	0	0	0	0	0	0	0	0	0	0	0	0	0	0	0	0	0	0	0	0	0	10.989	-10.989	19.033	0	0	0	0	0	0	0	0	0	0	0	0	0	0	0	0	0	0	0	0	0	0	-1	0	-2.0278	-17.891	16.968	0	0	0	0	0	0	0	0	0	0
5215	52.15	0	0	0	0	0	0	0	0	0	0	0	0	0	-1	0	-2.0366	-17.816	16.89	0	0	0	0	0	0	10.989	-10.989	19.033	0	0	0	0	0	0	0	0	0	0	0	0	0	0	0	0	0	0	0	0	0	0	-1	0	-2.0278	-17.891	16.968	0	0	0	0	0	0	0	0	0	2
5216	52.16	0	0	0	0	0	0	0	0	0	0	0	0	0	0	0	0	0	0	0	0	0	0	0	0	10.989	-10.989	19.033	0	0	0	1	0	0	17.883	2.027	16.961	0	0	0	0	0	0	0	0	0	0	0	0	0	-1	0	-2.0278	-17.891	16.968	0	0	0	0	0	0	0	0	0	2
5217	52.17	0	0	0	0	0	0	10.917	-10.917	18.908	0	0	0	0	0	0	0	0	0	0	0	0	0	0	0	0	0	0	0	0	0	0	0	0	0	0	0	0	0	0	0	0	0	0	0	0	0	0	0	0	-1	0	-2.0278	-17.891	16.968	0	0	0	1	0	0	17.47	2.0148	16.554	0
5218	52.18	0	0	0	0	0	0	0	0	0	0	0	0	0	0	0	0	0	0	0	0	0	0	0	0	10.989	-10.989	19.033	0	0	0	1	0	0	17.883	2.027	16.961	0	0	0	0	0	0	10.996	-10.996	19.046	0	0	0	0	-1	0	-2.0278	-17.891	16.968	0	0	0	0	0	0	0	0	0	2
5219	52.19	0	0	0	0	0	0	0	0	0	0	0	0	0	-1	0	-2.0366	-17.816	16.89	0	0	0	0	0	0	10.989	-10.989	19.033	0	0	0	1	0	0	17.883	2.027	16.961	0	0	0	0	0	0	0	0	0	0	0	0	0	-1	0	-2.0278	-17.891	16.968	0	0	0	0	0	0	0	0	0	2
5220	52.2	0	0	0	0	0	0	0	0	0	0	0	0	0	-1	0	-2.0366	-17.816	16.89	0	0	0	0	0	0	10.989	-10.989	19.033	0	0	0	0	0	0	0	0	0	0	0	0	0	0	0	0	0	0	0	0	0	0	0	0	0	0	0	0	0	0	0	0	0	0	0	0	2
5221	52.21	0	0	0	0	0	0	0	0	0	0	0	0	0	0	0	0	0	0	0	0	0	0	0	0	10.989	-10.989	19.033	0	0	0	1	0	0	17.883	2.027	16.961	0	0	0	0	0	0	0	0	0	0	0	0	0	0	0	0	0	0	0	0	0	0	0	0	0	0	0	2
5222	52.22	0	0	0	0	0	0	10.917	-10.917	18.908	0	0	0	0	0	0	0	0	0	0	0	0	0	0	0	10.989	-10.989	19.033	0	0	0	1	0	0	17.883	2.027	16.961	0	0	0	0	0	0	0	0	0	0	0	0	0	-1	0	-2.0278	-17.891	16.968	0	0	0	0	0	0	0	0	0	2
5223	52.23	0	0	0	0	0	0	10.917	-10.917	18.908	0	0	0	0	0	0	0	0	0	0	0	0	0	0	0	10.989	-10.989	19.033	0	0	0	1	0	0	17.883	2.027	16.961	0	0	0	0	0	0	0	0	0	0	0	0	0	0	0	0	0	0	0	0	0	1	0	0	17.47	2.0148	16.554	0
5224	52.24	0	0	0	0	0	0	0	0	0	0	0	0	0	0	0	0	0	0	0	0	0	0	0	0	10.989	-10.989	19.033	0	0	0	1	0	0	17.761	2.1499	16.789	0	0	0	0	0	0	0	0	0	0	0	0	0	-1	0	-2.0278	-17.891	16.968	0	0	0	0	0	0	0	0	0	2
5225	52.25	0	0	0	0	0	0	0	0	0	0	0	0	0	0	0	0	0	0	0	0	0	0	0	0	10.989	-10.989	19.033	0	0	0	0	0	0	0	0	0	0	0	0	0	0	0	0	0	0	0	0	0	0	0	0	10.994	-10.994	19.042	0	0	0	0	0	0	0	0	0	2
5226	52.26	0	0	0	0	0	0	0	0	0	0	0	0	0	0	0	0	0	0	0	0	0	0	0	0	10.989	-10.989	19.033	0	0	0	1	0	0	17.883	2.027	16.961	0	0	0	0	0	0	0	0	0	0	0	0	0	-1	0	-2.0278	-17.891	16.968	0	0	0	0	0	0	0	0	0	2
5227	52.27	0	0	0	0	0	0	0	0	0	0	0	0	0	0	0	0	0	0	0	0	0	0	0	0	10.989	-10.989	19.033	0	0	0	1	0	0	17.883	2.027	16.961	0	0	0	0	0	0	0	0	0	0	0	0	0	-1	0	-2.0278	-17.891	16.968	0	0	0	0	0	0	0	0	0	2
5228	52.28	0	0	0	0	0	0	0	0	0	0	0	0	0	0	0	0	0	0	0	0	0	0	0	0	10.989	-10.989	19.033	0	0	0	1	0	0	17.883	2.027	16.961	0	0	0	0	0	0	0	0	0	0	0	0	0	-1	0	-2.0278	-17.891	16.968	0	0	0	0	0	0	0	0	0	2
5229	52.29	0	0	0	0	0	0	0	0	0	0	0	0	0	0	0	0	0	0	0	0	0	0	0	0	10.989	-10.989	19.033	0	0	0	1	0	0	17.883	2.027	16.961	0	0	0	0	0	0	0	0	0	0	0	0	0	-1	0	-2.0278	-17.891	16.968	0	0	0	0	0	0	0	0	0	2
5230	52.3	0	0	0	0	-1	0	-2.0364	-17.814	16.888	0	0	0	0	-1	0	-2.0366	-17.816	16.89	0	0	0	0	0	0	10.989	-10.989	19.033	0	0	0	0	0	0	0	0	0	0	0	0	0	0	0	0	0	0	0	0	0	0	-1	0	-2.0278	-17.891	16.968	0	0	0	0	0	0	0	0	0	2
5231	52.31	0	0	0	0	0	0	10.917	-10.917	18.908	0	0	0	0	-1	0	-2.0366	-17.816	16.89	0	0	0	0	0	0	10.989	-10.989	19.033	0	0	0	1	0	0	17.883	2.027	16.961	0	0	0	0	0	0	0	0	0	0	0	0	0	-1	0	-2.0278	-17.891	16.968	0	0	0	0	0	0	0	0	0	2
5232	52.32	0	0	0	0	0	0	0	0	0	0	0	0	0	0	0	0	0	0	0	0	0	0	0	0	10.989	-10.989	19.033	0	0	0	1	0	0	17.883	2.027	16.961	0	0	0	0	0	0	0	0	0	0	0	0	0	0	0	0	0	0	0	0	0	0	0	0	0	0	0	2
5233	52.33	0	0	0	0	0	0	0	0	0	0	0	0	0	0	0	0	0	0	0	0	0	0	0	0	10.989	-10.989	19.033	0	0	0	1	0	0	17.883	2.027	16.961	0	0	0	0	0	0	0	0	0	0	0	0	0	-1	0	-2.0278	-17.891	16.968	0	0	0	0	0	0	0	0	0	2
5234	52.34	0	0	0	0	0	0	0	0	0	0	0	0	0	0	0	0	0	0	0	0	0	0	0	0	10.989	-10.989	19.033	0	0	0	1	0	0	17.883	2.027	16.961	0	0	0	0	0	0	0	0	0	0	0	0	0	-1	0	-2.0278	-17.891	16.968	0	0	0	0	0	0	0	0	0	2
5235	52.35	0	0	0	0	0	0	0	0	0	0	0	0	0	-1	0	-2.0366	-17.816	16.89	0	0	0	0	0	0	10.989	-10.989	19.033	0	0	0	0	0	0	0	0	0	0	0	0	0	0	0	0	0	0	0	0	0	0	0	0	0	0	0	0	0	0	0	0	0	0	0	0	2
5236	52.36	0	0	0	0	0	0	0	0	0	0	0	0	0	0	0	0	0	0	0	0	0	0	0	0	10.989	-10.989	19.033	0	0	0	1	0	0	17.883	2.027	16.961	0	0	0	0	0	0	0	0	0	0	0	0	0	-1	0	-2.0278	-17.891	16.968	0	0	0	0	0	0	0	0	0	2
5237	52.37	0	0	0	0	0	0	0	0	0	0	0	0	0	0	0	0	0	0	0	0	0	0	0	0	10.989	-10.989	19.033	0	0	0	1	0	0	17.883	2.027	16.961	0	0	0	0	0	0	0	0	0	0	0	0	1	-1	0	7.5503	-27.469	31.921	0	0	0	0	0	0	0	0	0	2
5238	52.38	0	0	0	0	0	0	0	0	0	0	0	0	0	0	0	0	0	0	0	0	0	0	0	0	10.989	-10.989	19.033	0	0	0	0	0	0	0	0	0	0	0	0	0	0	0	0	0	0	0	0	0	0	-1	0	-2.0278	-17.891	16.968	0	0	0	1	0	0	17.47	2.0148	16.554	2
5239	52.39	0	0	0	0	0	0	10.917	-10.917	18.908	0	0	0	0	0	0	0	0	0	0	0	0	0	0	0	10.989	-10.989	19.033	0	0	0	1	0	0	17.883	2.027	16.961	0	0	0	1	0	0	17.883	2.027	16.961	0	0	0	0	-1	0	-2.0278	-17.891	16.968	0	0	0	0	0	0	0	0	0	2
5240	52.4	0	0	0	0	0	0	0	0	0	0	0	0	0	0	0	0	0	0	0	0	0	0	0	0	10.989	-10.989	19.033	0	0	0	1	0	0	17.883	2.027	16.961	0	0	0	0	0	0	0	0	0	0	0	0	0	-1	0	-2.0278	-17.891	16.968	0	0	0	0	0	0	0	0	0	2
5241	52.41	0	0	0	0	0	0	0	0	0	0	0	0	0	0	0	0	0	0	0	0	0	0	0	0	0	0	0	0	0	0	1	0	0	17.761	2.1499	16.789	0	0	0	0	0	0	0	0	0	0	0	0	0	0	0	0	0	0	0	0	0	0	0	0	0	0	0	2
5242	52.42	0	0	0	0	0	0	0	0	0	0	0	0	0	0	0	0	0	0	0	0	0	0	0	0	0	0	0	0	0	0	1	0	0	17.883	2.027	16.961	0	0	0	0	0	0	0	0	0	0	0	0	0	-1	0	-2.0278	-17.891	16.968	0	0	0	0	0	0	0	0	0	2
5243	52.43	0	0	0	0	0	0	0	0	0	0	0	0	0	0	0	0	0	0	0	0	0	0	0	0	10.989	-10.989	19.033	0	0	0	0	0	0	0	0	0	0	0	0	0	0	0	0	0	0	0	0	0	0	-1	0	-2.0278	-17.891	16.968	0	0	0	0	0	0	0	0	0	0
5244	52.44	0	0	0	0	0	0	0	0	0	0	0	0	0	-1	0	-2.0366	-17.816	16.89	0	0	0	0	0	0	10.989	-10.989	19.033	0	0	0	1	0	0	17.761	2.1499	16.789	0	0	0	0	0	0	0	0	0	0	0	0	0	-1	0	-2.0278	-17.891	16.968	0	0	0	1	0	0	17.47	2.0148	16.554	2
5245	52.45	0	0	0	0	0	0	0	0	0	0	0	0	0	0	0	0	0	0	0	0	0	0	0	0	10.989	-10.989	19.033	0	0	0	0	0	0	0	0	0	0	0	0	0	0	0	0	0	0	0	0	0	0	-1	0	-2.0278	-17.891	16.968	0	0	0	0	0	0	0	0	0	2
5246	52.46	0	0	0	0	0	0	0	0	0	0	0	0	0	0	0	0	0	0	0	0	0	0	0	0	10.989	-10.989	19.033	0	0	0	0	0	0	10.991	-10.991	19.037	0	0	0	0	0	0	0	0	0	0	0	0	0	0	0	0	0	0	0	0	0	0	0	0	0	0	0	2
5247	52.47	0	0	0	0	0	0	0	0	0	0	0	0	0	0	0	0	0	0	0	0	0	0	0	0	10.989	-10.989	19.033	0	0	0	1	0	0	17.883	2.027	16.961	0	0	0	0	0	0	0	0	0	0	0	0	0	-1	0	-2.0278	-17.891	16.968	0	0	0	0	0	0	0	0	0	2
5248	52.48	0	0	0	0	0	0	0	0	0	0	0	0	0	0	0	0	0	0	0	0	0	0	0	0	10.989	-10.989	19.033	0	0	0	1	0	0	17.883	2.027	16.961	0	0	0	0	0	0	0	0	0	0	0	0	0	-1	0	-2.0278	-17.891	16.968	0	0	0	0	0	0	0	0	0	2
5249	52.49	0	0	0	0	0	0	0	0	0	0	0	0	0	0	0	0	0	0	0	0	0	0	0	0	10.989	-10.989	19.033	0	0	0	1	0	0	17.883	2.027	16.961	0	0	0	0	0	0	0	0	0	0	0	0	0	-1	0	-2.0278	-17.891	16.968	0	0	0	0	0	0	0	0	0	2
5250	52.5	0	0	0	0	0	0	0	0	0	0	0	0	0	0	0	0	0	0	0	0	0	0	0	0	10.989	-10.989	19.033	0	0	0	0	0	0	0	0	0	0	0	0	0	0	0	0	0	0	0	0	0	0	-1	0	-2.0278	-17.891	16.968	0	0	0	0	0	0	0	0	0	2
5251	52.51	0	0	0	0	0	0	0	0	0	0	0	0	0	-1	0	-2.0366	-17.816	16.89	0	0	0	0	0	0	10.989	-10.989	19.033	0	0	0	1	0	0	17.883	2.027	16.961	0	0	0	1	0	0	17.883	2.027	16.961	0	0	0	0	-1	0	-2.0278	-17.891	16.968	0	0	0	0	0	0	0	0	0	2
5252	52.52	0	0	0	0	0	0	0	0	0	0	0	0	0	-1	0	-2.0366	-17.816	16.89	0	0	0	0	0	0	10.989	-10.989	19.033	0	0	0	1	0	0	17.761	2.1499	16.789	0	0	0	0	0	0	0	0	0	0	0	0	0	-1	0	-2.0278	-17.891	16.968	0	0	0	0	0	0	0	0	0	2
5253	52.53	0	0	0	0	0	0	0	0	0	0	0	0	0	0	0	0	0	0	0	0	0	0	0	0	10.989	-10.989	19.033	0	0	0	1	0	0	17.883	2.027	16.961	0	0	0	0	0	0	0	0	0	0	0	0	0	-1	0	-2.0278	-17.891	16.968	0	0	0	0	0	0	0	0	0	2
5254	52.54	0	0	0	0	0	0	10.917	-10.917	18.908	0	0	0	0	0	0	0	0	0	0	0	0	0	0	0	10.989	-10.989	19.033	0	0	0	1	0	0	17.883	2.027	16.961	0	0	0	0	0	0	0	0	0	0	0	0	0	-1	0	-2.0278	-17.891	16.968	0	0	0	0	0	0	0	0	0	2
5255	52.55	0	0	0	0	0	0	0	0	0	0	0	0	0	0	0	0	0	0	0	0	0	0	0	0	10.989	-10.989	19.033	0	0	0	0	0	0	0	0	0	0	0	0	0	0	0	0	0	0	0	0	0	0	-1	0	-2.0278	-17.891	16.968	0	0	0	0	0	0	0	0	0	2
5256	52.56	0	0	0	0	0	0	0	0	0	0	0	0	0	0	0	0	0	0	0	0	0	0	0	0	10.989	-10.989	19.033	0	0	0	1	0	0	17.883	2.027	16.961	0	0	0	0	0	0	0	0	0	0	0	0	0	-1	0	-2.0278	-17.891	16.968	0	0	0	0	0	0	0	0	0	2
5257	52.57	0	0	0	0	0	0	0	0	0	0	0	0	0	0	0	0	0	0	0	0	0	0	0	0	10.989	-10.989	19.033	0	0	0	0	0	0	0	0	0	0	0	0	0	0	0	0	0	0	0	0	0	0	-1	0	-2.0278	-17.891	16.968	0	0	0	0	0	0	0	0	0	2
5258	52.58	0	0	0	0	0	0	0	0	0	0	0	0	0	0	0	0	0	0	0	0	0	0	0	0	10.989	-10.989	19.033	0	0	0	1	0	0	17.883	2.027	16.961	0	0	0	0	0	0	0	0	0	0	0	0	0	-1	0	-2.0278	-17.891	16.968	0	0	0	0	0	0	0	0	0	2
5259	52.59	0	0	0	0	0	0	10.917	-10.917	18.908	0	0	0	0	0	0	0	0	0	0	0	0	0	0	0	10.989	-10.989	19.033	0	0	0	1	0	0	17.883	2.027	16.961	0	0	0	0	0	0	0	0	0	0	0	0	0	-1	0	-2.0278	-17.891	16.968	0	0	0	0	0	0	0	0	0	2
5260	52.6	0	0	0	0	0	0	0	0	0	0	0	0	0	-1	0	-2.0366	-17.816	16.89	0	0	0	0	0	0	10.989	-10.989	19.033	0	0	0	0	0	0	0	0	0	0	0	0	0	0	0	0	0	0	0	0	0	0	-1	0	-2.0278	-17.891	16.968	0	0	0	0	0	0	0	0	0	2
5261	52.61	0	0	0	0	0	0	10.917	-10.917	18.908	0	0	0	0	0	0	0	0	0	0	0	0	0	0	0	10.989	-10.989	19.033	0	0	0	1	0	0	17.883	2.027	16.961	0	0	0	0	0	0	0	0	0	0	0	0	0	-1	0	-2.0278	-17.891	16.968	0	0	0	0	0	0	0	0	0	2
5262	52.62	0	0	0	0	0	0	0	0	0	0	0	0	0	0	0	0	0	0	0	0	0	0	0	0	10.989	-10.989	19.033	0	0	0	1	0	0	17.883	2.027	16.961	0	0	0	0	0	0	0	0	0	0	0	0	1	-1	0	7.5503	-27.469	31.921	0	0	0	0	0	0	0	0	0	2
5263	52.63	0	0	0	0	0	0	0	0	0	0	0	0	0	-1	0	-2.0366	-17.816	16.89	0	0	0	0	0	0	10.989	-10.989	19.033	0	0	0	1	0	0	17.883	2.027	16.961	0	0	0	0	0	0	0	0	0	0	0	0	0	-1	0	-2.0278	-17.891	16.968	0	0	0	0	0	0	0	0	0	2
5264	52.64	0	0	0	0	0	0	0	0	0	0	0	0	0	0	0	0	0	0	0	0	0	0	0	0	10.989	-10.989	19.033	0	0	0	1	0	0	17.761	2.1499	16.789	0	0	0	0	0	0	0	0	0	0	0	0	0	-1	0	-2.0278	-17.891	16.968	0	0	0	0	0	0	0	0	0	0
5265	52.65	0	0	0	0	0	0	0	0	0	0	0	0	0	0	0	0	0	0	0	0	0	0	0	0	10.989	-10.989	19.033	0	0	0	0	0	0	0	0	0	0	0	0	0	0	0	0	0	0	0	0	0	0	-1	0	-2.0278	-17.891	16.968	0	0	0	0	0	0	0	0	0	2
5266	52.66	0	0	0	0	0	0	0	0	0	0	0	0	0	0	0	0	0	0	0	0	0	0	0	0	10.989	-10.989	19.033	0	0	0	0	0	0	0	0	0	0	0	0	0	0	0	0	0	0	0	0	0	0	-1	0	-2.0278	-17.891	16.968	0	0	0	1	0	0	17.471	2.0135	16.556	2
5267	52.67	0	0	0	0	0	0	0	0	0	0	0	0	0	0	0	0	0	0	0	0	0	0	0	0	10.989	-10.989	19.033	0	0	0	1	0	0	17.883	2.027	16.961	0	0	0	0	0	0	0	0	0	0	0	0	0	-1	0	-2.0278	-17.891	16.968	0	0	0	0	0	0	0	0	0	2
5268	52.68	0	0	0	0	0	0	0	0	0	0	0	0	0	0	0	0	0	0	0	0	0	0	0	0	10.989	-10.989	19.033	0	0	0	1	0	0	17.883	2.027	16.961	0	0	0	0	0	0	0	0	0	0	0	0	0	-1	0	-2.0278	-17.891	16.968	0	0	0	0	0	0	0	0	0	2
5269	52.69	0	0	0	0	0	0	0	0	0	0	0	0	0	0	0	0	0	0	0	0	0	0	0	0	10.989	-10.989	19.033	0	0	0	0	0	0	0	0	0	0	0	0	0	0	0	0	0	0	0	0	0	0	-1	0	-2.0278	-17.891	16.968	0	0	0	0	0	0	0	0	0	2
5270	52.7	0	0	0	0	0	0	10.917	-10.917	18.908	0	0	0	0	0	0	0	0	0	0	0	0	0	0	0	10.989	-10.989	19.033	0	0	0	1	0	0	17.883	2.027	16.961	0	0	0	0	0	0	0	0	0	0	0	0	0	-1	0	-2.0278	-17.891	16.968	0	0	0	0	0	0	0	0	0	2
5271	52.71	0	0	0	0	0	0	0	0	0	0	0	0	0	0	0	0	0	0	0	0	0	0	0	0	10.989	-10.989	19.033	0	0	0	1	0	0	17.761	2.1499	16.789	0	0	0	0	0	0	0	0	0	0	0	0	0	-1	0	-2.0278	-17.891	16.968	0	0	0	0	0	0	0	0	0	2
5272	52.72	0	0	0	0	0	0	10.917	-10.917	18.908	0	0	0	0	0	0	0	0	0	0	0	0	0	0	0	10.989	-10.989	19.033	0	0	0	1	0	0	17.883	2.027	16.961	0	0	0	0	0	0	0	0	0	0	0	0	0	-1	0	-2.0278	-17.891	16.968	0	0	0	0	0	0	0	0	0	2
5273	52.73	0	0	0	0	0	0	10.917	-10.917	18.908	0	0	0	0	0	0	0	0	0	0	0	0	0	0	0	10.989	-10.989	19.033	0	0	0	1	0	0	17.883	2.027	16.961	0	0	0	0	0	0	0	0	0	0	0	0	0	-1	0	-2.0278	-17.891	16.968	0	0	0	0	0	0	0	0	0	2
5274	52.74	0	0	0	0	0	0	0	0	0	0	0	0	0	0	0	0	0	0	0	0	0	0	0	0	10.989	-10.989	19.033	0	0	0	1	0	0	17.883	2.027	16.961	0	0	0	0	0	0	0	0	0	0	0	0	0	-1	0	-2.0278	-17.891	16.968	0	0	0	1	0	0	17.47	2.0148	16.554	2
5275	52.75	0	0	0	0	0	0	0	0	0	0	0	0	0	0	0	0	0	0	0	0	0	0	0	0	10.989	-10.989	19.033	0	0	0	0	0	0	0	0	0	0	0	0	0	0	0	0	0	0	0	0	0	0	0	0	0	0	0	0	0	0	0	0	0	0	0	0	2
5276	52.76	0	0	0	0	0	0	0	0	0	0	0	0	0	0	0	0	0	0	0	0	0	0	0	0	10.989	-10.989	19.033	0	0	0	1	0	0	17.883	2.027	16.961	0	0	0	0	0	0	0	0	0	0	0	0	1	-1	0	7.5503	-27.469	31.921	0	0	0	1	0	0	17.47	2.0148	16.554	2
5277	52.77	0	0	0	0	0	0	0	0	0	0	0	0	0	0	0	0	0	0	0	0	0	0	0	0	10.989	-10.989	19.033	0	0	0	1	0	0	17.883	2.027	16.961	0	0	0	0	0	0	0	0	0	0	0	0	0	-1	0	-2.0278	-17.891	16.968	0	0	0	0	0	0	0	0	0	2
5278	52.78	0	0	0	0	0	0	10.917	-10.917	18.908	0	0	0	0	0	0	0	0	0	0	0	0	0	0	0	0	0	0	0	0	0	0	0	0	0	0	0	0	0	0	0	0	0	0	0	0	0	0	0	0	-1	0	-2.0278	-17.891	16.968	0	0	0	0	0	0	0	0	0	2
5279	52.79	0	0	0	0	0	0	0	0	0	0	0	0	0	0	0	0	0	0	0	0	0	0	0	0	10.989	-10.989	19.033	0	0	0	1	0	0	17.883	2.027	16.961	0	0	0	0	0	0	0	0	0	0	0	0	0	-1	0	-2.0278	-17.891	16.968	0	0	0	1	0	0	17.47	2.0148	16.554	2
5280	52.8	0	0	0	0	0	0	0	0	0	0	0	0	0	0	0	0	0	0	0	0	0	1	-1	0	7.5473	-27.454	31.904	0	0	0	1	0	0	17.883	2.027	16.961	0	0	0	0	0	0	0	0	0	0	0	0	0	-1	0	-2.0278	-17.891	16.968	0	0	0	0	0	0	0	0	0	2
5281	52.81	0	0	0	0	0	0	0	0	0	0	0	0	0	0	0	0	0	0	0	0	0	0	0	0	10.989	-10.989	19.033	0	0	0	1	0	0	17.883	2.027	16.961	0	0	0	0	0	0	0	0	0	0	0	0	0	-1	0	-2.0278	-17.891	16.968	0	0	0	0	0	0	0	0	0	0
5282	52.82	0	0	0	0	0	0	0	0	0	0	0	0	0	0	0	0	0	0	0	0	0	0	0	0	10.989	-10.989	19.033	0	0	0	1	0	0	17.883	2.027	16.961	0	0	0	0	0	0	10.996	-10.996	19.046	0	0	0	0	-1	0	-2.0278	-17.891	16.968	0	0	0	0	0	0	0	0	0	2
5283	52.83	0	0	0	0	0	0	0	0	0	0	0	0	0	-1	0	-2.0366	-17.816	16.89	0	0	0	0	0	0	10.989	-10.989	19.033	0	0	0	1	0	0	17.883	2.027	16.961	0	0	0	0	0	0	0	0	0	0	0	0	0	-1	0	-2.0278	-17.891	16.968	0	0	0	0	0	0	0	0	0	2
5284	52.84	0	0	0	0	0	0	10.917	-10.917	18.908	0	0	0	0	0	0	0	0	0	0	0	0	0	0	0	10.989	-10.989	19.033	0	0	0	1	0	0	17.883	2.027	16.961	0	0	0	0	0	0	0	0	0	0	0	0	0	0	0	0	0	0	0	0	0	0	0	0	0	0	0	2
5285	52.85	0	0	0	0	0	0	0	0	0	0	0	0	0	0	0	0	0	0	0	0	0	0	0	0	10.989	-10.989	19.033	0	0	0	1	0	0	17.883	2.027	16.961	0	0	0	0	0	0	0	0	0	0	0	0	0	-1	0	-2.0278	-17.891	16.968	0	0	0	0	0	0	0	0	0	2
5286	52.86	0	0	0	0	0	0	0	0	0	0	0	0	0	0	0	0	0	0	0	0	0	0	0	0	10.989	-10.989	19.033	0	0	0	1	0	0	17.883	2.027	16.961	0	0	0	0	0	0	0	0	0	0	0	0	0	0	0	10.994	-10.994	19.042	0	0	0	1	0	0	17.47	2.0148	16.554	2
5287	52.87	0	0	0	0	0	0	10.917	-10.917	18.908	0	0	0	0	0	0	0	0	0	0	0	0	0	0	0	10.989	-10.989	19.033	0	0	0	1	0	0	17.883	2.027	16.961	0	0	0	0	0	0	0	0	0	0	0	0	0	-1	0	-2.0278	-17.891	16.968	0	0	0	0	0	0	10.93	-10.93	18.931	2
5288	52.88	0	0	0	0	0	0	0	0	0	0	0	0	0	-1	0	-2.0366	-17.816	16.89	0	0	0	0	0	0	10.989	-10.989	19.033	0	0	0	1	0	0	17.883	2.027	16.961	0	0	0	0	0	0	0	0	0	0	0	0	0	0	0	0	0	0	0	0	0	0	0	0	0	0	0	2
5289	52.89	0	0	0	0	0	0	0	0	0	0	0	0	0	0	0	0	0	0	0	0	0	0	0	0	10.989	-10.989	19.033	0	0	0	1	0	0	17.883	2.027	16.961	0	0	0	0	0	0	0	0	0	0	0	0	0	-1	0	-2.0278	-17.891	16.968	0	0	0	0	0	0	0	0	0	2
5290	52.9	0	0	0	0	0	0	0	0	0	0	0	0	0	0	0	0	0	0	0	0	0	0	0	0	10.989	-10.989	19.033	0	0	0	0	0	0	0	0	0	0	0	0	0	0	0	0	0	0	0	0	0	1	-1	0	7.5503	-27.469	31.921	0	0	0	0	0	0	0	0	0	2
5291	52.91	0	0	0	0	0	0	0	0	0	0	0	0	0	0	0	0	0	0	0	0	0	0	0	0	10.989	-10.989	19.033	0	0	0	1	0	0	17.883	2.027	16.961	0	0	0	0	0	0	0	0	0	0	0	0	0	0	0	0	0	0	0	0	0	1	0	0	17.47	2.0148	16.554	2
5292	52.92	0	0	0	0	0	0	0	0	0	0	0	0	0	0	0	0	0	0	0	0	0	0	0	0	10.989	-10.989	19.033	0	0	0	1	0	0	17.883	2.027	16.961	0	0	0	0	0	0	0	0	0	0	0	0	0	0	0	0	0	0	0	0	0	0	0	0	0	0	0	2
5293	52.93	0	0	0	0	0	0	0	0	0	0	0	0	0	0	0	0	0	0	0	0	0	0	0	0	10.989	-10.989	19.033	0	0	0	0	0	0	0	0	0	0	0	0	0	0	0	0	0	0	0	0	0	0	-1	0	-2.0278	-17.891	16.968	0	0	0	0	0	0	0	0	0	2
5294	52.94	0	0	0	0	0	0	0	0	0	0	0	0	0	0	0	0	0	0	0	0	0	0	0	0	10.989	-10.989	19.033	0	0	0	1	0	0	17.883	2.027	16.961	0	0	0	0	0	0	0	0	0	0	0	0	0	0	0	10.994	-10.994	19.042	0	0	0	0	0	0	0	0	0	2
5295	52.95	0	0	0	0	0	0	0	0	0	0	0	0	0	0	0	0	0	0	0	0	0	0	0	0	10.989	-10.989	19.033	0	0	0	0	0	0	0	0	0	0	0	0	0	0	0	10.996	-10.996	19.046	0	0	0	0	-1	0	-2.0278	-17.891	16.968	0	0	0	0	0	0	0	0	0	2
5296	52.96	0	0	0	0	0	0	0	0	0	0	0	0	0	0	0	0	0	0	0	0	0	0	0	0	10.989	-10.989	19.033	0	0	0	1	0	0	17.883	2.027	16.961	0	0	0	0	0	0	0	0	0	0	0	0	0	-1	0	-2.0278	-17.891	16.968	0	0	0	0	0	0	0	0	0	2
5297	52.97	0	0	0	0	0	0	0	0	0	0	0	0	0	0	0	0	0	0	0	0	0	0	0	0	0	0	0	0	0	0	1	0	0	17.883	2.027	16.961	0	0	0	0	0	0	0	0	0	0	0	0	0	-1	0	-2.0278	-17.891	16.968	0	0	0	0	0	0	0	0	0	2
5298	52.98	0	0	0	0	0	0	10.917	-10.917	18.908	0	0	0	0	0	0	0	0	0	0	0	0	0	0	0	10.989	-10.989	19.033	0	0	0	0	0	0	0	0	0	0	0	0	0	0	0	0	0	0	0	0	0	0	-1	0	-2.0278	-17.891	16.968	0	0	0	0	0	0	0	0	0	2
5299	52.99	0	0	0	0	0	0	0	0	0	0	0	0	0	-1	0	-2.0366	-17.816	16.89	0	0	0	0	0	0	10.989	-10.989	19.033	0	0	0	1	0	0	17.883	2.027	16.961	0	0	0	0	0	0	0	0	0	0	0	0	0	-1	0	-2.0278	-17.891	16.968	0	0	0	1	0	0	17.47	2.0148	16.554	2
5300	53	0	0	0	0	0	0	0	0	0	0	0	0	0	0	0	0	0	0	0	0	0	0	0	0	10.989	-10.989	19.033	0	0	0	1	0	0	17.883	2.027	16.961	0	0	0	0	0	0	0	0	0	0	0	0	0	-1	0	-2.0278	-17.891	16.968	0	0	0	0	0	0	0	0	0	2
5301	53.01	0	0	0	0	0	0	0	0	0	0	0	0	0	0	0	0	0	0	0	0	0	0	0	0	10.989	-10.989	19.033	0	0	0	1	0	0	17.883	2.027	16.961	0	0	0	0	0	0	0	0	0	0	0	0	0	0	0	0	0	0	0	0	0	0	0	0	0	0	0	2
5302	53.02	0	0	0	0	0	0	0	0	0	0	0	0	0	0	0	0	0	0	0	0	0	0	0	0	10.989	-10.989	19.033	0	0	0	0	0	0	0	0	0	0	0	0	0	0	0	0	0	0	0	0	0	0	-1	0	-2.0278	-17.891	16.968	0	0	0	0	0	0	0	0	0	2
5303	53.03	0	0	0	0	0	0	0	0	0	0	0	0	0	0	0	0	0	0	0	0	0	0	0	0	10.989	-10.989	19.033	0	0	0	1	0	0	17.883	2.027	16.961	0	0	0	0	0	0	0	0	0	0	0	0	0	-1	0	-2.0278	-17.891	16.968	0	0	0	1	0	0	17.482	2.0162	16.566	2
5304	53.04	0	0	0	0	0	0	0	0	0	0	0	0	0	0	0	0	0	0	0	0	0	0	0	0	10.989	-10.989	19.033	0	0	0	1	0	0	17.883	2.027	16.961	0	0	0	0	0	0	0	0	0	0	0	0	0	-1	0	-2.0278	-17.891	16.968	0	0	0	0	0	0	0	0	0	2
5305	53.05	0	0	0	0	0	0	0	0	0	0	0	0	0	0	0	0	0	0	0	0	0	0	0	0	10.989	-10.989	19.033	0	0	0	1	0	0	17.883	2.027	16.961	0	0	0	0	0	0	0	0	0	0	0	0	0	-1	0	-2.0278	-17.891	16.968	0	0	0	0	0	0	0	0	0	2
5306	53.06	0	0	0	0	0	0	10.917	-10.917	18.908	0	0	0	0	0	0	0	0	0	0	0	0	0	0	0	10.989	-10.989	19.033	0	0	0	1	0	0	17.883	2.027	16.961	0	0	0	0	0	0	0	0	0	0	0	0	0	-1	0	-2.0278	-17.891	16.968	0	0	0	0	0	0	0	0	0	2
5307	53.07	0	0	0	0	0	0	0	0	0	0	0	0	0	0	0	0	0	0	0	0	0	0	0	0	10.989	-10.989	19.033	0	0	0	0	0	0	0	0	0	0	0	0	0	0	0	0	0	0	0	0	0	0	-1	0	-2.0278	-17.891	16.968	0	0	0	0	0	0	0	0	0	2
5308	53.08	0	0	0	0	0	0	0	0	0	0	0	0	0	0	0	0	0	0	0	0	0	0	0	0	10.989	-10.989	19.033	0	0	0	1	0	0	17.883	2.027	16.961	0	0	0	0	0	0	0	0	0	0	0	0	0	-1	0	-2.0278	-17.891	16.968	0	0	0	0	0	0	0	0	0	2
5309	53.09	0	0	0	0	0	0	0	0	0	0	0	0	0	0	0	0	0	0	0	0	0	0	0	0	10.989	-10.989	19.033	0	0	0	0	0	0	0	0	0	0	0	0	0	0	0	0	0	0	0	0	0	0	-1	0	-2.0278	-17.891	16.968	0	0	0	0	0	0	0	0	0	2
5310	53.1	0	0	0	0	0	0	0	0	0	0	0	0	0	0	0	0	0	0	0	0	0	0	0	0	10.989	-10.989	19.033	0	0	0	1	0	0	17.883	2.027	16.961	0	0	0	0	0	0	0	0	0	0	0	0	0	-1	0	-2.0278	-17.891	16.968	0	0	0	0	0	0	0	0	0	2
5311	53.11	0	0	0	0	0	0	0	0	0	0	0	0	0	0	0	0	0	0	0	0	0	0	0	0	10.989	-10.989	19.033	0	0	0	1	0	0	17.883	2.027	16.961	0	0	0	0	0	0	0	0	0	0	0	0	0	-1	0	-2.0278	-17.891	16.968	0	0	0	1	0	0	17.47	2.0148	16.554	2
5312	53.12	0	0	0	0	0	0	0	0	0	0	0	0	0	0	0	0	0	0	0	0	0	0	0	0	10.989	-10.989	19.033	0	0	0	0	0	0	0	0	0	0	0	0	0	0	0	0	0	0	0	0	0	0	-1	0	-2.0278	-17.891	16.968	0	0	0	0	0	0	0	0	0	2
5313	53.13	0	0	0	0	0	0	0	0	0	0	0	0	0	-1	0	-2.0366	-17.816	16.89	0	0	0	0	0	0	10.989	-10.989	19.033	0	0	0	1	0	0	17.883	2.027	16.961	0	0	0	0	0	0	0	0	0	0	0	0	0	-1	0	-2.0278	-17.891	16.968	0	0	0	0	0	0	0	0	0	2
5314	53.14	0	0	0	0	0	0	0	0	0	0	0	0	0	0	0	0	0	0	0	0	0	1	0	0	17.755	2.1475	16.785	0	0	0	1	0	0	17.883	2.027	16.961	0	0	0	0	0	0	0	0	0	0	0	0	0	-1	0	-2.0278	-17.891	16.968	0	0	0	1	0	0	17.47	2.0148	16.554	2
5315	53.15	0	0	0	0	0	0	0	0	0	0	0	0	0	-1	0	-2.0366	-17.816	16.89	0	0	0	0	0	0	10.989	-10.989	19.033	0	0	0	0	0	0	0	0	0	0	0	0	0	0	0	0	0	0	0	0	0	0	-1	0	-2.0278	-17.891	16.968	0	0	0	0	0	0	0	0	0	2
5316	53.16	0	0	0	0	0	0	0	0	0	0	0	0	0	0	0	0	0	0	0	0	0	0	0	0	10.989	-10.989	19.033	0	0	0	1	0	0	17.883	2.027	16.961	0	0	0	0	0	0	0	0	0	0	0	0	0	-1	0	-2.0278	-17.891	16.968	0	0	0	1	0	0	17.47	2.0148	16.554	2
5317	53.17	0	0	0	0	0	0	0	0	0	0	0	0	0	0	0	0	0	0	0	0	0	0	0	0	10.989	-10.989	19.033	0	0	0	0	0	0	0	0	0	0	0	0	0	0	0	0	0	0	0	0	0	0	-1	0	-2.0278	-17.891	16.968	0	0	0	0	0	0	0	0	0	2
5318	53.18	0	0	0	0	0	0	0	0	0	0	0	0	0	0	0	0	0	0	0	0	0	0	0	0	10.989	-10.989	19.033	0	0	0	1	0	0	17.883	2.027	16.961	0	0	0	0	0	0	0	0	0	0	0	0	0	-1	0	-2.0278	-17.891	16.968	0	0	0	0	0	0	0	0	0	2
5319	53.19	0	0	0	0	0	0	10.917	-10.917	18.908	0	0	0	0	0	0	0	0	0	0	0	0	0	0	0	10.989	-10.989	19.033	0	0	0	0	0	0	0	0	0	0	0	0	0	0	0	0	0	0	0	0	0	0	-1	0	-2.0278	-17.891	16.968	0	0	0	1	0	0	17.47	2.0148	16.554	2
5320	53.2	0	0	0	0	0	0	0	0	0	0	0	0	0	0	0	0	0	0	0	0	0	0	0	0	10.989	-10.989	19.033	0	0	0	0	0	0	0	0	0	0	0	0	0	0	0	0	0	0	0	0	0	0	-1	0	-2.0278	-17.891	16.968	0	0	0	0	0	0	0	0	0	2
5321	53.21	0	0	0	0	0	0	10.917	-10.917	18.908	0	0	0	0	-1	0	-2.0366	-17.816	16.89	0	0	0	0	0	0	10.989	-10.989	19.033	0	0	0	1	0	0	17.883	2.027	16.961	0	0	0	0	0	0	0	0	0	0	0	0	0	0	0	0	0	0	0	0	0	0	0	0	0	0	0	2
5322	53.22	0	0	0	0	0	0	0	0	0	0	0	0	0	0	0	0	0	0	0	0	0	0	0	0	10.989	-10.989	19.033	0	0	0	1	0	0	17.883	2.027	16.961	0	0	0	0	0	0	0	0	0	0	0	0	0	-1	0	-2.0278	-17.891	16.968	0	0	0	0	0	0	0	0	0	2
5323	53.23	0	0	0	0	0	0	0	0	0	0	0	0	0	0	0	0	0	0	0	0	0	0	0	0	10.989	-10.989	19.033	0	0	0	0	0	0	0	0	0	0	0	0	0	0	0	0	0	0	0	0	0	0	-1	0	-2.0278	-17.891	16.968	0	0	0	0	0	0	0	0	0	2
5324	53.24	0	0	0	0	0	0	10.917	-10.917	18.908	0	0	0	0	0	0	0	0	0	0	0	0	0	0	0	10.989	-10.989	19.033	0	0	0	1	0	0	17.883	2.027	16.961	0	0	0	0	0	0	0	0	0	0	0	0	0	-1	0	-2.0278	-17.891	16.968	0	0	0	0	0	0	0	0	0	2
5325	53.25	0	0	0	0	0	0	0	0	0	0	0	0	0	0	0	0	0	0	0	0	0	0	0	0	10.989	-10.989	19.033	0	0	0	0	0	0	0	0	0	0	0	0	0	0	0	0	0	0	0	0	0	0	-1	0	-2.0278	-17.891	16.968	0	0	0	0	0	0	0	0	0	2
5326	53.26	0	0	0	0	0	0	0	0	0	0	0	0	0	0	0	0	0	0	0	0	0	0	0	0	10.989	-10.989	19.033	0	0	0	1	0	0	17.883	2.027	16.961	0	0	0	0	0	0	0	0	0	0	0	0	0	-1	0	-2.0278	-17.891	16.968	0	0	0	0	0	0	0	0	0	2
5327	53.27	0	0	0	0	0	0	0	0	0	0	0	0	0	0	0	0	0	0	0	0	0	0	0	0	0	0	0	0	0	0	0	0	0	0	0	0	0	0	0	0	0	0	0	0	0	0	0	0	0	0	0	0	0	0	0	0	0	0	0	0	0	0	0	2
5328	53.28	0	0	0	0	0	0	0	0	0	0	0	0	0	0	0	0	0	0	0	0	0	0	0	0	10.989	-10.989	19.033	0	0	0	0	0	0	0	0	0	0	0	0	0	0	0	0	0	0	0	0	0	0	-1	0	-2.0278	-17.891	16.968	0	0	0	0	0	0	0	0	0	2
5329	53.29	0	0	0	0	0	0	0	0	0	0	0	0	0	0	0	0	0	0	0	0	0	0	0	0	10.989	-10.989	19.033	0	0	0	1	0	0	17.883	2.027	16.961	0	0	0	0	0	0	0	0	0	0	0	0	0	-1	0	-2.0278	-17.891	16.968	0	0	0	0	0	0	0	0	0	2
5330	53.3	0	0	0	0	0	0	0	0	0	0	0	0	0	-1	0	-2.0366	-17.816	16.89	0	0	0	0	0	0	10.989	-10.989	19.033	0	0	0	0	0	0	0	0	0	0	0	0	0	0	0	0	0	0	0	0	0	0	-1	0	-2.0278	-17.891	16.968	0	0	0	0	0	0	0	0	0	2
5331	53.31	0	0	0	0	0	0	0	0	0	0	0	0	0	0	0	0	0	0	0	0	0	0	0	0	10.989	-10.989	19.033	0	0	0	1	0	0	17.883	2.027	16.961	0	0	0	0	0	0	0	0	0	0	0	0	0	0	0	0	0	0	0	0	0	1	0	0	17.482	2.0162	16.566	2
5332	53.32	0	0	0	0	0	0	0	0	0	0	0	0	0	0	0	0	0	0	0	0	0	0	0	0	10.989	-10.989	19.033	0	0	0	1	0	0	17.883	2.027	16.961	0	0	0	0	0	0	0	0	0	0	0	0	0	-1	0	-2.0278	-17.891	16.968	0	0	0	0	0	0	0	0	0	2
5333	53.33	0	0	0	0	0	0	0	0	0	0	0	0	0	0	0	0	0	0	0	0	0	0	0	0	10.989	-10.989	19.033	0	0	0	1	0	0	17.883	2.027	16.961	0	0	0	0	0	0	0	0	0	0	0	0	1	-1	0	7.5503	-27.469	31.921	0	0	0	1	0	0	17.482	2.0162	16.566	2
5334	53.34	0	0	0	0	0	0	0	0	0	0	0	0	0	0	0	0	0	0	0	0	0	0	0	0	10.989	-10.989	19.033	0	0	0	0	0	0	0	0	0	0	0	0	0	0	0	0	0	0	0	0	0	0	-1	0	-2.0278	-17.891	16.968	0	0	0	0	0	0	0	0	0	2
5335	53.35	0	0	0	0	0	0	0	0	0	0	0	0	0	-1	0	-2.0366	-17.816	16.89	0	0	0	0	0	0	10.989	-10.989	19.033	0	0	0	1	0	0	17.883	2.027	16.961	0	0	0	0	0	0	0	0	0	0	0	0	0	0	0	0	0	0	0	0	0	0	0	0	0	0	0	2
5336	53.36	0	0	0	0	0	0	0	0	0	0	0	0	0	0	0	0	0	0	0	0	0	0	0	0	10.989	-10.989	19.033	0	0	0	1	0	0	17.883	2.027	16.961	0	0	0	0	0	0	0	0	0	0	0	0	0	-1	0	-2.0278	-17.891	16.968	0	0	0	0	0	0	0	0	0	2
5337	53.37	0	0	0	0	0	0	0	0	0	0	0	0	0	0	0	0	0	0	0	0	0	0	0	0	10.989	-10.989	19.033	0	0	0	1	0	0	17.883	2.027	16.961	0	0	0	0	0	0	0	0	0	0	0	0	0	0	0	0	0	0	0	0	0	0	0	0	0	0	0	2
5338	53.38	0	0	0	0	0	0	0	0	0	0	0	0	0	0	0	0	0	0	0	0	0	0	0	0	0	0	0	0	0	0	1	0	0	17.883	2.027	16.961	0	0	0	0	0	0	0	0	0	0	0	0	0	-1	0	-2.0278	-17.891	16.968	0	0	0	0	0	0	0	0	0	2
5339	53.39	0	0	0	0	0	0	0	0	0	0	0	0	0	0	0	0	0	0	0	0	0	0	0	0	10.989	-10.989	19.033	0	0	0	0	0	0	0	0	0	0	0	0	0	0	0	0	0	0	0	0	0	0	-1	0	-2.0278	-17.891	16.968	0	0	0	0	0	0	0	0	0	2
5340	53.4	0	0	0	0	0	0	0	0	0	0	0	0	0	0	0	0	0	0	0	0	0	0	0	0	10.989	-10.989	19.033	0	0	0	1	0	0	17.883	2.027	16.961	0	0	0	0	0	0	0	0	0	0	0	0	0	-1	0	-2.0278	-17.891	16.968	0	0	0	0	0	0	0	0	0	2
5341	53.41	0	0	0	0	0	0	0	0	0	0	0	0	0	0	0	0	0	0	0	0	0	0	0	0	10.989	-10.989	19.033	0	0	0	1	0	0	17.883	2.027	16.961	0	0	0	0	0	0	0	0	0	0	0	0	0	-1	0	-2.0278	-17.891	16.968	0	0	0	0	0	0	0	0	0	2
5342	53.42	0	0	0	0	0	0	0	0	0	0	0	0	0	0	0	0	0	0	0	0	0	0	0	0	10.989	-10.989	19.033	0	0	0	1	0	0	17.883	2.027	16.961	0	0	0	0	0	0	0	0	0	0	0	0	0	-1	0	-2.0278	-17.891	16.968	0	0	0	0	0	0	0	0	0	2
5343	53.43	0	0	0	0	0	0	0	0	0	0	0	0	0	0	0	0	0	0	0	0	0	0	0	0	10.989	-10.989	19.033	0	0	0	0	0	0	0	0	0	0	0	0	0	0	0	0	0	0	0	0	0	0	-1	0	-2.0278	-17.891	16.968	0	0	0	0	0	0	0	0	0	2
5344	53.44	0	0	0	0	0	0	10.917	-10.917	18.908	0	0	0	0	0	0	0	0	0	0	0	0	0	0	0	10.989	-10.989	19.033	0	0	0	1	0	0	17.883	2.027	16.961	0	0	0	0	0	0	0	0	0	0	0	0	0	-1	0	-2.0278	-17.891	16.968	0	0	0	1	0	0	17.47	2.0148	16.554	2
5345	53.45	0	0	0	0	0	0	0	0	0	0	0	0	0	0	0	0	0	0	0	0	0	0	0	0	0	0	0	0	0	0	0	0	0	0	0	0	0	0	0	0	0	0	0	0	0	0	0	0	0	-1	0	-2.0278	-17.891	16.968	0	0	0	0	0	0	0	0	0	0
5346	53.46	0	0	0	0	0	0	0	0	0	0	0	0	0	0	0	0	0	0	0	0	0	0	0	0	10.989	-10.989	19.033	0	0	0	1	0	0	17.883	2.027	16.961	0	0	0	0	0	0	0	0	0	0	0	0	0	-1	0	-2.0278	-17.891	16.968	0	0	0	0	0	0	0	0	0	2
5347	53.47	0	0	0	0	0	0	0	0	0	0	0	0	0	0	0	0	0	0	0	0	0	0	0	0	10.989	-10.989	19.033	0	0	0	0	0	0	0	0	0	0	0	0	0	0	0	0	0	0	0	0	0	0	-1	0	-2.0278	-17.891	16.968	0	0	0	0	0	0	0	0	0	2
5348	53.48	0	0	0	0	0	0	0	0	0	0	0	0	0	0	0	0	0	0	0	0	0	0	0	0	10.989	-10.989	19.033	0	0	0	1	0	0	17.883	2.027	16.961	0	0	0	0	0	0	0	0	0	0	0	0	0	0	0	0	0	0	0	0	0	0	0	0	0	0	0	2
5349	53.49	0	0	0	0	0	0	0	0	0	0	0	0	0	0	0	0	0	0	0	0	0	0	0	0	10.989	-10.989	19.033	0	0	0	0	0	0	0	0	0	0	0	0	1	0	0	17.883	2.027	16.961	0	0	0	0	-1	0	-2.0278	-17.891	16.968	0	0	0	0	0	0	0	0	0	2
5350	53.5	0	0	0	0	0	0	0	0	0	0	0	0	0	0	0	0	0	0	0	0	0	0	0	0	0	0	0	0	0	0	0	0	0	0	0	0	0	0	0	0	0	0	0	0	0	0	0	0	0	-1	0	-2.0278	-17.891	16.968	0	0	0	0	0	0	0	0	0	2
5351	53.51	0	0	0	0	0	0	0	0	0	0	0	0	0	0	0	0	0	0	0	0	0	0	0	0	10.989	-10.989	19.033	0	0	0	1	0	0	17.883	2.027	16.961	0	0	0	0	0	0	0	0	0	0	0	0	0	0	0	0	0	0	0	0	0	1	0	0	17.47	2.0148	16.554	2
5352	53.52	0	0	0	0	0	0	10.917	-10.917	18.908	0	0	0	0	0	0	0	0	0	0	0	0	0	0	0	10.989	-10.989	19.033	0	0	0	0	0	0	0	0	0	0	0	0	0	0	0	0	0	0	0	0	0	0	-1	0	-2.0278	-17.891	16.968	0	0	0	0	0	0	0	0	0	2
5353	53.53	0	0	0	0	0	0	0	0	0	0	0	0	0	0	0	0	0	0	0	0	0	0	0	0	10.989	-10.989	19.033	0	0	0	0	0	0	0	0	0	0	0	0	0	0	0	0	0	0	0	0	0	0	0	0	0	0	0	0	0	0	0	0	0	0	0	0	2
5354	53.54	0	0	0	0	0	0	0	0	0	0	0	0	0	0	0	0	0	0	0	0	0	0	0	0	10.989	-10.989	19.033	0	0	0	1	0	0	17.883	2.027	16.961	0	0	0	0	0	0	0	0	0	0	0	0	0	-1	0	-2.0278	-17.891	16.968	0	0	0	0	0	0	0	0	0	2
5355	53.55	0	0	0	0	0	0	0	0	0	0	0	0	0	0	0	0	0	0	0	0	0	0	0	0	10.989	-10.989	19.033	0	0	0	0	0	0	0	0	0	0	0	0	0	0	0	0	0	0	0	0	0	0	-1	0	-2.0278	-17.891	16.968	0	0	0	0	0	0	0	0	0	2
5356	53.56	0	0	0	0	0	0	0	0	0	0	0	0	0	0	0	0	0	0	0	0	0	0	0	0	10.989	-10.989	19.033	0	0	0	1	0	0	17.883	2.027	16.961	0	0	0	0	0	0	0	0	0	0	0	0	0	-1	0	-2.0278	-17.891	16.968	0	0	0	0	0	0	0	0	0	2
5357	53.57	0	0	0	0	0	0	0	0	0	0	0	0	0	0	0	0	0	0	0	0	0	0	0	0	10.989	-10.989	19.033	0	0	0	1	0	0	17.883	2.027	16.961	0	0	0	0	0	0	0	0	0	0	0	0	0	-1	0	-2.0278	-17.891	16.968	0	0	0	0	0	0	0	0	0	2
5358	53.58	0	0	0	0	0	0	0	0	0	0	0	0	0	0	0	0	0	0	0	0	0	0	0	0	10.989	-10.989	19.033	0	0	0	1	0	0	17.883	2.027	16.961	0	0	0	0	0	0	0	0	0	0	0	0	0	-1	0	-2.0278	-17.891	16.968	0	0	0	0	0	0	0	0	0	2
5359	53.59	0	0	0	0	0	0	0	0	0	0	0	0	0	0	0	0	0	0	0	0	0	0	0	0	10.989	-10.989	19.033	0	0	0	1	0	0	17.883	2.027	16.961	0	0	0	0	0	0	0	0	0	0	0	0	0	-1	0	-2.0278	-17.891	16.968	0	0	0	0	0	0	0	0	0	2
5360	53.6	0	0	0	0	0	0	0	0	0	0	0	0	0	0	0	0	0	0	0	0	0	0	0	0	10.989	-10.989	19.033	0	0	0	0	0	0	0	0	0	0	0	0	0	0	0	0	0	0	0	0	0	0	-1	0	-2.0278	-17.891	16.968	0	0	0	0	0	0	0	0	0	2
5361	53.61	0	0	0	0	0	0	10.917	-10.917	18.908	0	0	0	0	0	0	0	0	0	0	0	0	0	0	0	10.989	-10.989	19.033	0	0	0	1	0	0	17.883	2.027	16.961	0	0	0	0	0	0	0	0	0	0	0	0	0	-1	0	-2.0278	-17.891	16.968	0	0	0	0	0	0	0	0	0	2
5362	53.62	0	0	0	0	0	0	0	0	0	0	0	0	0	0	0	0	0	0	0	0	0	0	0	0	0	0	0	0	0	0	1	0	0	17.883	2.027	16.961	0	0	0	0	0	0	0	0	0	0	0	0	0	-1	0	-2.0278	-17.891	16.968	0	0	0	0	0	0	0	0	0	2
5363	53.63	0	0	0	0	0	0	0	0	0	0	0	0	0	0	0	0	0	0	0	0	0	0	0	0	10.989	-10.989	19.033	0	0	0	1	0	0	17.883	2.027	16.961	0	0	0	0	0	0	0	0	0	0	0	0	0	-1	0	-2.0278	-17.891	16.968	0	0	0	0	0	0	0	0	0	2
5364	53.64	0	0	0	0	0	0	0	0	0	0	0	0	0	0	0	0	0	0	0	0	0	0	0	0	10.989	-10.989	19.033	0	0	0	1	0	0	17.883	2.027	16.961	0	0	0	0	0	0	0	0	0	0	0	0	0	-1	0	-2.0278	-17.891	16.968	0	0	0	0	0	0	0	0	0	2
5365	53.65	0	0	0	0	0	0	0	0	0	0	0	0	0	0	0	0	0	0	0	0	0	0	0	0	10.989	-10.989	19.033	0	0	0	1	0	0	17.883	2.027	16.961	0	0	0	0	0	0	0	0	0	0	0	0	0	-1	0	-2.0278	-17.891	16.968	0	0	0	0	0	0	0	0	0	2
5366	53.66	0	0	0	0	0	0	0	0	0	0	0	0	0	0	0	0	0	0	0	0	0	0	0	0	10.989	-10.989	19.033	0	0	0	0	0	0	0	0	0	0	0	0	0	0	0	0	0	0	0	0	0	0	-1	0	-2.0278	-17.891	16.968	0	0	0	0	0	0	0	0	0	2
5367	53.67	0	0	0	0	0	0	0	0	0	0	0	0	0	0	0	0	0	0	0	0	0	0	0	0	10.989	-10.989	19.033	0	0	0	1	0	0	17.883	2.027	16.961	0	0	0	0	0	0	0	0	0	0	0	0	0	-1	0	-2.0278	-17.891	16.968	0	0	0	0	0	0	0	0	0	0
5368	53.68	0	0	0	0	0	0	0	0	0	0	0	0	0	0	0	0	0	0	0	0	0	0	0	0	10.989	-10.989	19.033	0	0	0	0	0	0	0	0	0	0	0	0	0	0	0	0	0	0	0	0	0	0	-1	0	-2.0278	-17.891	16.968	0	0	0	0	0	0	0	0	0	2
5369	53.69	0	0	0	0	0	0	0	0	0	0	0	0	0	0	0	0	0	0	0	0	0	0	0	0	10.989	-10.989	19.033	0	0	0	1	0	0	17.883	2.027	16.961	0	0	0	0	0	0	0	0	0	0	0	0	0	-1	0	-2.0278	-17.891	16.968	0	0	0	0	0	0	0	0	0	2
5370	53.7	0	0	0	0	0	0	0	0	0	0	0	0	0	0	0	0	0	0	0	0	0	0	0	0	10.989	-10.989	19.033	0	0	0	0	0	0	0	0	0	0	0	0	0	0	0	0	0	0	0	0	0	0	-1	0	-2.0278	-17.891	16.968	0	0	0	0	0	0	0	0	0	2
5371	53.71	0	0	0	0	0	0	0	0	0	0	0	0	0	0	0	0	0	0	0	0	0	0	0	0	10.989	-10.989	19.033	0	0	0	1	0	0	17.883	2.027	16.961	0	0	0	0	0	0	0	0	0	0	0	0	0	-1	0	-2.0278	-17.891	16.968	0	0	0	0	0	0	0	0	0	2
5372	53.72	0	0	0	0	0	0	10.917	-10.917	18.908	0	0	0	0	0	0	0	0	0	0	0	0	0	0	0	10.989	-10.989	19.033	0	0	0	1	0	0	17.883	2.027	16.961	0	0	0	0	0	0	0	0	0	0	0	0	0	-1	0	-2.0278	-17.891	16.968	0	0	0	0	0	0	0	0	0	2
5373	53.73	0	0	0	0	0	0	0	0	0	0	0	0	0	0	0	0	0	0	0	0	0	0	0	0	0	0	0	0	0	0	1	0	0	17.883	2.027	16.961	0	0	0	0	0	0	0	0	0	0	0	0	0	-1	0	-2.0278	-17.891	16.968	0	0	0	0	0	0	0	0	0	2
5374	53.74	0	0	0	0	0	0	10.917	-10.917	18.908	0	0	0	0	0	0	0	0	0	0	0	0	0	0	0	10.989	-10.989	19.033	0	0	0	1	0	0	17.883	2.027	16.961	0	0	0	0	0	0	0	0	0	0	0	0	0	-1	0	-2.0278	-17.891	16.968	0	0	0	0	0	0	0	0	0	2
5375	53.75	0	0	0	0	0	0	0	0	0	0	0	0	0	0	0	0	0	0	0	0	0	0	0	0	10.989	-10.989	19.033	0	0	0	0	0	0	0	0	0	0	0	0	0	0	0	0	0	0	0	0	0	0	-1	0	-2.0278	-17.891	16.968	0	0	0	0	0	0	0	0	0	2
5376	53.76	0	0	0	0	0	0	0	0	0	0	0	0	0	0	0	0	0	0	0	0	0	0	0	0	0	0	0	0	0	0	0	0	0	0	0	0	0	0	0	0	0	0	0	0	0	0	0	0	0	-1	0	-2.0278	-17.891	16.968	0	0	0	0	0	0	0	0	0	2
5377	53.77	0	0	0	0	0	0	0	0	0	0	0	0	0	0	0	0	0	0	0	0	0	0	0	0	10.989	-10.989	19.033	0	0	0	1	0	0	17.761	2.1499	16.789	0	0	0	0	0	0	0	0	0	0	0	0	0	-1	0	-2.0278	-17.891	16.968	0	0	0	0	0	0	0	0	0	2
5378	53.78	0	0	0	0	0	0	0	0	0	0	0	0	0	0	0	0	0	0	0	0	0	0	0	0	10.989	-10.989	19.033	0	0	0	0	0	0	0	0	0	0	0	0	0	0	0	0	0	0	0	0	0	0	-1	0	-2.0278	-17.891	16.968	0	0	0	0	0	0	0	0	0	2
5379	53.79	0	0	0	0	0	0	0	0	0	0	0	0	0	0	0	0	0	0	0	0	0	1	0	0	17.755	2.1475	16.785	0	0	0	1	0	0	17.883	2.027	16.961	0	0	0	0	0	0	0	0	0	0	0	0	0	-1	0	-2.0278	-17.891	16.968	0	0	0	0	0	0	0	0	0	2
5380	53.8	0	0	0	0	0	0	0	0	0	0	0	0	0	0	0	0	0	0	0	0	0	0	0	0	10.989	-10.989	19.033	0	0	0	0	0	0	0	0	0	0	0	0	0	0	0	0	0	0	0	0	0	0	-1	0	-2.0278	-17.891	16.968	0	0	0	0	0	0	0	0	0	2
5381	53.81	0	0	0	0	0	0	0	0	0	0	0	0	0	0	0	0	0	0	0	0	0	0	0	0	10.989	-10.989	19.033	0	0	0	1	0	0	17.761	2.1499	16.789	0	0	0	0	0	0	0	0	0	0	0	0	0	0	0	0	0	0	0	0	0	0	0	0	0	0	0	2
5382	53.82	0	0	0	0	0	0	0	0	0	0	0	0	0	0	0	0	0	0	0	0	0	0	0	0	10.989	-10.989	19.033	0	0	0	0	0	0	0	0	0	0	0	0	0	0	0	0	0	0	0	0	0	0	-1	0	-2.0278	-17.891	16.968	0	0	0	0	0	0	0	0	0	2
5383	53.83	0	0	0	0	0	0	0	0	0	0	0	0	0	0	0	0	0	0	0	0	0	0	0	0	10.989	-10.989	19.033	0	0	0	0	0	0	0	0	0	0	0	0	0	0	0	0	0	0	0	0	0	0	-1	0	-2.0278	-17.891	16.968	0	0	0	0	0	0	0	0	0	0
5384	53.84	0	0	0	0	0	0	0	0	0	0	0	0	0	0	0	0	0	0	0	0	0	0	0	0	10.989	-10.989	19.033	0	0	0	1	0	0	17.883	2.027	16.961	0	0	0	0	0	0	0	0	0	0	0	0	1	-1	0	7.5503	-27.469	31.921	0	0	0	0	0	0	0	0	0	2
5385	53.85	0	0	0	0	0	0	0	0	0	0	0	0	0	0	0	0	0	0	0	0	0	0	0	0	10.989	-10.989	19.033	0	0	0	0	0	0	0	0	0	0	0	0	0	0	0	0	0	0	0	0	0	0	-1	0	-2.0278	-17.891	16.968	0	0	0	0	0	0	0	0	0	2
5386	53.86	0	0	0	0	0	0	0	0	0	0	0	0	0	0	0	0	0	0	0	0	0	0	0	0	10.989	-10.989	19.033	0	0	0	1	0	0	17.883	2.027	16.961	0	0	0	0	0	0	0	0	0	0	0	0	0	-1	0	-2.0278	-17.891	16.968	0	0	0	0	0	0	10.93	-10.93	18.931	0
5387	53.87	0	0	0	0	0	0	0	0	0	0	0	0	0	0	0	0	0	0	0	0	0	0	0	0	10.989	-10.989	19.033	0	0	0	0	0	0	0	0	0	0	0	0	0	0	0	0	0	0	0	0	0	0	-1	0	-2.0278	-17.891	16.968	0	0	0	0	0	0	0	0	0	2
5388	53.88	0	0	0	0	0	0	0	0	0	0	0	0	0	0	0	0	0	0	0	0	0	0	0	0	10.989	-10.989	19.033	0	0	0	1	0	0	17.883	2.027	16.961	0	0	0	0	0	0	0	0	0	0	0	0	0	-1	0	-2.0278	-17.891	16.968	0	0	0	0	0	0	0	0	0	2
5389	53.89	0	0	0	0	0	0	0	0	0	0	0	0	0	0	0	0	0	0	0	0	0	0	0	0	10.989	-10.989	19.033	0	0	0	1	0	0	17.883	2.027	16.961	0	0	0	0	0	0	0	0	0	0	0	0	0	-1	0	-2.0278	-17.891	16.968	0	0	0	0	0	0	0	0	0	2
5390	53.9	0	0	0	0	0	0	0	0	0	0	0	0	0	0	0	0	0	0	0	0	0	0	0	0	10.989	-10.989	19.033	0	0	0	0	0	0	0	0	0	0	0	0	0	0	0	0	0	0	0	0	0	0	-1	0	-2.0278	-17.891	16.968	0	0	0	0	0	0	0	0	0	2
5391	53.91	0	0	0	0	0	0	0	0	0	0	0	0	0	0	0	0	0	0	0	0	0	0	0	0	10.989	-10.989	19.033	0	0	0	0	0	0	0	0	0	0	0	0	0	0	0	0	0	0	0	0	0	0	-1	0	-2.0278	-17.891	16.968	0	0	0	1	0	0	17.482	2.0162	16.566	2
5392	53.92	0	0	0	0	0	0	0	0	0	0	0	0	0	0	0	0	0	0	0	0	0	0	0	0	10.989	-10.989	19.033	0	0	0	1	0	0	17.883	2.027	16.961	0	0	0	0	0	0	0	0	0	0	0	0	0	0	0	0	0	0	0	0	0	0	0	0	0	0	0	2
5393	53.93	0	0	0	0	0	0	10.917	-10.917	18.908	0	0	0	0	-1	0	-2.0366	-17.816	16.89	0	0	0	0	0	0	10.989	-10.989	19.033	0	0	0	0	0	0	0	0	0	0	0	0	0	0	0	0	0	0	0	0	0	0	-1	0	-2.0278	-17.891	16.968	0	0	0	0	0	0	0	0	0	2
5394	53.94	0	0	0	0	0	0	0	0	0	0	0	0	0	0	0	0	0	0	0	0	0	0	0	0	10.989	-10.989	19.033	0	0	0	1	0	0	17.883	2.027	16.961	0	0	0	0	0	0	0	0	0	0	0	0	0	-1	0	-2.0278	-17.891	16.968	0	0	0	1	0	0	17.47	2.0148	16.554	2
5395	53.95	0	0	0	0	0	0	10.917	-10.917	18.908	0	0	0	0	0	0	0	0	0	0	0	0	0	0	0	10.989	-10.989	19.033	0	0	0	1	0	0	17.883	2.027	16.961	0	0	0	0	0	0	0	0	0	0	0	0	0	-1	0	-2.0278	-17.891	16.968	0	0	0	0	0	0	0	0	0	2
5396	53.96	0	0	0	0	0	0	0	0	0	0	0	0	0	0	0	0	0	0	0	0	0	0	0	0	10.989	-10.989	19.033	0	0	0	1	0	0	17.883	2.027	16.961	0	0	0	0	0	0	0	0	0	0	0	0	0	0	0	0	0	0	0	0	0	1	0	0	17.471	2.0135	16.556	2
5397	53.97	0	0	0	0	0	0	0	0	0	0	0	0	0	0	0	0	0	0	0	0	0	0	0	0	10.989	-10.989	19.033	0	0	0	1	0	0	17.883	2.027	16.961	0	0	0	0	0	0	0	0	0	0	0	0	0	-1	0	-2.0278	-17.891	16.968	0	0	0	0	0	0	0	0	0	2
5398	53.98	0	0	0	0	0	0	10.917	-10.917	18.908	0	0	0	0	0	0	0	0	0	0	0	0	0	0	0	10.989	-10.989	19.033	0	0	0	1	0	0	17.883	2.027	16.961	0	0	0	0	0	0	0	0	0	0	0	0	0	-1	0	-2.0278	-17.891	16.968	0	0	0	0	0	0	0	0	0	2
5399	53.99	0	0	0	0	0	0	0	0	0	0	0	0	0	0	0	0	0	0	0	0	0	0	0	0	10.989	-10.989	19.033	0	0	0	1	0	0	17.883	2.027	16.961	0	0	0	0	0	0	0	0	0	0	0	0	0	-1	0	-2.0278	-17.891	16.968	0	0	0	0	0	0	0	0	0	2
5400	54	0	0	0	0	0	0	10.917	-10.917	18.908	0	0	0	0	0	0	0	0	0	0	0	0	0	0	0	10.989	-10.989	19.033	0	0	0	0	0	0	0	0	0	0	0	0	0	0	0	0	0	0	0	0	0	0	-1	0	-2.0278	-17.891	16.968	0	0	0	0	0	0	0	0	0	2
5401	54.01	0	0	0	0	0	0	0	0	0	0	0	0	0	0	0	0	0	0	0	0	0	0	0	0	10.989	-10.989	19.033	0	0	0	1	0	0	17.883	2.027	16.961	0	0	0	0	0	0	0	0	0	0	0	0	0	-1	0	-2.0278	-17.891	16.968	0	0	0	0	0	0	0	0	0	2
5402	54.02	0	0	0	0	0	0	0	0	0	0	0	0	0	0	0	0	0	0	0	0	0	0	0	0	10.989	-10.989	19.033	0	0	0	1	0	0	17.883	2.027	16.961	0	0	0	0	0	0	0	0	0	0	0	0	0	-1	0	-2.0278	-17.891	16.968	0	0	0	0	0	0	0	0	0	2
5403	54.03	0	0	0	0	0	0	0	0	0	0	0	0	0	0	0	0	0	0	0	0	0	0	0	0	10.989	-10.989	19.033	0	0	0	0	0	0	0	0	0	0	0	0	0	0	0	0	0	0	0	0	0	0	-1	0	-2.0278	-17.891	16.968	0	0	0	0	0	0	0	0	0	2
5404	54.04	0	0	0	0	0	0	0	0	0	0	0	0	0	0	0	0	0	0	0	0	0	0	0	0	10.989	-10.989	19.033	0	0	0	1	0	0	17.883	2.027	16.961	0	0	0	0	0	0	0	0	0	0	0	0	0	-1	0	-2.0278	-17.891	16.968	0	0	0	0	0	0	0	0	0	2
5405	54.05	0	0	0	0	0	0	0	0	0	0	0	0	0	0	0	0	0	0	0	0	0	0	0	0	10.989	-10.989	19.033	0	0	0	0	0	0	0	0	0	0	0	0	0	0	0	0	0	0	0	0	0	0	-1	0	-2.0278	-17.891	16.968	0	0	0	0	0	0	0	0	0	2
5406	54.06	0	0	0	0	0	0	0	0	0	0	0	0	0	0	0	0	0	0	0	0	0	0	0	0	10.989	-10.989	19.033	0	0	0	0	0	0	0	0	0	0	0	0	0	0	0	0	0	0	0	0	0	0	-1	0	-2.0278	-17.891	16.968	0	0	0	0	0	0	0	0	0	2
5407	54.07	0	0	0	0	0	0	0	0	0	0	0	0	0	0	0	0	0	0	0	0	0	0	0	0	10.989	-10.989	19.033	0	0	0	0	0	0	0	0	0	0	0	0	0	0	0	0	0	0	0	0	0	0	-1	0	-2.0278	-17.891	16.968	0	0	0	0	0	0	0	0	0	2
5408	54.08	0	0	0	0	0	0	0	0	0	0	0	0	0	0	0	0	0	0	0	0	0	0	0	0	10.989	-10.989	19.033	0	0	0	0	0	0	0	0	0	0	0	0	0	0	0	0	0	0	0	0	0	0	-1	0	-2.0278	-17.891	16.968	0	0	0	0	0	0	0	0	0	2
5409	54.09	0	0	0	0	0	0	10.917	-10.917	18.908	0	0	0	0	0	0	0	0	0	0	0	0	0	0	0	10.989	-10.989	19.033	0	0	0	1	0	0	17.883	2.027	16.961	0	0	0	0	0	0	0	0	0	0	0	0	0	0	0	0	0	0	0	0	0	1	0	0	17.47	2.0148	16.554	0
5410	54.1	0	0	0	0	0	0	10.917	-10.917	18.908	0	0	0	0	0	0	0	0	0	0	0	0	0	0	0	10.989	-10.989	19.033	0	0	0	0	0	0	0	0	0	0	0	0	0	0	0	0	0	0	0	0	0	0	-1	0	-2.0278	-17.891	16.968	0	0	0	0	0	0	0	0	0	2
5411	54.11	0	0	0	0	0	0	0	0	0	0	0	0	0	0	0	0	0	0	0	0	0	0	0	0	10.989	-10.989	19.033	0	0	0	1	0	0	17.883	2.027	16.961	0	0	0	0	0	0	0	0	0	0	0	0	1	-1	0	7.5503	-27.469	31.921	0	0	0	0	0	0	0	0	0	2
5412	54.12	0	0	0	0	0	0	0	0	0	0	0	0	0	0	0	0	0	0	0	0	0	0	0	0	10.989	-10.989	19.033	0	0	0	1	0	0	17.883	2.027	16.961	0	0	0	0	0	0	0	0	0	0	0	0	0	-1	0	-2.0278	-17.891	16.968	0	0	0	0	0	0	0	0	0	2
5413	54.13	0	0	0	0	0	0	0	0	0	0	0	0	0	0	0	0	0	0	0	0	0	0	0	0	10.989	-10.989	19.033	0	0	0	1	0	0	17.883	2.027	16.961	0	0	0	0	0	0	0	0	0	0	0	0	0	-1	0	-2.0278	-17.891	16.968	0	0	0	0	0	0	0	0	0	2
5414	54.14	0	0	0	0	0	0	0	0	0	0	0	0	0	0	0	0	0	0	0	0	0	0	0	0	10.989	-10.989	19.033	0	0	0	1	0	0	17.883	2.027	16.961	0	0	0	0	0	0	0	0	0	0	0	0	0	-1	0	-2.0278	-17.891	16.968	0	0	0	0	0	0	0	0	0	2
5415	54.15	0	0	0	0	0	0	0	0	0	0	0	0	0	0	0	0	0	0	0	0	0	0	0	0	10.989	-10.989	19.033	0	0	0	1	0	0	17.883	2.027	16.961	0	0	0	0	0	0	0	0	0	0	0	0	0	-1	0	-2.0278	-17.891	16.968	0	0	0	0	0	0	0	0	0	2
5416	54.16	0	0	0	0	0	0	0	0	0	0	0	0	0	0	0	0	0	0	0	0	0	0	0	0	10.989	-10.989	19.033	0	0	0	1	0	0	17.883	2.027	16.961	0	0	0	0	0	0	0	0	0	0	0	0	0	-1	0	-2.0278	-17.891	16.968	0	0	0	0	0	0	0	0	0	2
5417	54.17	0	0	0	0	0	0	10.917	-10.917	18.908	0	0	0	0	0	0	0	0	0	0	0	0	0	0	0	10.989	-10.989	19.033	0	0	0	1	0	0	17.761	2.1499	16.789	0	0	0	0	0	0	0	0	0	0	0	0	0	-1	0	-2.0278	-17.891	16.968	0	0	0	0	0	0	0	0	0	2
5418	54.18	0	0	0	0	0	0	0	0	0	0	0	0	0	0	0	0	0	0	0	0	0	0	0	0	10.989	-10.989	19.033	0	0	0	1	0	0	17.883	2.027	16.961	0	0	0	0	0	0	0	0	0	0	0	0	0	-1	0	-2.0278	-17.891	16.968	0	0	0	0	0	0	0	0	0	2
5419	54.19	0	0	0	0	0	0	10.917	-10.917	18.908	0	0	0	0	0	0	0	0	0	0	0	0	0	0	0	10.989	-10.989	19.033	0	0	0	1	0	0	17.883	2.027	16.961	0	0	0	0	0	0	0	0	0	0	0	0	0	-1	0	-2.0278	-17.891	16.968	0	0	0	1	0	0	17.482	2.0162	16.566	2
5420	54.2	0	0	0	0	0	0	10.917	-10.917	18.908	0	0	0	0	0	0	0	0	0	0	0	0	0	0	0	10.989	-10.989	19.033	0	0	0	0	0	0	0	0	0	0	0	0	0	0	0	0	0	0	0	0	0	0	-1	0	-2.0278	-17.891	16.968	0	0	0	0	0	0	0	0	0	2
5421	54.21	0	0	0	0	0	0	0	0	0	0	0	0	0	0	0	0	0	0	0	0	0	0	0	0	10.989	-10.989	19.033	0	0	0	1	0	0	17.883	2.027	16.961	0	0	0	0	0	0	0	0	0	0	0	0	0	-1	0	-2.0278	-17.891	16.968	0	0	0	0	0	0	0	0	0	2
5422	54.22	0	0	0	0	0	0	0	0	0	0	0	0	0	0	0	0	0	0	0	0	0	0	0	0	10.989	-10.989	19.033	0	0	0	1	0	0	17.883	2.027	16.961	0	0	0	0	0	0	0	0	0	0	0	0	0	-1	0	-2.0278	-17.891	16.968	0	0	0	0	0	0	0	0	0	2
5423	54.23	0	0	0	0	0	0	0	0	0	0	0	0	0	0	0	0	0	0	0	0	0	0	0	0	10.989	-10.989	19.033	0	0	0	1	0	0	17.883	2.027	16.961	0	0	0	0	0	0	0	0	0	0	0	0	0	-1	0	-2.0278	-17.891	16.968	0	0	0	0	0	0	0	0	0	2
5424	54.24	0	0	0	0	0	0	0	0	0	0	0	0	0	0	0	0	0	0	0	0	0	0	0	0	10.989	-10.989	19.033	0	0	0	1	0	0	17.883	2.027	16.961	0	0	0	0	0	0	0	0	0	0	0	0	1	-1	0	7.5503	-27.469	31.921	0	0	0	0	0	0	0	0	0	2
5425	54.25	0	0	0	0	0	0	0	0	0	0	0	0	0	0	0	0	0	0	0	0	0	0	0	0	10.989	-10.989	19.033	0	0	0	1	0	0	17.883	2.027	16.961	0	0	0	0	0	0	0	0	0	0	0	0	0	-1	0	-2.0278	-17.891	16.968	0	0	0	0	0	0	0	0	0	2
5426	54.26	0	0	0	0	0	0	0	0	0	0	0	0	0	0	0	0	0	0	0	0	0	0	0	0	10.989	-10.989	19.033	0	0	0	0	0	0	0	0	0	0	0	0	0	0	0	0	0	0	0	0	0	0	-1	0	-2.0278	-17.891	16.968	0	0	0	0	0	0	0	0	0	2
5427	54.27	0	0	0	0	0	0	0	0	0	0	0	0	0	0	0	0	0	0	0	0	0	0	0	0	10.989	-10.989	19.033	0	0	0	1	0	0	17.883	2.027	16.961	0	0	0	0	0	0	0	0	0	0	0	0	0	-1	0	-2.0278	-17.891	16.968	0	0	0	0	0	0	0	0	0	2
5428	54.28	0	0	0	0	0	0	10.917	-10.917	18.908	0	0	0	0	0	0	0	0	0	0	0	0	0	0	0	10.989	-10.989	19.033	0	0	0	1	0	0	17.883	2.027	16.961	0	0	0	0	0	0	0	0	0	0	0	0	0	-1	0	-2.0278	-17.891	16.968	0	0	0	0	0	0	0	0	0	2
5429	54.29	0	0	0	0	0	0	0	0	0	0	0	0	0	0	0	0	0	0	0	0	0	0	0	0	10.989	-10.989	19.033	0	0	0	1	0	0	17.883	2.027	16.961	0	0	0	0	0	0	0	0	0	0	0	0	0	-1	0	-2.0278	-17.891	16.968	0	0	0	0	0	0	0	0	0	2
5430	54.3	0	0	0	0	0	0	10.917	-10.917	18.908	0	0	0	0	0	0	0	0	0	0	0	0	0	0	0	10.989	-10.989	19.033	0	0	0	0	0	0	0	0	0	0	0	0	0	0	0	0	0	0	0	0	0	0	-1	0	-2.0278	-17.891	16.968	0	0	0	0	0	0	0	0	0	2
5431	54.31	0	0	0	0	0	0	0	0	0	0	0	0	0	0	0	0	0	0	0	0	0	0	0	0	10.989	-10.989	19.033	0	0	0	1	0	0	17.883	2.027	16.961	0	0	0	0	0	0	0	0	0	0	0	0	0	-1	0	-2.0278	-17.891	16.968	0	0	0	1	0	0	17.47	2.0148	16.554	2
5432	54.32	0	0	0	0	0	0	0	0	0	0	0	0	0	0	0	0	0	0	0	0	0	0	0	0	10.989	-10.989	19.033	0	0	0	0	0	0	0	0	0	0	0	0	0	0	0	0	0	0	0	0	0	0	-1	0	-2.0278	-17.891	16.968	0	0	0	0	0	0	0	0	0	2
5433	54.33	0	0	0	0	0	0	0	0	0	0	0	0	0	0	0	0	0	0	0	0	0	0	0	0	10.989	-10.989	19.033	0	0	0	1	0	0	17.883	2.027	16.961	0	0	0	0	0	0	0	0	0	0	0	0	0	-1	0	-2.0278	-17.891	16.968	0	0	0	0	0	0	0	0	0	2
5434	54.34	0	0	0	0	0	0	0	0	0	0	0	0	0	0	0	0	0	0	0	0	0	0	0	0	10.989	-10.989	19.033	0	0	0	1	0	0	17.883	2.027	16.961	0	0	0	0	0	0	0	0	0	0	0	0	0	-1	0	-2.0278	-17.891	16.968	0	0	0	0	0	0	0	0	0	2
5435	54.35	0	0	0	0	0	0	0	0	0	0	0	0	0	0	0	0	0	0	0	0	0	0	0	0	10.989	-10.989	19.033	0	0	0	1	0	0	17.883	2.027	16.961	0	0	0	0	0	0	0	0	0	0	0	0	0	-1	0	-2.0278	-17.891	16.968	0	0	0	0	0	0	0	0	0	2
5436	54.36	0	0	0	0	0	0	10.917	-10.917	18.908	0	0	0	0	0	0	0	0	0	0	0	0	0	0	0	10.989	-10.989	19.033	0	0	0	1	0	0	17.883	2.027	16.961	0	0	0	0	0	0	0	0	0	0	0	0	0	-1	0	-2.0278	-17.891	16.968	0	0	0	0	0	0	0	0	0	2
5437	54.37	0	0	0	0	0	0	0	0	0	0	0	0	0	0	0	0	0	0	0	0	0	0	0	0	10.989	-10.989	19.033	0	0	0	0	0	0	0	0	0	0	0	0	0	0	0	0	0	0	0	0	0	0	-1	0	-2.0278	-17.891	16.968	0	0	0	0	0	0	0	0	0	2
5438	54.38	0	0	0	0	0	0	0	0	0	0	0	0	0	0	0	0	0	0	0	0	0	0	0	0	10.989	-10.989	19.033	0	0	0	1	0	0	17.883	2.027	16.961	0	0	0	0	0	0	0	0	0	0	0	0	1	-1	0	7.5503	-27.469	31.921	0	0	0	0	0	0	0	0	0	2
5439	54.39	0	0	0	0	0	0	0	0	0	0	0	0	0	0	0	0	0	0	0	0	0	0	0	0	10.989	-10.989	19.033	0	0	0	1	0	0	17.883	2.027	16.961	0	0	0	0	0	0	0	0	0	0	0	0	0	0	0	0	0	0	0	0	0	0	0	0	0	0	0	2
5440	54.4	0	0	0	0	0	0	0	0	0	0	0	0	0	0	0	0	0	0	0	0	0	0	0	0	10.989	-10.989	19.033	0	0	0	0	0	0	0	0	0	0	0	0	0	0	0	0	0	0	0	0	0	0	-1	0	-2.0278	-17.891	16.968	0	0	0	0	0	0	0	0	0	2
5441	54.41	0	0	0	0	0	0	0	0	0	0	0	0	0	0	0	0	0	0	0	0	0	0	0	0	10.989	-10.989	19.033	0	0	0	1	0	0	17.883	2.027	16.961	0	0	0	0	0	0	0	0	0	0	0	0	0	-1	0	-2.0278	-17.891	16.968	0	0	0	0	0	0	0	0	0	2
5442	54.42	0	0	0	0	0	0	0	0	0	0	0	0	0	0	0	0	0	0	0	0	0	0	0	0	10.989	-10.989	19.033	0	0	0	1	0	0	17.883	2.027	16.961	0	0	0	0	0	0	0	0	0	0	0	0	1	-1	0	7.5503	-27.469	31.921	0	0	0	0	0	0	0	0	0	2
5443	54.43	0	0	0	0	0	0	0	0	0	0	0	0	0	-1	0	-2.0366	-17.816	16.89	0	0	0	0	0	0	10.989	-10.989	19.033	0	0	0	1	0	0	17.883	2.027	16.961	0	0	0	0	0	0	0	0	0	0	0	0	0	-1	0	-2.0278	-17.891	16.968	0	0	0	0	0	0	0	0	0	2
5444	54.44	0	0	0	0	0	0	0	0	0	0	0	0	0	0	0	0	0	0	0	0	0	0	0	0	10.989	-10.989	19.033	0	0	0	1	0	0	17.883	2.027	16.961	0	0	0	0	0	0	0	0	0	0	0	0	0	0	0	0	0	0	0	0	0	1	0	0	17.47	2.0148	16.554	2
5445	54.45	0	0	0	0	0	0	10.917	-10.917	18.908	0	0	0	0	0	0	0	0	0	0	0	0	0	0	0	10.989	-10.989	19.033	0	0	0	1	0	0	17.883	2.027	16.961	0	0	0	0	0	0	0	0	0	0	0	0	0	-1	0	-2.0278	-17.891	16.968	0	0	0	0	0	0	0	0	0	2
5446	54.46	0	0	0	0	0	0	0	0	0	0	0	0	0	0	0	0	0	0	0	0	0	0	0	0	10.989	-10.989	19.033	0	0	0	1	0	0	17.883	2.027	16.961	0	0	0	0	0	0	0	0	0	0	0	0	0	0	0	0	0	0	0	0	0	0	0	0	0	0	0	2
5447	54.47	0	0	0	0	0	0	0	0	0	0	0	0	0	0	0	0	0	0	0	0	0	0	0	0	10.989	-10.989	19.033	0	0	0	0	0	0	0	0	0	0	0	0	0	0	0	0	0	0	0	0	0	0	-1	0	-2.0278	-17.891	16.968	0	0	0	0	0	0	0	0	0	0
5448	54.48	0	0	0	0	0	0	0	0	0	0	0	0	0	0	0	0	0	0	0	0	0	0	0	0	10.989	-10.989	19.033	0	0	0	0	0	0	0	0	0	0	0	0	0	0	0	0	0	0	0	0	0	1	-1	0	7.5503	-27.469	31.921	0	0	0	0	0	0	0	0	0	2
5449	54.49	0	0	0	0	0	0	0	0	0	0	0	0	0	0	0	0	0	0	0	0	0	0	0	0	10.989	-10.989	19.033	0	0	0	1	0	0	17.883	2.027	16.961	0	0	0	0	0	0	0	0	0	0	0	0	0	-1	0	-2.0278	-17.891	16.968	0	0	0	0	0	0	0	0	0	2
5450	54.5	0	0	0	0	0	0	0	0	0	0	0	0	0	0	0	0	0	0	0	0	0	0	0	0	10.989	-10.989	19.033	0	0	0	1	0	0	17.883	2.027	16.961	0	0	0	0	0	0	0	0	0	0	0	0	0	-1	0	-2.0278	-17.891	16.968	0	0	0	0	0	0	0	0	0	2
5451	54.51	0	0	0	0	0	0	10.917	-10.917	18.908	0	0	0	0	0	0	0	0	0	0	0	0	0	0	0	10.989	-10.989	19.033	0	0	0	1	0	0	17.883	2.027	16.961	0	0	0	0	0	0	0	0	0	0	0	0	1	-1	0	7.5503	-27.469	31.921	0	0	0	1	0	0	17.482	2.0162	16.566	2
5452	54.52	0	0	0	0	0	0	10.917	-10.917	18.908	0	0	0	0	0	0	0	0	0	0	0	0	0	0	0	10.989	-10.989	19.033	0	0	0	0	0	0	0	0	0	0	0	0	0	0	0	0	0	0	0	0	0	0	0	0	0	0	0	0	0	0	0	0	0	0	0	0	2
5453	54.53	0	0	0	0	0	0	10.917	-10.917	18.908	0	0	0	0	0	0	0	0	0	0	0	0	0	0	0	10.989	-10.989	19.033	0	0	0	1	0	0	17.883	2.027	16.961	0	0	0	0	0	0	0	0	0	0	0	0	0	-1	0	-2.0278	-17.891	16.968	0	0	0	0	0	0	0	0	0	2
5454	54.54	0	0	0	0	0	0	0	0	0	0	0	0	0	0	0	0	0	0	0	0	0	0	0	0	10.989	-10.989	19.033	0	0	0	1	0	0	17.883	2.027	16.961	0	0	0	0	0	0	0	0	0	0	0	0	1	-1	0	7.5503	-27.469	31.921	0	0	0	0	0	0	0	0	0	2
5455	54.55	0	0	0	0	0	0	0	0	0	0	0	0	0	0	0	0	0	0	0	0	0	0	0	0	10.989	-10.989	19.033	0	0	0	1	0	0	17.883	2.027	16.961	0	0	0	0	0	0	0	0	0	0	0	0	0	-1	0	-2.0278	-17.891	16.968	0	0	0	0	0	0	0	0	0	0
5456	54.56	0	0	0	0	0	0	0	0	0	0	0	0	0	0	0	0	0	0	0	0	0	0	0	0	10.989	-10.989	19.033	0	0	0	1	0	0	17.883	2.027	16.961	0	0	0	0	0	0	0	0	0	0	0	0	0	-1	0	-2.0278	-17.891	16.968	0	0	0	0	0	0	0	0	0	2
5457	54.57	0	0	0	0	0	0	10.917	-10.917	18.908	0	0	0	0	0	0	0	0	0	0	0	0	0	0	0	10.989	-10.989	19.033	0	0	0	1	0	0	17.883	2.027	16.961	0	0	0	0	0	0	0	0	0	0	0	0	0	-1	0	-2.0278	-17.891	16.968	0	0	0	0	0	0	0	0	0	0
5458	54.58	0	0	0	0	0	0	0	0	0	0	0	0	0	0	0	0	0	0	0	0	0	0	0	0	10.989	-10.989	19.033	0	0	0	1	0	0	17.883	2.027	16.961	0	0	0	0	0	0	0	0	0	0	0	0	0	-1	0	-2.0278	-17.891	16.968	0	0	0	0	0	0	0	0	0	2
5459	54.59	0	0	0	0	0	0	10.917	-10.917	18.908	0	0	0	0	0	0	0	0	0	0	0	0	0	0	0	10.989	-10.989	19.033	0	0	0	1	0	0	17.883	2.027	16.961	0	0	0	0	0	0	0	0	0	0	0	0	0	0	0	0	0	0	0	0	0	0	0	0	0	0	0	2
5460	54.6	0	0	0	0	0	0	0	0	0	0	0	0	0	0	0	0	0	0	0	0	0	0	0	0	0	0	0	0	0	0	0	0	0	0	0	0	0	0	0	0	0	0	0	0	0	0	0	0	0	-1	0	-2.0278	-17.891	16.968	0	0	0	0	0	0	0	0	0	2
5461	54.61	0	0	0	1	-1	0	7.4664	-27.317	31.716	0	0	0	0	0	0	0	0	0	0	0	0	0	0	0	10.989	-10.989	19.033	0	0	0	1	0	0	17.883	2.027	16.961	0	0	0	0	0	0	0	0	0	0	0	0	0	-1	0	-2.0278	-17.891	16.968	0	0	0	0	0	0	0	0	0	2
5462	54.62	0	0	0	0	0	0	0	0	0	0	0	0	0	0	0	0	0	0	0	0	0	0	0	0	10.989	-10.989	19.033	0	0	0	0	0	0	0	0	0	0	0	0	0	0	0	0	0	0	0	0	0	0	-1	0	-2.0278	-17.891	16.968	0	0	0	0	0	0	0	0	0	2
5463	54.63	0	0	0	0	0	0	0	0	0	0	0	0	0	0	0	0	0	0	0	0	0	0	0	0	10.989	-10.989	19.033	0	0	0	0	0	0	0	0	0	0	0	0	0	0	0	0	0	0	0	0	0	0	0	0	0	0	0	0	0	0	0	0	0	0	0	0	2
5464	54.64	0	0	0	0	0	0	10.917	-10.917	18.908	0	0	0	0	0	0	0	0	0	0	0	0	0	0	0	10.989	-10.989	19.033	0	0	0	1	0	0	17.883	2.027	16.961	0	0	0	0	0	0	0	0	0	0	0	0	1	-1	0	7.5503	-27.469	31.921	0	0	0	0	0	0	0	0	0	2
5465	54.65	0	0	0	0	0	0	0	0	0	0	0	0	0	0	0	0	0	0	0	0	0	0	0	0	10.989	-10.989	19.033	0	0	0	1	0	0	17.883	2.027	16.961	0	0	0	0	0	0	0	0	0	0	0	0	0	-1	0	-2.0278	-17.891	16.968	0	0	0	0	0	0	0	0	0	2
5466	54.66	0	0	0	0	0	0	0	0	0	0	0	0	0	0	0	0	0	0	0	0	0	0	0	0	10.989	-10.989	19.033	0	0	0	1	0	0	17.883	2.027	16.961	0	0	0	0	0	0	0	0	0	0	0	0	0	0	0	10.994	-10.994	19.042	0	0	0	0	0	0	0	0	0	2
5467	54.67	0	0	0	0	0	0	10.917	-10.917	18.908	0	0	0	0	0	0	0	0	0	0	0	0	0	0	0	10.989	-10.989	19.033	0	0	0	1	0	0	17.883	2.027	16.961	0	0	0	0	0	0	0	0	0	0	0	0	0	-1	0	-2.0278	-17.891	16.968	0	0	0	0	0	0	0	0	0	2
5468	54.68	0	0	0	0	0	0	0	0	0	0	0	0	0	0	0	0	0	0	0	0	0	0	0	0	10.989	-10.989	19.033	0	0	0	0	0	0	0	0	0	0	0	0	0	0	0	0	0	0	0	0	0	0	-1	0	-2.0278	-17.891	16.968	0	0	0	0	0	0	0	0	0	2
5469	54.69	0	0	0	0	0	0	10.917	-10.917	18.908	0	0	0	0	0	0	0	0	0	0	0	0	0	0	0	10.989	-10.989	19.033	0	0	0	1	0	0	17.883	2.027	16.961	0	0	0	0	0	0	0	0	0	0	0	0	1	-1	0	7.5503	-27.469	31.921	0	0	0	0	0	0	0	0	0	2
5470	54.7	0	0	0	0	0	0	0	0	0	0	0	0	0	0	0	0	0	0	0	0	0	0	0	0	10.989	-10.989	19.033	0	0	0	1	0	0	17.883	2.027	16.961	0	0	0	0	0	0	0	0	0	0	0	0	0	0	0	0	0	0	0	0	0	0	0	0	0	0	0	2
5471	54.71	0	0	0	0	0	0	0	0	0	0	0	0	0	0	0	0	0	0	0	0	0	0	0	0	10.989	-10.989	19.033	0	0	0	0	0	0	0	0	0	0	0	0	0	0	0	0	0	0	0	0	0	0	-1	0	-2.0278	-17.891	16.968	0	0	0	0	0	0	0	0	0	2
5472	54.72	0	0	0	0	0	0	0	0	0	0	0	0	0	0	0	0	0	0	0	0	0	0	0	0	0	0	0	0	0	0	1	0	0	17.883	2.027	16.961	0	0	0	0	0	0	0	0	0	0	0	0	0	-1	0	-2.0278	-17.891	16.968	0	0	0	0	0	0	0	0	0	2
5473	54.73	0	0	0	0	0	0	0	0	0	0	0	0	0	0	0	0	0	0	0	0	0	0	0	0	10.989	-10.989	19.033	0	0	0	0	0	0	0	0	0	0	0	0	0	0	0	0	0	0	0	0	0	0	-1	0	-2.0278	-17.891	16.968	0	0	0	0	0	0	0	0	0	0
5474	54.74	0	0	0	0	0	0	10.917	-10.917	18.908	0	0	0	0	0	0	0	0	0	0	0	0	0	0	0	10.989	-10.989	19.033	0	0	0	1	0	0	17.883	2.027	16.961	0	0	0	0	0	0	0	0	0	0	0	0	1	-1	0	7.5503	-27.469	31.921	0	0	0	1	0	0	17.47	2.0148	16.554	2
5475	54.75	0	0	0	0	0	0	10.917	-10.917	18.908	0	0	0	0	0	0	0	0	0	0	0	0	0	0	0	10.989	-10.989	19.033	0	0	0	1	0	0	17.883	2.027	16.961	0	0	0	0	0	0	0	0	0	0	0	0	0	0	0	0	0	0	0	0	0	0	0	0	0	0	0	2
5476	54.76	0	0	0	0	0	0	0	0	0	0	0	0	0	0	0	0	0	0	0	0	0	0	0	0	10.989	-10.989	19.033	0	0	0	1	0	0	17.883	2.027	16.961	0	0	0	0	0	0	0	0	0	0	0	0	0	-1	0	-2.0278	-17.891	16.968	0	0	0	0	0	0	0	0	0	2
5477	54.77	0	0	0	0	0	0	0	0	0	0	0	0	0	0	0	0	0	0	0	0	0	0	0	0	10.989	-10.989	19.033	0	0	0	1	0	0	17.883	2.027	16.961	0	0	0	0	0	0	0	0	0	0	0	0	0	0	0	10.994	-10.994	19.042	0	0	0	0	0	0	0	0	0	2
5478	54.78	0	0	0	0	0	0	0	0	0	0	0	0	0	0	0	0	0	0	0	0	0	0	0	0	10.989	-10.989	19.033	0	0	0	0	0	0	0	0	0	0	0	0	0	0	0	0	0	0	0	0	0	0	-1	0	-2.0278	-17.891	16.968	0	0	0	0	0	0	0	0	0	2
5479	54.79	0	0	0	0	0	0	0	0	0	0	0	0	0	0	0	0	0	0	0	0	0	0	0	0	10.989	-10.989	19.033	0	0	0	0	0	0	0	0	0	0	0	0	0	0	0	0	0	0	0	0	0	0	-1	0	-2.0278	-17.891	16.968	0	0	0	0	0	0	0	0	0	2
5480	54.8	0	0	0	0	0	0	0	0	0	0	0	0	0	-1	0	-2.0366	-17.816	16.89	0	0	0	0	0	0	10.989	-10.989	19.033	0	0	0	1	0	0	17.883	2.027	16.961	0	0	0	0	0	0	0	0	0	0	0	0	0	-1	0	-2.0278	-17.891	16.968	0	0	0	0	0	0	0	0	0	2
5481	54.81	0	0	0	0	0	0	0	0	0	0	0	0	0	0	0	0	0	0	0	0	0	0	0	0	10.989	-10.989	19.033	0	0	0	0	0	0	0	0	0	0	0	0	0	0	0	0	0	0	0	0	0	0	-1	0	-2.0278	-17.891	16.968	0	0	0	0	0	0	0	0	0	2
5482	54.82	0	0	0	0	0	0	0	0	0	0	0	0	0	0	0	0	0	0	0	0	0	0	0	0	10.989	-10.989	19.033	0	0	0	1	0	0	17.883	2.027	16.961	0	0	0	0	0	0	0	0	0	0	0	0	1	-1	0	7.5503	-27.469	31.921	0	0	0	1	0	0	17.47	2.0148	16.554	2
5483	54.83	0	0	0	0	0	0	0	0	0	0	0	0	0	0	0	0	0	0	0	0	0	0	0	0	10.989	-10.989	19.033	0	0	0	1	0	0	17.883	2.027	16.961	0	0	0	0	0	0	0	0	0	0	0	0	0	-1	0	-2.0278	-17.891	16.968	0	0	0	0	0	0	0	0	0	2
5484	54.84	0	0	0	0	0	0	0	0	0	0	0	0	0	0	0	0	0	0	0	0	0	0	0	0	10.989	-10.989	19.033	0	0	0	1	0	0	17.761	2.1499	16.789	0	0	0	0	0	0	0	0	0	0	0	0	0	-1	0	-2.0278	-17.891	16.968	0	0	0	0	0	0	0	0	0	2
5485	54.85	0	0	0	0	0	0	0	0	0	0	0	0	0	0	0	0	0	0	0	0	0	0	0	0	10.989	-10.989	19.033	0	0	0	1	0	0	17.883	2.027	16.961	0	0	0	0	0	0	0	0	0	0	0	0	0	-1	0	-2.0278	-17.891	16.968	0	0	0	0	0	0	0	0	0	2
5486	54.86	0	0	0	0	0	0	0	0	0	0	0	0	0	0	0	0	0	0	0	0	0	0	0	0	10.989	-10.989	19.033	0	0	0	1	0	0	17.883	2.027	16.961	0	0	0	0	0	0	0	0	0	0	0	0	0	0	0	0	0	0	0	0	0	0	0	0	0	0	0	2
5487	54.87	0	0	0	0	0	0	10.917	-10.917	18.908	0	0	0	0	0	0	0	0	0	0	0	0	0	0	0	10.989	-10.989	19.033	0	0	0	1	0	0	17.883	2.027	16.961	0	0	0	0	0	0	0	0	0	0	0	0	0	-1	0	-2.0278	-17.891	16.968	0	0	0	0	0	0	0	0	0	2
5488	54.88	0	0	0	0	0	0	0	0	0	0	0	0	0	0	0	0	0	0	0	0	0	0	0	0	10.989	-10.989	19.033	0	0	0	1	0	0	17.883	2.027	16.961	0	0	0	0	0	0	0	0	0	0	0	0	0	-1	0	-2.0278	-17.891	16.968	0	0	0	0	0	0	0	0	0	2
5489	54.89	0	0	0	0	0	0	0	0	0	0	0	0	0	0	0	0	0	0	0	0	0	0	0	0	10.989	-10.989	19.033	0	0	0	1	0	0	17.883	2.027	16.961	0	0	0	0	0	0	0	0	0	0	0	0	0	-1	0	-2.0278	-17.891	16.968	0	0	0	1	0	0	17.47	2.0148	16.554	2
5490	54.9	0	0	0	0	0	0	0	0	0	0	0	0	0	0	0	0	0	0	0	0	0	0	0	0	10.989	-10.989	19.033	0	0	0	0	0	0	0	0	0	0	0	0	0	0	0	0	0	0	0	0	0	0	-1	0	-2.0278	-17.891	16.968	0	0	0	0	0	0	0	0	0	2
5491	54.91	0	0	0	0	0	0	10.917	-10.917	18.908	0	0	0	0	0	0	0	0	0	0	0	0	0	0	0	10.989	-10.989	19.033	0	0	0	1	0	0	17.883	2.027	16.961	0	0	0	0	0	0	0	0	0	0	0	0	0	-1	0	-2.0278	-17.891	16.968	0	0	0	0	0	0	0	0	0	2
5492	54.92	0	0	0	0	0	0	0	0	0	0	0	0	0	0	0	0	0	0	0	0	0	0	0	0	10.989	-10.989	19.033	0	0	0	1	0	0	17.883	2.027	16.961	0	0	0	0	0	0	0	0	0	0	0	0	0	-1	0	-2.0278	-17.891	16.968	0	0	0	0	0	0	0	0	0	2
5493	54.93	0	0	0	0	0	0	0	0	0	0	0	0	0	0	0	0	0	0	0	0	0	0	0	0	10.989	-10.989	19.033	0	0	0	0	0	0	0	0	0	0	0	0	0	0	0	0	0	0	0	0	0	1	-1	0	7.5503	-27.469	31.921	0	0	0	0	0	0	0	0	0	2
5494	54.94	0	0	0	0	0	0	10.917	-10.917	18.908	0	0	0	0	0	0	0	0	0	0	0	0	0	0	0	10.989	-10.989	19.033	0	0	0	1	0	0	17.883	2.027	16.961	0	0	0	0	0	0	0	0	0	0	0	0	0	-1	0	-2.0278	-17.891	16.968	0	0	0	1	0	0	17.47	2.0148	16.554	2
5495	54.95	0	0	0	0	0	0	0	0	0	0	0	0	0	0	0	0	0	0	0	0	0	0	0	0	10.989	-10.989	19.033	0	0	0	1	0	0	17.883	2.027	16.961	0	0	0	0	0	0	0	0	0	0	0	0	0	-1	0	-2.0278	-17.891	16.968	0	0	0	0	0	0	0	0	0	2
5496	54.96	0	0	0	0	0	0	10.917	-10.917	18.908	0	0	0	0	0	0	0	0	0	0	0	0	0	0	0	10.989	-10.989	19.033	0	0	0	1	0	0	17.883	2.027	16.961	0	0	0	0	0	0	0	0	0	0	0	0	0	-1	0	-2.0278	-17.891	16.968	0	0	0	0	0	0	10.93	-10.93	18.931	2
5497	54.97	0	0	0	0	0	0	0	0	0	0	0	0	0	0	0	0	0	0	0	0	0	0	0	0	10.989	-10.989	19.033	0	0	0	1	0	0	17.883	2.027	16.961	0	0	0	0	0	0	0	0	0	0	0	0	0	0	0	10.994	-10.994	19.042	0	0	0	0	0	0	0	0	0	2
5498	54.98	0	0	0	0	0	0	0	0	0	0	0	0	0	0	0	0	0	0	0	0	0	0	0	0	10.989	-10.989	19.033	0	0	0	0	0	0	0	0	0	0	0	0	0	0	0	0	0	0	0	0	0	0	0	0	0	0	0	0	0	0	0	0	0	0	0	0	2
5499	54.99	0	0	0	0	0	0	0	0	0	0	0	0	0	0	0	0	0	0	0	0	0	0	0	0	10.989	-10.989	19.033	0	0	0	1	0	0	17.883	2.027	16.961	0	0	0	0	0	0	0	0	0	0	0	0	0	0	0	0	0	0	0	0	0	1	0	0	17.47	2.0148	16.554	2
5500	55	0	0	0	0	0	0	0	0	0	0	0	0	0	0	0	0	0	0	0	0	0	0	0	0	10.989	-10.989	19.033	0	0	0	0	0	0	0	0	0	0	0	0	0	0	0	0	0	0	0	0	0	0	-1	0	-2.0278	-17.891	16.968	0	0	0	0	0	0	0	0	0	2
5501	55.01	0	0	0	0	0	0	10.917	-10.917	18.908	0	0	0	0	0	0	0	0	0	0	0	0	0	0	0	10.989	-10.989	19.033	0	0	0	1	0	0	17.883	2.027	16.961	0	0	0	0	0	0	0	0	0	0	0	0	0	0	0	0	0	0	0	0	0	0	0	0	0	0	0	2
5502	55.02	0	0	0	0	0	0	10.917	-10.917	18.908	0	0	0	0	0	0	0	0	0	0	0	0	0	0	0	10.989	-10.989	19.033	0	0	0	1	0	0	17.883	2.027	16.961	0	0	0	0	0	0	0	0	0	0	0	0	0	-1	0	-2.0278	-17.891	16.968	0	0	0	0	0	0	0	0	0	2
5503	55.03	0	0	0	0	0	0	0	0	0	0	0	0	0	0	0	0	0	0	0	0	0	0	0	0	10.989	-10.989	19.033	0	0	0	1	0	0	17.883	2.027	16.961	0	0	0	0	0	0	0	0	0	0	0	0	0	-1	0	-2.0278	-17.891	16.968	0	0	0	1	0	0	17.47	2.0148	16.554	2
5504	55.04	0	0	0	0	0	0	0	0	0	0	0	0	0	0	0	0	0	0	0	0	0	0	0	0	10.989	-10.989	19.033	0	0	0	1	0	0	17.883	2.027	16.961	0	0	0	0	0	0	0	0	0	0	0	0	0	0	0	0	0	0	0	0	0	0	0	0	0	0	0	2
5505	55.05	0	0	0	0	0	0	10.917	-10.917	18.908	0	0	0	0	0	0	0	0	0	0	0	0	0	0	0	10.989	-10.989	19.033	0	0	0	1	0	0	17.883	2.027	16.961	0	0	0	0	0	0	0	0	0	0	0	0	0	-1	0	-2.0278	-17.891	16.968	0	0	0	0	0	0	0	0	0	2
5506	55.06	0	0	0	0	0	0	0	0	0	0	0	0	0	0	0	0	0	0	0	0	0	0	0	0	10.989	-10.989	19.033	0	0	0	1	0	0	17.883	2.027	16.961	0	0	0	0	0	0	0	0	0	0	0	0	0	0	0	0	0	0	0	0	0	0	0	0	0	0	0	2
5507	55.07	0	0	0	0	0	0	0	0	0	0	0	0	0	0	0	0	0	0	0	0	0	0	0	0	10.989	-10.989	19.033	0	0	0	1	0	0	17.883	2.027	16.961	0	0	0	0	0	0	0	0	0	0	0	0	0	-1	0	-2.0278	-17.891	16.968	0	0	0	0	0	0	0	0	0	2
5508	55.08	0	0	0	0	0	0	10.917	-10.917	18.908	0	0	0	0	0	0	0	0	0	0	0	0	0	0	0	10.989	-10.989	19.033	0	0	0	1	0	0	17.761	2.1499	16.789	0	0	0	0	0	0	0	0	0	0	0	0	0	-1	0	-2.0278	-17.891	16.968	0	0	0	0	0	0	0	0	0	2
5509	55.09	0	0	0	0	0	0	10.917	-10.917	18.908	0	0	0	0	0	0	0	0	0	0	0	0	0	0	0	10.989	-10.989	19.033	0	0	0	1	0	0	17.883	2.027	16.961	0	0	0	0	0	0	0	0	0	0	0	0	0	-1	0	-2.0278	-17.891	16.968	0	0	0	1	0	0	17.47	2.0148	16.554	2
5510	55.1	0	0	0	0	0	0	0	0	0	0	0	0	0	0	0	0	0	0	0	0	0	0	0	0	10.989	-10.989	19.033	0	0	0	1	0	0	17.883	2.027	16.961	0	0	0	0	0	0	0	0	0	0	0	0	0	-1	0	-2.0278	-17.891	16.968	0	0	0	0	0	0	0	0	0	2
5511	55.11	0	0	0	0	0	0	0	0	0	0	0	0	0	0	0	0	0	0	0	0	0	0	0	0	10.989	-10.989	19.033	0	0	0	1	0	0	17.761	2.1499	16.789	0	0	0	0	0	0	0	0	0	0	0	0	0	-1	0	-2.0278	-17.891	16.968	0	0	0	0	0	0	0	0	0	2
5512	55.12	0	0	0	0	0	0	0	0	0	0	0	0	0	0	0	0	0	0	0	0	0	0	0	0	10.989	-10.989	19.033	0	0	0	1	0	0	17.883	2.027	16.961	0	0	0	0	0	0	0	0	0	0	0	0	0	0	0	0	0	0	0	0	0	0	0	0	0	0	0	2
5513	55.13	0	0	0	0	0	0	0	0	0	0	0	0	0	0	0	0	0	0	0	0	0	0	0	0	10.989	-10.989	19.033	0	0	0	1	0	0	17.883	2.027	16.961	0	0	0	0	0	0	0	0	0	0	0	0	1	-1	0	7.5503	-27.469	31.921	0	0	0	0	0	0	0	0	0	2
5514	55.14	0	0	0	0	0	0	10.917	-10.917	18.908	0	0	0	0	0	0	0	0	0	0	0	0	0	0	0	10.989	-10.989	19.033	0	0	0	1	0	0	17.883	2.027	16.961	0	0	0	0	0	0	0	0	0	0	0	0	0	-1	0	-2.0278	-17.891	16.968	0	0	0	0	0	0	0	0	0	2
5515	55.15	0	0	0	0	0	0	0	0	0	0	0	0	0	0	0	0	0	0	0	0	0	0	0	0	10.989	-10.989	19.033	0	0	0	1	0	0	17.883	2.027	16.961	0	0	0	0	0	0	0	0	0	0	0	0	0	0	0	0	0	0	0	0	0	0	0	0	0	0	0	2
5516	55.16	0	0	0	0	0	0	0	0	0	0	0	0	0	0	0	0	0	0	0	0	0	0	0	0	10.989	-10.989	19.033	0	0	0	1	0	0	17.883	2.027	16.961	0	0	0	0	0	0	0	0	0	0	0	0	0	-1	0	-2.0278	-17.891	16.968	0	0	0	0	0	0	0	0	0	2
5517	55.17	0	0	0	0	0	0	10.917	-10.917	18.908	0	0	0	0	-1	0	-2.0366	-17.816	16.89	0	0	0	0	0	0	10.989	-10.989	19.033	0	0	0	1	0	0	17.883	2.027	16.961	0	0	0	0	0	0	0	0	0	0	0	0	0	0	0	10.994	-10.994	19.042	0	0	0	0	0	0	0	0	0	2
5518	55.18	0	0	0	0	0	0	0	0	0	0	0	0	0	0	0	0	0	0	0	0	0	0	0	0	10.989	-10.989	19.033	0	0	0	1	0	0	17.883	2.027	16.961	0	0	0	0	0	0	0	0	0	0	0	0	0	-1	0	-2.0278	-17.891	16.968	0	0	0	0	0	0	0	0	0	2
5519	55.19	0	0	0	0	0	0	10.917	-10.917	18.908	0	0	0	0	0	0	0	0	0	0	0	0	0	0	0	10.989	-10.989	19.033	0	0	0	1	0	0	17.883	2.027	16.961	0	0	0	0	0	0	0	0	0	0	0	0	0	-1	0	-2.0278	-17.891	16.968	0	0	0	1	0	0	17.47	2.0148	16.554	2
5520	55.2	0	0	0	0	0	0	10.917	-10.917	18.908	0	0	0	0	0	0	0	0	0	0	0	0	0	0	0	10.989	-10.989	19.033	0	0	0	0	0	0	0	0	0	0	0	0	0	0	0	0	0	0	0	0	0	0	-1	0	-2.0278	-17.891	16.968	0	0	0	0	0	0	0	0	0	2
5521	55.21	0	0	0	0	0	0	0	0	0	0	0	0	0	0	0	0	0	0	0	0	0	0	0	0	10.989	-10.989	19.033	0	0	0	1	0	0	17.883	2.027	16.961	0	0	0	0	0	0	0	0	0	0	0	0	1	-1	0	7.5503	-27.469	31.921	0	0	0	0	0	0	0	0	0	2
5522	55.22	0	0	0	0	0	0	10.917	-10.917	18.908	0	0	0	0	0	0	0	0	0	0	0	0	0	0	0	10.989	-10.989	19.033	0	0	0	1	0	0	17.883	2.027	16.961	0	0	0	0	0	0	0	0	0	0	0	0	0	0	0	10.994	-10.994	19.042	0	0	0	0	0	0	0	0	0	2
5523	55.23	0	0	0	0	0	0	0	0	0	0	0	0	0	0	0	0	0	0	0	0	0	0	0	0	10.989	-10.989	19.033	0	0	0	0	0	0	0	0	0	0	0	0	0	0	0	0	0	0	0	0	0	0	-1	0	-2.0278	-17.891	16.968	0	0	0	0	0	0	0	0	0	2
5524	55.24	0	0	0	0	0	0	10.917	-10.917	18.908	0	0	0	0	0	0	0	0	0	0	0	0	0	0	0	10.989	-10.989	19.033	0	0	0	1	0	0	17.883	2.027	16.961	0	0	0	0	0	0	0	0	0	0	0	0	0	-1	0	-2.0278	-17.891	16.968	0	0	0	0	0	0	0	0	0	2
5525	55.25	0	0	0	0	0	0	0	0	0	0	0	0	0	0	0	0	0	0	0	0	0	0	0	0	10.989	-10.989	19.033	0	0	0	0	0	0	0	0	0	0	0	0	0	0	0	0	0	0	0	0	0	0	-1	0	-2.0278	-17.891	16.968	0	0	0	0	0	0	0	0	0	2
5526	55.26	0	0	0	0	0	0	10.917	-10.917	18.908	0	0	0	0	0	0	0	0	0	0	0	0	0	0	0	10.989	-10.989	19.033	0	0	0	1	0	0	17.883	2.027	16.961	0	0	0	0	0	0	0	0	0	0	0	0	0	-1	0	-2.0278	-17.891	16.968	0	0	0	0	0	0	0	0	0	2
5527	55.27	0	0	0	0	0	0	10.917	-10.917	18.908	0	0	0	0	0	0	0	0	0	0	0	0	0	0	0	10.989	-10.989	19.033	0	0	0	0	0	0	0	0	0	0	0	0	0	0	0	0	0	0	0	0	0	0	0	0	0	0	0	0	0	0	0	0	0	0	0	0	2
5528	55.28	0	0	0	0	0	0	0	0	0	0	0	0	0	0	0	0	0	0	0	0	0	0	0	0	10.989	-10.989	19.033	0	0	0	0	0	0	0	0	0	0	0	0	0	0	0	0	0	0	0	0	0	0	0	0	0	0	0	0	0	0	0	0	0	0	0	0	2
5529	55.29	0	0	0	0	0	0	0	0	0	0	0	0	0	0	0	0	0	0	0	0	0	0	0	0	10.989	-10.989	19.033	0	0	0	1	0	0	17.883	2.027	16.961	0	0	0	0	0	0	0	0	0	0	0	0	1	-1	0	7.5503	-27.469	31.921	0	0	0	1	0	0	17.47	2.0148	16.554	2
5530	55.3	0	0	0	0	0	0	0	0	0	0	0	0	0	0	0	0	0	0	0	0	0	0	0	0	10.989	-10.989	19.033	0	0	0	1	0	0	17.883	2.027	16.961	0	0	0	0	0	0	0	0	0	0	0	0	0	-1	0	-2.0278	-17.891	16.968	0	0	0	0	0	0	0	0	0	2
5531	55.31	0	0	0	0	0	0	0	0	0	0	0	0	0	0	0	0	0	0	0	0	0	0	0	0	0	0	0	0	0	0	1	0	0	17.883	2.027	16.961	0	0	0	0	0	0	0	0	0	0	0	0	0	0	0	0	0	0	0	0	0	0	0	0	0	0	0	2
5532	55.32	0	0	0	0	0	0	0	0	0	0	0	0	0	0	0	0	0	0	0	0	0	0	0	0	10.989	-10.989	19.033	0	0	0	0	0	0	0	0	0	0	0	0	0	0	0	0	0	0	0	0	0	1	-1	0	7.5503	-27.469	31.921	0	0	0	0	0	0	0	0	0	2
5533	55.33	0	0	0	0	-1	0	-2.0364	-17.814	16.888	0	0	0	0	0	0	0	0	0	0	0	0	0	0	0	10.989	-10.989	19.033	0	0	0	0	0	0	10.991	-10.991	19.037	0	0	0	0	0	0	0	0	0	0	0	0	0	0	0	0	0	0	0	0	0	0	0	0	0	0	0	2
5534	55.34	0	0	0	0	0	0	0	0	0	0	0	0	0	0	0	0	0	0	0	0	0	0	0	0	10.989	-10.989	19.033	0	0	0	0	0	0	0	0	0	0	0	0	0	0	0	0	0	0	0	0	0	0	-1	0	-2.0278	-17.891	16.968	0	0	0	0	0	0	0	0	0	2
5535	55.35	0	0	0	0	0	0	10.917	-10.917	18.908	0	0	0	0	0	0	0	0	0	0	0	0	0	0	0	0	0	0	0	0	0	1	0	0	17.883	2.027	16.961	0	0	0	0	0	0	0	0	0	0	0	0	0	0	0	0	0	0	0	0	0	0	0	0	0	0	0	2
5536	55.36	0	0	0	0	0	0	10.917	-10.917	18.908	0	0	0	0	0	0	0	0	0	0	0	0	0	0	0	10.989	-10.989	19.033	0	0	0	1	0	0	17.883	2.027	16.961	0	0	0	0	0	0	0	0	0	0	0	0	0	-1	0	-2.0278	-17.891	16.968	0	0	0	0	0	0	0	0	0	2
5537	55.37	0	0	0	0	0	0	0	0	0	0	0	0	0	0	0	0	0	0	0	0	0	0	0	0	10.989	-10.989	19.033	0	0	0	0	0	0	0	0	0	0	0	0	0	0	0	0	0	0	0	0	0	0	-1	0	-2.0278	-17.891	16.968	0	0	0	0	0	0	0	0	0	0
5538	55.38	0	0	0	0	0	0	0	0	0	0	0	0	0	0	0	0	0	0	0	0	0	0	0	0	0	0	0	0	0	0	1	0	0	17.883	2.027	16.961	0	0	0	0	0	0	0	0	0	0	0	0	0	0	0	0	0	0	0	0	0	0	0	0	0	0	0	2
5539	55.39	0	0	0	0	0	0	10.917	-10.917	18.908	0	0	0	0	0	0	0	0	0	0	0	0	0	0	0	10.989	-10.989	19.033	0	0	0	1	0	0	17.883	2.027	16.961	0	0	0	0	0	0	0	0	0	0	0	0	0	-1	0	-2.0278	-17.891	16.968	0	0	0	0	0	0	0	0	0	2
5540	55.4	0	0	0	0	0	0	0	0	0	0	0	0	0	0	0	0	0	0	0	0	0	0	0	0	10.989	-10.989	19.033	0	0	0	1	0	0	17.883	2.027	16.961	0	0	0	0	0	0	0	0	0	0	0	0	0	0	0	0	0	0	0	0	0	0	0	0	0	0	0	2
5541	55.41	0	0	0	0	0	0	0	0	0	0	0	0	0	0	0	0	0	0	0	0	0	0	0	0	10.989	-10.989	19.033	0	0	0	1	0	0	17.883	2.027	16.961	0	0	0	0	0	0	0	0	0	0	0	0	1	-1	0	7.5503	-27.469	31.921	0	0	0	0	0	0	0	0	0	2
5542	55.42	0	0	0	0	0	0	0	0	0	0	0	0	0	0	0	0	0	0	0	0	0	0	0	0	10.989	-10.989	19.033	0	0	0	0	0	0	10.991	-10.991	19.037	0	0	0	0	0	0	0	0	0	0	0	0	1	-1	0	7.5503	-27.469	31.921	0	0	0	0	0	0	0	0	0	2
5543	55.43	0	0	0	0	0	0	0	0	0	0	0	0	0	0	0	0	0	0	0	0	0	0	0	0	0	0	0	0	0	0	1	0	0	17.883	2.027	16.961	0	0	0	0	0	0	0	0	0	0	0	0	0	0	0	0	0	0	0	0	0	0	0	0	0	0	0	2
5544	55.44	0	0	0	0	0	0	0	0	0	0	0	0	0	0	0	0	0	0	0	0	0	0	0	0	10.989	-10.989	19.033	0	0	0	1	0	0	17.883	2.027	16.961	0	0	0	0	0	0	0	0	0	0	0	0	1	-1	0	7.5503	-27.469	31.921	0	0	0	1	0	0	17.47	2.0148	16.554	2
5545	55.45	0	0	0	0	0	0	10.917	-10.917	18.908	0	0	0	0	0	0	0	0	0	0	0	0	0	0	0	10.989	-10.989	19.033	0	0	0	1	0	0	17.883	2.027	16.961	0	0	0	0	0	0	0	0	0	0	0	0	0	-1	0	-2.0278	-17.891	16.968	0	0	0	0	0	0	0	0	0	2
5546	55.46	0	0	0	0	0	0	0	0	0	0	0	0	0	0	0	0	0	0	0	0	0	0	0	0	10.989	-10.989	19.033	0	0	0	1	0	0	17.883	2.027	16.961	0	0	0	0	0	0	0	0	0	0	0	0	0	-1	0	-2.0278	-17.891	16.968	0	0	0	0	0	0	0	0	0	2
5547	55.47	0	0	0	0	0	0	0	0	0	0	0	0	0	0	0	0	0	0	0	0	0	0	0	0	10.989	-10.989	19.033	0	0	0	0	0	0	0	0	0	0	0	0	0	0	0	0	0	0	0	0	0	0	-1	0	-2.0278	-17.891	16.968	0	0	0	0	0	0	0	0	0	0
5548	55.48	0	0	0	0	0	0	0	0	0	0	0	0	0	0	0	0	0	0	0	0	0	0	0	0	10.989	-10.989	19.033	0	0	0	1	0	0	17.883	2.027	16.961	0	0	0	0	0	0	0	0	0	0	0	0	0	-1	0	-2.0278	-17.891	16.968	0	0	0	0	0	0	0	0	0	3
5549	55.49	0	0	0	0	0	0	0	0	0	0	0	0	0	0	0	0	0	0	0	0	0	0	0	0	0	0	0	0	0	0	1	0	0	17.883	2.027	16.961	0	0	0	1	0	0	17.883	2.027	16.961	0	0	0	0	-1	0	-2.0278	-17.891	16.968	0	0	0	1	0	0	17.482	2.0162	16.566	2
5550	55.5	0	0	0	0	0	0	0	0	0	0	0	0	0	0	0	0	0	0	0	0	0	0	0	0	10.989	-10.989	19.033	0	0	0	1	0	0	17.883	2.027	16.961	0	0	0	0	0	0	0	0	0	0	0	0	0	-1	0	-2.0278	-17.891	16.968	0	0	0	0	0	0	0	0	0	2
5551	55.51	0	0	0	0	0	0	10.917	-10.917	18.908	0	0	0	0	0	0	0	0	0	0	0	0	0	0	0	10.989	-10.989	19.033	0	0	0	1	0	0	17.761	2.1499	16.789	0	0	0	0	0	0	0	0	0	0	0	0	0	0	0	0	0	0	0	0	0	0	0	0	0	0	0	2
5552	55.52	0	0	0	0	0	0	0	0	0	0	0	0	0	0	0	0	0	0	0	0	0	0	0	0	10.989	-10.989	19.033	0	0	0	0	0	0	0	0	0	0	0	0	0	0	0	0	0	0	0	0	0	0	0	0	0	0	0	0	0	0	1	0	0	17.47	2.0148	16.554	2
5553	55.53	0	0	0	0	0	0	0	0	0	0	0	0	0	0	0	0	0	0	0	0	0	0	0	0	10.989	-10.989	19.033	0	0	0	1	0	0	17.883	2.027	16.961	0	0	0	0	0	0	0	0	0	0	0	0	0	-1	0	-2.0278	-17.891	16.968	0	0	0	0	0	0	0	0	0	2
5554	55.54	0	0	0	0	0	0	0	0	0	0	0	0	0	0	0	0	0	0	0	0	0	0	0	0	10.989	-10.989	19.033	0	0	0	1	0	0	17.883	2.027	16.961	0	0	0	0	0	0	0	0	0	0	0	0	0	0	0	0	0	0	0	0	0	0	0	0	0	0	0	2
5555	55.55	0	0	0	0	0	0	0	0	0	0	0	0	0	0	0	0	0	0	0	0	0	0	0	0	10.989	-10.989	19.033	0	0	0	1	0	0	17.883	2.027	16.961	0	0	0	0	0	0	0	0	0	0	0	0	0	-1	0	-2.0278	-17.891	16.968	0	0	0	0	0	0	0	0	0	2
5556	55.56	0	0	0	0	0	0	0	0	0	0	0	0	0	0	0	0	0	0	0	0	0	0	0	0	10.989	-10.989	19.033	0	0	0	0	0	0	0	0	0	0	0	0	0	0	0	0	0	0	0	0	0	1	-1	0	7.5503	-27.469	31.921	0	0	0	0	0	0	0	0	0	2
5557	55.57	0	0	0	0	0	0	0	0	0	0	0	0	0	0	0	0	0	0	0	0	0	0	0	0	10.989	-10.989	19.033	0	0	0	1	0	0	17.761	2.1499	16.789	0	0	0	0	0	0	0	0	0	0	0	0	1	-1	0	7.5503	-27.469	31.921	0	0	0	0	0	0	0	0	0	2
5558	55.58	0	0	0	0	0	0	0	0	0	0	0	0	0	0	0	0	0	0	0	0	0	0	0	0	0	0	0	0	0	0	0	0	0	0	0	0	0	0	0	0	0	0	0	0	0	0	0	0	0	0	0	0	0	0	0	0	0	0	0	0	0	0	0	2
5559	55.59	0	0	0	0	0	0	10.917	-10.917	18.908	0	0	0	0	0	0	0	0	0	0	0	0	0	0	0	10.989	-10.989	19.033	0	0	0	1	0	0	17.883	2.027	16.961	0	0	0	0	0	0	0	0	0	0	0	0	0	-1	0	-2.0278	-17.891	16.968	0	0	0	0	0	0	0	0	0	2
5560	55.6	0	0	0	0	0	0	0	0	0	0	0	0	0	0	0	0	0	0	0	0	0	0	0	0	10.989	-10.989	19.033	0	0	0	1	0	0	17.883	2.027	16.961	0	0	0	0	0	0	0	0	0	0	0	0	0	-1	0	-2.0278	-17.891	16.968	0	0	0	0	0	0	0	0	0	2
5561	55.61	0	0	0	0	0	0	10.917	-10.917	18.908	0	0	0	0	0	0	0	0	0	0	0	0	0	0	0	10.989	-10.989	19.033	0	0	0	1	0	0	17.761	2.1499	16.789	0	0	0	0	0	0	0	0	0	0	0	0	0	0	0	10.994	-10.994	19.042	0	0	0	0	0	0	0	0	0	2
5562	55.62	0	0	0	0	0	0	0	0	0	0	0	0	0	0	0	0	0	0	0	0	0	0	0	0	10.989	-10.989	19.033	0	0	0	1	0	0	17.883	2.027	16.961	0	0	0	0	0	0	0	0	0	0	0	0	0	-1	0	-2.0278	-17.891	16.968	0	0	0	0	0	0	0	0	0	2
5563	55.63	0	0	0	0	0	0	0	0	0	0	0	0	0	0	0	0	0	0	0	0	0	0	0	0	10.989	-10.989	19.033	0	0	0	0	0	0	10.991	-10.991	19.037	0	0	0	0	0	0	0	0	0	0	0	0	0	0	0	0	0	0	0	0	0	0	0	0	0	0	0	2
5564	55.64	0	0	0	0	0	0	10.917	-10.917	18.908	0	0	0	0	0	0	0	0	0	0	0	0	0	0	0	10.989	-10.989	19.033	0	0	0	1	0	0	17.761	2.1499	16.789	0	0	0	0	0	0	0	0	0	0	0	0	0	0	0	10.994	-10.994	19.042	0	0	0	0	0	0	0	0	0	2
5565	55.65	0	0	0	0	0	0	0	0	0	0	0	0	0	0	0	0	0	0	0	0	0	0	0	0	10.989	-10.989	19.033	0	0	0	1	0	0	17.883	2.027	16.961	0	0	0	0	0	0	0	0	0	0	0	0	0	-1	0	-2.0278	-17.891	16.968	0	0	0	0	0	0	0	0	0	2
5566	55.66	0	0	0	0	0	0	0	0	0	0	0	0	0	0	0	0	0	0	0	0	0	0	0	0	10.989	-10.989	19.033	0	0	0	1	0	0	17.883	2.027	16.961	0	0	0	0	0	0	0	0	0	0	0	0	0	-1	0	-2.0278	-17.891	16.968	0	0	0	0	0	0	0	0	0	2
5567	55.67	0	0	0	0	0	0	0	0	0	0	0	0	0	0	0	0	0	0	0	0	0	0	0	0	0	0	0	0	0	0	0	0	0	0	0	0	0	0	0	0	0	0	0	0	0	0	0	0	0	-1	0	-2.0278	-17.891	16.968	0	0	0	0	0	0	0	0	0	3
5568	55.68	0	0	0	0	-1	0	-2.0364	-17.814	16.888	0	0	0	0	0	0	0	0	0	0	0	0	0	0	0	0	0	0	0	0	0	0	0	0	0	0	0	0	0	0	0	0	0	0	0	0	0	0	0	0	0	0	0	0	0	0	0	0	0	0	0	0	0	0	2
5569	55.69	0	0	0	0	0	0	0	0	0	0	0	0	0	0	0	0	0	0	0	0	0	0	0	0	10.989	-10.989	19.033	0	0	0	1	0	0	17.761	2.1499	16.789	0	0	0	0	0	0	0	0	0	0	0	0	0	-1	0	-2.0278	-17.891	16.968	0	0	0	0	0	0	0	0	0	2
5570	55.7	0	0	0	0	0	0	0	0	0	0	0	0	0	0	0	0	0	0	0	0	0	0	0	0	10.989	-10.989	19.033	0	0	0	0	0	0	0	0	0	0	0	0	0	0	0	0	0	0	0	0	0	0	-1	0	-2.0278	-17.891	16.968	0	0	0	0	0	0	0	0	0	2
5571	55.71	0	0	0	0	0	0	10.917	-10.917	18.908	0	0	0	0	0	0	0	0	0	0	0	0	0	0	0	10.989	-10.989	19.033	0	0	0	0	0	0	0	0	0	0	0	0	0	0	0	0	0	0	0	0	0	1	-1	0	7.5503	-27.469	31.921	0	0	0	0	0	0	0	0	0	2
5572	55.72	0	0	0	0	0	0	0	0	0	0	0	0	0	0	0	0	0	0	0	0	0	0	0	0	10.989	-10.989	19.033	0	0	0	1	0	0	17.883	2.027	16.961	0	0	0	0	0	0	0	0	0	0	0	0	0	-1	0	-2.0278	-17.891	16.968	0	0	0	0	0	0	0	0	0	2
5573	55.73	0	0	0	0	0	0	0	0	0	0	0	0	0	0	0	0	0	0	0	0	0	0	0	0	10.989	-10.989	19.033	0	0	0	1	0	0	17.883	2.027	16.961	0	0	0	0	0	0	0	0	0	0	0	0	1	-1	0	7.5503	-27.469	31.921	0	0	0	0	0	0	0	0	0	2
5574	55.74	0	0	0	0	0	0	10.917	-10.917	18.908	0	0	0	0	0	0	0	0	0	0	0	0	0	0	0	10.989	-10.989	19.033	0	0	0	0	0	0	0	0	0	0	0	0	0	0	0	0	0	0	0	0	0	0	-1	0	-2.0278	-17.891	16.968	0	0	0	0	0	0	0	0	0	2
5575	55.75	0	0	0	0	0	0	0	0	0	0	0	0	0	0	0	0	0	0	0	0	0	0	0	0	0	0	0	0	0	0	0	0	0	0	0	0	0	0	0	0	0	0	0	0	0	0	0	0	0	-1	0	-2.0278	-17.891	16.968	0	0	0	0	0	0	0	0	0	2
5576	55.76	0	0	0	0	0	0	0	0	0	0	0	0	0	0	0	0	0	0	0	0	0	0	0	0	10.989	-10.989	19.033	0	0	0	1	0	0	17.883	2.027	16.961	0	0	0	0	0	0	0	0	0	0	0	0	0	-1	0	-2.0278	-17.891	16.968	0	0	0	0	0	0	0	0	0	2
5577	55.77	0	0	0	0	0	0	10.917	-10.917	18.908	0	0	0	0	0	0	0	0	0	0	0	0	0	0	0	10.989	-10.989	19.033	0	0	0	1	0	0	17.883	2.027	16.961	0	0	0	0	0	0	0	0	0	0	0	0	0	-1	0	-2.0278	-17.891	16.968	0	0	0	0	0	0	0	0	0	2
5578	55.78	0	0	0	0	0	0	0	0	0	0	0	0	0	0	0	0	0	0	0	0	0	0	0	0	10.989	-10.989	19.033	0	0	0	1	0	0	17.883	2.027	16.961	0	0	0	0	0	0	0	0	0	0	0	0	0	-1	0	-2.0278	-17.891	16.968	0	0	0	0	0	0	0	0	0	2
5579	55.79	0	0	0	0	0	0	10.917	-10.917	18.908	0	0	0	0	0	0	0	0	0	0	0	0	0	0	0	10.989	-10.989	19.033	0	0	0	1	0	0	17.883	2.027	16.961	0	0	0	0	0	0	0	0	0	0	0	0	0	0	0	10.994	-10.994	19.042	0	0	0	0	0	0	0	0	0	2
5580	55.8	0	0	0	0	0	0	0	0	0	0	0	0	0	0	0	0	0	0	0	0	0	0	0	0	10.989	-10.989	19.033	0	0	0	0	0	0	0	0	0	0	0	0	0	0	0	0	0	0	0	0	0	0	-1	0	-2.0278	-17.891	16.968	0	0	0	0	0	0	0	0	0	2
5581	55.81	0	0	0	0	0	0	0	0	0	0	0	0	0	0	0	0	0	0	0	0	0	0	0	0	0	0	0	0	0	0	1	0	0	17.883	2.027	16.961	0	0	0	0	0	0	0	0	0	0	0	0	1	-1	0	7.5503	-27.469	31.921	0	0	0	0	0	0	0	0	0	2
5582	55.82	0	0	0	0	0	0	0	0	0	0	0	0	0	0	0	0	0	0	0	0	0	0	0	0	10.989	-10.989	19.033	0	0	0	1	0	0	17.883	2.027	16.961	0	0	0	0	0	0	0	0	0	0	0	0	0	0	0	0	0	0	0	0	0	0	0	0	0	0	0	2
5583	55.83	0	0	0	0	-1	0	-2.0364	-17.814	16.888	0	0	0	0	0	0	0	0	0	0	0	0	0	0	0	10.989	-10.989	19.033	0	0	0	1	0	0	17.883	2.027	16.961	0	0	0	0	0	0	0	0	0	0	0	0	1	-1	0	7.5503	-27.469	31.921	0	0	0	0	0	0	0	0	0	2
5584	55.84	0	0	0	0	0	0	10.917	-10.917	18.908	0	0	0	0	0	0	0	0	0	0	0	0	0	0	0	10.989	-10.989	19.033	0	0	0	1	0	0	17.761	2.1499	16.789	0	0	0	0	0	0	0	0	0	0	0	0	0	0	0	0	0	0	0	0	0	1	0	0	17.47	2.0148	16.554	2
5585	55.85	0	0	0	0	0	0	0	0	0	0	0	0	0	0	0	0	0	0	0	0	0	0	0	0	10.989	-10.989	19.033	0	0	0	1	0	0	17.883	2.027	16.961	0	0	0	0	0	0	0	0	0	0	0	0	1	-1	0	7.5503	-27.469	31.921	0	0	0	0	0	0	0	0	0	2
5586	55.86	0	0	0	0	0	0	0	0	0	0	0	0	0	0	0	0	0	0	0	0	0	0	0	0	10.989	-10.989	19.033	0	0	0	1	0	0	17.761	2.1499	16.789	0	0	0	0	0	0	0	0	0	0	0	0	1	-1	0	7.5503	-27.469	31.921	0	0	0	0	0	0	0	0	0	2
5587	55.87	0	0	0	0	0	0	0	0	0	0	0	0	0	0	0	0	0	0	0	0	0	0	0	0	10.989	-10.989	19.033	0	0	0	1	0	0	17.883	2.027	16.961	0	0	0	0	0	0	0	0	0	0	0	0	0	-1	0	-2.0278	-17.891	16.968	0	0	0	0	0	0	0	0	0	2
5588	55.88	0	0	0	0	-1	0	-2.0364	-17.814	16.888	0	0	0	0	0	0	0	0	0	0	0	0	0	0	0	0	0	0	0	0	0	0	0	0	0	0	0	0	0	0	0	0	0	0	0	0	0	0	0	0	0	0	0	0	0	0	0	0	0	0	0	0	0	0	2
5589	55.89	0	0	0	0	0	0	0	0	0	0	0	0	0	0	0	0	0	0	0	0	0	0	0	0	10.989	-10.989	19.033	0	0	0	1	0	0	17.761	2.1499	16.789	0	0	0	0	0	0	0	0	0	0	0	0	1	-1	0	7.5503	-27.469	31.921	0	0	0	0	0	0	0	0	0	2
5590	55.9	0	0	0	0	0	0	0	0	0	0	0	0	0	0	0	0	0	0	0	0	0	0	0	0	10.989	-10.989	19.033	0	0	0	1	0	0	17.883	2.027	16.961	0	0	0	0	0	0	0	0	0	0	0	0	0	-1	0	-2.0278	-17.891	16.968	0	0	0	0	0	0	0	0	0	2
5591	55.91	0	0	0	0	0	0	0	0	0	0	0	0	0	0	0	0	0	0	0	0	0	0	0	0	10.989	-10.989	19.033	0	0	0	1	0	0	17.883	2.027	16.961	0	0	0	0	0	0	0	0	0	0	0	0	0	0	0	0	0	0	0	0	0	0	0	0	0	0	0	2
5592	55.92	0	0	0	0	0	0	0	0	0	0	0	0	0	0	0	0	0	0	0	0	0	0	0	0	10.989	-10.989	19.033	0	0	0	1	0	0	17.883	2.027	16.961	0	0	0	0	0	0	0	0	0	0	0	0	0	-1	0	-2.0278	-17.891	16.968	0	0	0	0	0	0	0	0	0	2
5593	55.93	0	0	0	0	0	0	0	0	0	0	0	0	0	0	0	0	0	0	0	0	0	0	0	0	0	0	0	0	0	0	0	0	0	0	0	0	0	0	0	0	0	0	0	0	0	0	0	0	0	-1	0	-2.0278	-17.891	16.968	0	0	0	0	0	0	0	0	0	2
5594	55.94	0	0	0	0	0	0	10.917	-10.917	18.908	0	0	0	0	0	0	0	0	0	0	0	0	0	0	0	10.989	-10.989	19.033	0	0	0	0	0	0	10.991	-10.991	19.037	0	0	0	0	0	0	0	0	0	0	0	0	0	0	0	0	0	0	0	0	0	0	0	0	0	0	0	2
5595	55.95	0	0	0	0	0	0	0	0	0	0	0	0	0	0	0	0	0	0	0	0	0	0	0	0	10.989	-10.989	19.033	0	0	0	1	0	0	17.883	2.027	16.961	0	0	0	0	0	0	0	0	0	0	0	0	0	-1	0	-2.0278	-17.891	16.968	0	0	0	0	0	0	0	0	0	2
5596	55.96	0	0	0	0	0	0	0	0	0	0	0	0	0	0	0	0	0	0	0	0	0	0	0	0	10.989	-10.989	19.033	0	0	0	0	0	0	0	0	0	0	0	0	0	0	0	0	0	0	0	0	0	0	0	0	10.994	-10.994	19.042	0	0	0	0	0	0	0	0	0	2
5597	55.97	0	0	0	0	0	0	0	0	0	0	0	0	0	0	0	0	0	0	0	0	0	0	0	0	10.989	-10.989	19.033	0	0	0	1	0	0	17.883	2.027	16.961	0	0	0	0	0	0	0	0	0	0	0	0	0	-1	0	-2.0278	-17.891	16.968	0	0	0	0	0	0	0	0	0	2
5598	55.98	0	0	0	0	0	0	0	0	0	0	0	0	0	0	0	0	0	0	0	0	0	0	0	0	10.989	-10.989	19.033	0	0	0	0	0	0	0	0	0	0	0	0	0	0	0	0	0	0	0	0	0	0	0	0	0	0	0	0	0	0	0	0	0	0	0	0	2
5599	55.99	0	0	0	0	0	0	0	0	0	0	0	0	0	0	0	0	0	0	0	0	0	0	0	0	10.989	-10.989	19.033	0	0	0	1	0	0	17.761	2.1499	16.789	0	0	0	0	0	0	0	0	0	0	0	0	1	-1	0	7.5503	-27.469	31.921	0	0	0	0	0	0	0	0	0	2
5600	56	0	0	0	0	0	0	0	0	0	0	0	0	0	0	0	0	0	0	0	0	0	0	0	0	10.989	-10.989	19.033	0	0	0	1	0	0	17.883	2.027	16.961	0	0	0	0	0	0	0	0	0	0	0	0	0	0	0	0	0	0	0	0	0	0	0	0	0	0	0	2
5601	56.01	0	0	0	0	0	0	0	0	0	0	0	0	0	0	0	0	0	0	0	0	0	0	0	0	10.989	-10.989	19.033	0	0	0	1	0	0	17.883	2.027	16.961	0	0	0	0	0	0	0	0	0	0	0	0	0	-1	0	-2.0278	-17.891	16.968	0	0	0	0	0	0	0	0	0	2
5602	56.02	0	0	0	0	0	0	0	0	0	0	0	0	0	0	0	0	0	0	0	0	0	0	0	0	10.989	-10.989	19.033	0	0	0	1	0	0	17.883	2.027	16.961	0	0	0	0	0	0	0	0	0	0	0	0	0	-1	0	-2.0278	-17.891	16.968	0	0	0	0	0	0	0	0	0	2
5603	56.03	0	0	0	0	0	0	0	0	0	0	0	0	0	0	0	0	0	0	0	0	0	0	0	0	10.989	-10.989	19.033	0	0	0	0	0	0	0	0	0	0	0	0	0	0	0	0	0	0	0	0	0	0	-1	0	-2.0278	-17.891	16.968	0	0	0	0	0	0	0	0	0	2
5604	56.04	0	0	0	0	0	0	0	0	0	0	0	0	0	0	0	0	0	0	0	0	0	0	0	0	0	0	0	0	0	0	1	0	0	17.883	2.027	16.961	0	0	0	0	0	0	0	0	0	0	0	0	0	0	0	0	0	0	0	0	0	0	0	0	0	0	0	2
5605	56.05	0	0	0	0	0	0	0	0	0	0	0	0	0	0	0	0	0	0	0	0	0	0	0	0	10.989	-10.989	19.033	0	0	0	1	0	0	17.883	2.027	16.961	0	0	0	0	0	0	0	0	0	0	0	0	1	-1	0	7.5503	-27.469	31.921	0	0	0	0	0	0	0	0	0	2
5606	56.06	0	0	0	0	0	0	10.917	-10.917	18.908	0	0	0	0	0	0	0	0	0	0	0	0	0	0	0	10.989	-10.989	19.033	0	0	0	0	0	0	0	0	0	0	0	0	0	0	0	0	0	0	0	0	0	0	0	0	10.994	-10.994	19.042	0	0	0	0	0	0	0	0	0	2
5607	56.07	0	0	0	0	0	0	0	0	0	0	0	0	0	0	0	0	0	0	0	0	0	0	0	0	10.989	-10.989	19.033	0	0	0	1	0	0	17.761	2.1499	16.789	0	0	0	0	0	0	0	0	0	0	0	0	0	0	0	0	0	0	0	0	0	0	0	0	0	0	0	2
5608	56.08	0	0	0	0	-1	0	-2.0364	-17.814	16.888	0	0	0	0	0	0	0	0	0	0	0	0	0	0	0	10.989	-10.989	19.033	0	0	0	1	0	0	17.883	2.027	16.961	0	0	0	0	0	0	0	0	0	0	0	0	1	-1	0	7.5503	-27.469	31.921	0	0	0	0	0	0	0	0	0	2
5609	56.09	0	0	0	0	0	0	0	0	0	0	0	0	0	0	0	0	0	0	0	0	0	0	0	0	10.989	-10.989	19.033	0	0	0	1	0	0	17.761	2.1499	16.789	0	0	0	0	0	0	0	0	0	0	0	0	1	-1	0	7.5503	-27.469	31.921	0	0	0	1	0	0	17.482	2.0162	16.566	2
5610	56.1	0	0	0	0	0	0	0	0	0	0	0	0	0	0	0	0	0	0	0	0	0	0	0	0	10.989	-10.989	19.033	0	0	0	1	0	0	17.883	2.027	16.961	0	0	0	0	0	0	0	0	0	0	0	0	0	-1	0	-2.0278	-17.891	16.968	0	0	0	0	0	0	0	0	0	2
5611	56.11	0	0	0	0	0	0	10.917	-10.917	18.908	0	0	0	0	0	0	0	0	0	0	0	0	0	0	0	10.989	-10.989	19.033	0	0	0	0	0	0	0	0	0	0	0	0	0	0	0	0	0	0	0	0	0	0	-1	0	-2.0278	-17.891	16.968	0	0	0	0	0	0	0	0	0	2
5612	56.12	0	0	0	0	0	0	0	0	0	0	0	0	0	0	0	0	0	0	0	0	0	0	0	0	10.989	-10.989	19.033	0	0	0	1	0	0	17.883	2.027	16.961	0	0	0	0	0	0	0	0	0	0	0	0	0	-1	0	-2.0278	-17.891	16.968	0	0	0	0	0	0	0	0	0	2
5613	56.13	0	0	0	0	0	0	0	0	0	0	0	0	0	0	0	0	0	0	0	0	0	0	0	0	10.989	-10.989	19.033	0	0	0	1	0	0	17.883	2.027	16.961	0	0	0	0	0	0	0	0	0	0	0	0	0	-1	0	-2.0278	-17.891	16.968	0	0	0	0	0	0	0	0	0	2
5614	56.14	0	0	0	0	0	0	0	0	0	0	0	0	0	0	0	0	0	0	0	0	0	0	0	0	10.989	-10.989	19.033	0	0	0	1	0	0	17.883	2.027	16.961	0	0	0	0	0	0	0	0	0	0	0	0	0	-1	0	-2.0278	-17.891	16.968	0	0	0	0	0	0	0	0	0	2
5615	56.15	0	0	0	0	0	0	0	0	0	0	0	0	0	0	0	0	0	0	0	0	0	0	0	0	0	0	0	0	0	0	1	0	0	17.883	2.027	16.961	0	0	0	0	0	0	0	0	0	0	0	0	1	-1	0	7.5503	-27.469	31.921	0	0	0	0	0	0	0	0	0	2
5616	56.16	0	0	0	0	0	0	0	0	0	0	0	0	0	0	0	0	0	0	0	0	0	0	0	0	10.989	-10.989	19.033	0	0	0	0	0	0	10.991	-10.991	19.037	0	0	0	0	0	0	0	0	0	0	0	0	0	0	0	0	0	0	0	0	0	0	0	0	0	0	0	2
5617	56.17	0	0	0	0	0	0	0	0	0	0	0	0	0	0	0	0	0	0	0	0	0	0	0	0	10.989	-10.989	19.033	0	0	0	1	0	0	17.883	2.027	16.961	0	0	0	0	0	0	0	0	0	0	0	0	0	-1	0	-2.0278	-17.891	16.968	0	0	0	0	0	0	0	0	0	2
5618	56.18	0	0	0	0	0	0	0	0	0	0	0	0	0	0	0	0	0	0	0	0	0	0	0	0	10.989	-10.989	19.033	0	0	0	1	0	0	17.883	2.027	16.961	0	0	0	0	0	0	0	0	0	0	0	0	0	-1	0	-2.0278	-17.891	16.968	0	0	0	0	0	0	0	0	0	2
5619	56.19	0	0	0	0	-1	0	-2.0364	-17.814	16.888	0	0	0	0	0	0	0	0	0	0	0	0	0	0	0	10.989	-10.989	19.033	0	0	0	1	0	0	17.761	2.1499	16.789	0	0	0	0	0	0	0	0	0	0	0	0	0	-1	0	-2.0278	-17.891	16.968	0	0	0	0	0	0	0	0	0	2
5620	56.2	0	0	0	0	0	0	10.917	-10.917	18.908	0	0	0	0	0	0	0	0	0	0	0	0	0	0	0	10.989	-10.989	19.033	0	0	0	1	0	0	17.883	2.027	16.961	0	0	0	0	0	0	0	0	0	0	0	0	0	0	0	0	0	0	0	0	0	0	0	0	0	0	0	2
5621	56.21	0	0	0	0	0	0	10.917	-10.917	18.908	0	0	0	0	0	0	0	0	0	0	0	0	0	0	0	10.989	-10.989	19.033	0	0	0	1	0	0	17.761	2.1499	16.789	0	0	0	0	0	0	0	0	0	0	0	0	0	-1	0	-2.0278	-17.891	16.968	0	0	0	0	0	0	0	0	0	2
5622	56.22	0	0	0	0	0	0	0	0	0	0	0	0	0	0	0	0	0	0	0	0	0	0	0	0	10.989	-10.989	19.033	0	0	0	0	0	0	0	0	0	0	0	0	0	0	0	0	0	0	0	0	0	0	0	0	0	0	0	0	0	0	0	0	0	0	0	0	2
5623	56.23	0	0	0	0	0	0	0	0	0	0	0	0	0	0	0	0	0	0	0	0	0	0	0	0	10.989	-10.989	19.033	0	0	0	0	0	0	0	0	0	0	0	0	0	0	0	0	0	0	0	0	0	0	-1	0	-2.0278	-17.891	16.968	0	0	0	0	0	0	0	0	0	2
5624	56.24	0	0	0	0	0	0	0	0	0	0	0	0	0	0	0	0	0	0	0	0	0	0	0	0	10.989	-10.989	19.033	0	0	0	1	0	0	17.761	2.1499	16.789	0	0	0	0	0	0	0	0	0	0	0	0	1	-1	0	7.5503	-27.469	31.921	0	0	0	0	0	0	0	0	0	2
5625	56.25	0	0	0	0	0	0	0	0	0	0	0	0	0	0	0	0	0	0	0	0	0	0	0	0	10.989	-10.989	19.033	0	0	0	0	0	0	0	0	0	0	0	0	0	0	0	0	0	0	0	0	0	1	-1	0	7.5503	-27.469	31.921	0	0	0	0	0	0	0	0	0	2
5626	56.26	0	0	0	0	0	0	0	0	0	0	0	0	0	0	0	0	0	0	0	0	0	0	0	0	10.989	-10.989	19.033	0	0	0	1	0	0	17.883	2.027	16.961	0	0	0	0	0	0	0	0	0	0	0	0	0	-1	0	-2.0278	-17.891	16.968	0	0	0	0	0	0	0	0	0	2
5627	56.27	0	0	0	0	0	0	0	0	0	0	0	0	0	0	0	0	0	0	0	0	0	0	0	0	10.989	-10.989	19.033	0	0	0	0	0	0	10.991	-10.991	19.037	0	0	0	0	0	0	0	0	0	0	0	0	0	-1	0	-2.0278	-17.891	16.968	0	0	0	0	0	0	0	0	0	2
5628	56.28	0	0	0	0	0	0	0	0	0	0	0	0	0	0	0	0	0	0	0	0	0	0	0	0	10.989	-10.989	19.033	0	0	0	0	0	0	0	0	0	0	0	0	0	0	0	0	0	0	0	0	0	0	0	0	10.994	-10.994	19.042	0	0	0	0	0	0	0	0	0	2
5629	56.29	0	0	0	0	0	0	0	0	0	0	0	0	0	0	0	0	0	0	0	0	0	0	0	0	10.989	-10.989	19.033	0	0	0	1	0	0	17.883	2.027	16.961	0	0	0	0	0	0	0	0	0	0	0	0	0	0	0	0	0	0	0	0	0	0	0	0	0	0	0	2
5630	56.3	0	0	0	0	0	0	0	0	0	0	0	0	0	0	0	0	0	0	0	0	0	0	0	0	10.989	-10.989	19.033	0	0	0	1	0	0	17.883	2.027	16.961	0	0	0	0	0	0	0	0	0	0	0	0	0	-1	0	-2.0278	-17.891	16.968	0	0	0	0	0	0	0	0	0	2
5631	56.31	0	0	0	0	0	0	0	0	0	0	0	0	0	0	0	0	0	0	0	0	0	0	0	0	0	0	0	0	0	0	1	0	0	17.883	2.027	16.961	0	0	0	0	0	0	0	0	0	0	0	0	0	-1	0	-2.0278	-17.891	16.968	0	0	0	0	0	0	0	0	0	2
5632	56.32	0	0	0	0	0	0	0	0	0	0	0	0	0	0	0	0	0	0	0	0	0	0	0	0	10.989	-10.989	19.033	0	0	0	0	0	0	10.991	-10.991	19.037	0	0	0	0	0	0	0	0	0	0	0	0	0	-1	0	-2.0278	-17.891	16.968	0	0	0	0	0	0	0	0	0	2
5633	56.33	0	0	0	0	0	0	0	0	0	0	0	0	0	0	0	0	0	0	0	0	0	0	0	0	10.989	-10.989	19.033	0	0	0	1	0	0	17.883	2.027	16.961	0	0	0	0	0	0	0	0	0	0	0	0	0	-1	0	-2.0278	-17.891	16.968	0	0	0	0	0	0	0	0	0	2
5634	56.34	0	0	0	0	0	0	0	0	0	0	0	0	0	0	0	0	0	0	0	0	0	0	0	0	10.989	-10.989	19.033	0	0	0	1	0	0	17.761	2.1499	16.789	0	0	0	0	0	0	0	0	0	0	0	0	1	-1	0	7.5503	-27.469	31.921	0	0	0	0	0	0	0	0	0	2
5635	56.35	0	0	0	0	0	0	0	0	0	0	0	0	0	0	0	0	0	0	0	0	0	0	0	0	10.989	-10.989	19.033	0	0	0	1	0	0	17.883	2.027	16.961	0	0	0	0	0	0	0	0	0	0	0	0	0	-1	0	-2.0278	-17.891	16.968	0	0	0	0	0	0	0	0	0	2
5636	56.36	0	0	0	0	0	0	0	0	0	0	0	0	0	0	0	0	0	0	0	0	0	0	0	0	10.989	-10.989	19.033	0	0	0	1	0	0	17.883	2.027	16.961	0	0	0	0	0	0	0	0	0	0	0	0	0	-1	0	-2.0278	-17.891	16.968	0	0	0	0	0	0	0	0	0	2
5637	56.37	0	0	0	0	0	0	0	0	0	0	0	0	0	0	0	0	0	0	0	0	0	0	0	0	0	0	0	0	0	0	1	0	0	17.883	2.027	16.961	0	0	0	0	0	0	0	0	0	0	0	0	0	0	0	10.994	-10.994	19.042	0	0	0	0	0	0	0	0	0	2
5638	56.38	0	0	0	0	0	0	0	0	0	0	0	0	0	0	0	0	0	0	0	0	0	0	0	0	0	0	0	0	0	0	1	0	0	17.761	2.1499	16.789	0	0	0	0	0	0	0	0	0	0	0	0	0	0	0	0	0	0	0	0	0	0	0	0	0	0	0	2
5639	56.39	0	0	0	0	0	0	0	0	0	0	0	0	0	0	0	0	0	0	0	0	0	0	0	0	10.989	-10.989	19.033	0	0	0	1	0	0	17.761	2.1499	16.789	0	0	0	0	0	0	0	0	0	0	0	0	0	-1	0	-2.0278	-17.891	16.968	0	0	0	0	0	0	0	0	0	2
5640	56.4	0	0	0	0	0	0	0	0	0	0	0	0	0	0	0	0	0	0	0	0	0	0	0	0	0	0	0	0	0	0	0	0	0	0	0	0	0	0	0	0	0	0	0	0	0	0	0	0	1	-1	0	7.5503	-27.469	31.921	0	0	0	0	0	0	0	0	0	2
5641	56.41	0	0	0	0	0	0	0	0	0	0	0	0	0	0	0	0	0	0	0	0	0	0	0	0	10.989	-10.989	19.033	0	0	0	1	0	0	17.883	2.027	16.961	0	0	0	0	0	0	0	0	0	0	0	0	0	-1	0	-2.0278	-17.891	16.968	0	0	0	0	0	0	0	0	0	2
5642	56.42	0	0	0	0	0	0	0	0	0	0	0	0	0	0	0	0	0	0	0	0	0	0	0	0	10.989	-10.989	19.033	0	0	0	1	0	0	17.761	2.1499	16.789	0	0	0	0	0	0	0	0	0	0	0	0	0	0	0	0	0	0	0	0	0	0	0	0	0	0	0	2
5643	56.43	0	0	0	0	0	0	0	0	0	0	0	0	0	0	0	0	0	0	0	0	0	0	0	0	10.989	-10.989	19.033	0	0	0	0	0	0	0	0	0	0	0	0	0	0	0	0	0	0	0	0	0	0	0	0	0	0	0	0	0	0	0	0	0	0	0	0	2
5644	56.44	0	0	0	0	0	0	0	0	0	0	0	0	0	0	0	0	0	0	0	0	0	0	0	0	10.989	-10.989	19.033	0	0	0	1	0	0	17.761	2.1499	16.789	0	0	0	0	0	0	0	0	0	0	0	0	0	-1	0	-2.0278	-17.891	16.968	0	0	0	0	0	0	0	0	0	2
5645	56.45	0	0	0	0	0	0	0	0	0	0	0	0	0	0	0	0	0	0	0	0	0	0	0	0	10.989	-10.989	19.033	0	0	0	1	0	0	17.883	2.027	16.961	0	0	0	0	0	0	0	0	0	0	0	0	0	-1	0	-2.0278	-17.891	16.968	0	0	0	0	0	0	0	0	0	2
5646	56.46	0	0	0	0	0	0	0	0	0	0	0	0	0	0	0	0	0	0	0	0	0	0	0	0	10.989	-10.989	19.033	0	0	0	1	0	0	17.761	2.1499	16.789	0	0	0	0	0	0	0	0	0	0	0	0	0	-1	0	-2.0278	-17.891	16.968	0	0	0	0	0	0	0	0	0	2
5647	56.47	0	0	0	0	0	0	0	0	0	0	0	0	0	0	0	0	0	0	0	0	0	0	0	0	10.989	-10.989	19.033	0	0	0	1	0	0	17.883	2.027	16.961	0	0	0	0	0	0	0	0	0	0	0	0	1	-1	0	7.5503	-27.469	31.921	0	0	0	0	0	0	0	0	0	2
5648	56.48	0	0	0	0	0	0	0	0	0	0	0	0	0	0	0	0	0	0	0	0	0	0	0	0	0	0	0	0	0	0	1	0	0	17.883	2.027	16.961	0	0	0	0	0	0	0	0	0	0	0	0	0	-1	0	-2.0278	-17.891	16.968	0	0	0	0	0	0	0	0	0	2
5649	56.49	0	0	0	0	0	0	0	0	0	0	0	0	0	0	0	0	0	0	0	0	0	0	0	0	10.989	-10.989	19.033	0	0	0	1	0	0	17.761	2.1499	16.789	0	0	0	0	0	0	0	0	0	0	0	0	0	0	0	0	0	0	0	0	0	0	0	0	0	0	0	2
5650	56.5	0	0	0	0	0	0	0	0	0	0	0	0	0	0	0	0	0	0	0	0	0	0	0	0	10.989	-10.989	19.033	0	0	0	1	0	0	17.883	2.027	16.961	0	0	0	0	0	0	0	0	0	0	0	0	0	0	0	10.994	-10.994	19.042	0	0	0	0	0	0	0	0	0	2
5651	56.51	0	0	0	0	0	0	10.917	-10.917	18.908	0	0	0	0	0	0	0	0	0	0	0	0	0	0	0	10.989	-10.989	19.033	0	0	0	0	0	0	10.991	-10.991	19.037	0	0	0	0	0	0	0	0	0	0	0	0	0	0	0	10.994	-10.994	19.042	0	0	0	1	0	0	17.47	2.0148	16.554	2
5652	56.52	0	0	0	0	0	0	0	0	0	0	0	0	0	0	0	0	0	0	0	0	0	0	0	0	10.989	-10.989	19.033	0	0	0	1	0	0	17.883	2.027	16.961	0	0	0	0	0	0	0	0	0	0	0	0	0	-1	0	-2.0278	-17.891	16.968	0	0	0	0	0	0	0	0	0	2
5653	56.53	0	0	0	0	0	0	10.917	-10.917	18.908	0	0	0	0	0	0	0	0	0	0	0	0	0	0	0	10.989	-10.989	19.033	0	0	0	0	0	0	0	0	0	0	0	0	0	0	0	0	0	0	0	0	0	0	-1	0	-2.0278	-17.891	16.968	0	0	0	0	0	0	0	0	0	2
5654	56.54	0	0	0	0	0	0	0	0	0	0	0	0	0	0	0	0	0	0	0	0	0	0	0	0	10.989	-10.989	19.033	0	0	0	0	0	0	0	0	0	0	0	0	0	0	0	0	0	0	0	0	0	0	-1	0	-2.0278	-17.891	16.968	0	0	0	0	0	0	0	0	0	2
5655	56.55	0	0	0	0	0	0	0	0	0	0	0	0	0	0	0	0	0	0	0	0	0	0	0	0	10.989	-10.989	19.033	0	0	0	1	0	0	17.883	2.027	16.961	0	0	0	0	0	0	0	0	0	0	0	0	0	-1	0	-2.0278	-17.891	16.968	0	0	0	0	0	0	0	0	0	2
5656	56.56	0	0	0	0	0	0	0	0	0	0	0	0	0	0	0	0	0	0	0	0	0	0	0	0	10.989	-10.989	19.033	0	0	0	1	0	0	17.883	2.027	16.961	0	0	0	0	0	0	0	0	0	0	0	0	0	-1	0	-2.0278	-17.891	16.968	0	0	0	0	0	0	0	0	0	2
5657	56.57	0	0	0	0	-1	0	-2.0364	-17.814	16.888	0	0	0	0	0	0	0	0	0	0	0	0	0	0	0	10.989	-10.989	19.033	0	0	0	1	0	0	17.761	2.1499	16.789	0	0	0	0	0	0	0	0	0	0	0	0	0	-1	0	-2.0278	-17.891	16.968	0	0	0	0	0	0	0	0	0	2
5658	56.58	0	0	0	0	0	0	0	0	0	0	0	0	0	0	0	0	0	0	0	0	0	0	0	0	10.989	-10.989	19.033	0	0	0	1	0	0	17.883	2.027	16.961	0	0	0	0	0	0	0	0	0	0	0	0	1	-1	0	7.5503	-27.469	31.921	0	0	0	0	0	0	0	0	0	2
5659	56.59	0	0	0	0	0	0	0	0	0	0	0	0	0	0	0	0	0	0	0	0	0	0	0	0	10.989	-10.989	19.033	0	0	0	1	0	0	17.761	2.1499	16.789	0	0	0	0	0	0	0	0	0	0	0	0	0	-1	0	-2.0278	-17.891	16.968	0	0	0	1	0	0	17.47	2.0148	16.554	2
5660	56.6	0	0	0	0	0	0	0	0	0	0	0	0	0	0	0	0	0	0	0	0	0	0	0	0	10.989	-10.989	19.033	0	0	0	1	0	0	17.883	2.027	16.961	0	0	0	0	0	0	0	0	0	0	0	0	0	-1	0	-2.0278	-17.891	16.968	0	0	0	0	0	0	0	0	0	2
5661	56.61	0	0	0	0	0	0	10.917	-10.917	18.908	0	0	0	0	0	0	0	0	0	0	0	0	0	0	0	10.989	-10.989	19.033	0	0	0	0	0	0	10.991	-10.991	19.037	0	0	0	0	0	0	0	0	0	0	0	0	0	-1	0	-2.0278	-17.891	16.968	0	0	0	0	0	0	0	0	0	2
5662	56.62	0	0	0	0	0	0	0	0	0	0	0	0	0	0	0	0	0	0	0	0	0	0	0	0	10.989	-10.989	19.033	0	0	0	1	0	0	17.761	2.1499	16.789	0	0	0	0	0	0	0	0	0	0	0	0	0	0	0	0	0	0	0	0	0	0	0	0	0	0	0	2
5663	56.63	0	0	0	0	0	0	0	0	0	0	0	0	0	0	0	0	0	0	0	0	0	0	0	0	10.989	-10.989	19.033	0	0	0	1	0	0	17.883	2.027	16.961	0	0	0	0	0	0	0	0	0	0	0	0	0	-1	0	-2.0278	-17.891	16.968	0	0	0	0	0	0	0	0	0	2
5664	56.64	0	0	0	0	0	0	0	0	0	0	0	0	0	0	0	0	0	0	0	0	0	1	0	0	17.755	2.1475	16.785	0	0	0	1	0	0	17.761	2.1499	16.789	0	0	0	0	0	0	0	0	0	0	0	0	0	0	0	0	0	0	0	0	0	1	0	0	17.47	2.0148	16.554	2
5665	56.65	0	0	0	0	0	0	10.917	-10.917	18.908	0	0	0	0	0	0	0	0	0	0	0	0	0	0	0	10.989	-10.989	19.033	0	0	0	1	0	0	17.883	2.027	16.961	0	0	0	0	0	0	0	0	0	0	0	0	0	-1	0	-2.0278	-17.891	16.968	0	0	0	0	0	0	0	0	0	0
5666	56.66	0	0	0	0	0	0	0	0	0	0	0	0	0	0	0	0	0	0	0	0	0	0	0	0	10.989	-10.989	19.033	0	0	0	1	0	0	17.883	2.027	16.961	0	0	0	0	0	0	0	0	0	0	0	0	0	0	0	10.994	-10.994	19.042	0	0	0	0	0	0	0	0	0	2
5667	56.67	0	0	0	0	0	0	10.917	-10.917	18.908	0	0	0	0	0	0	0	0	0	0	0	0	0	0	0	10.989	-10.989	19.033	0	0	0	1	0	0	17.883	2.027	16.961	0	0	0	0	0	0	0	0	0	0	0	0	0	0	0	0	0	0	0	0	0	0	0	0	0	0	0	2
5668	56.68	0	0	0	0	0	0	0	0	0	0	0	0	0	0	0	0	0	0	0	0	0	0	0	0	10.989	-10.989	19.033	0	0	0	0	0	0	10.991	-10.991	19.037	0	0	0	0	0	0	0	0	0	0	0	0	0	-1	0	-2.0278	-17.891	16.968	0	0	0	0	0	0	0	0	0	2
5669	56.69	0	0	0	0	0	0	0	0	0	0	0	0	0	0	0	0	0	0	0	0	0	0	0	0	10.989	-10.989	19.033	0	0	0	1	0	0	17.883	2.027	16.961	0	0	0	0	0	0	0	0	0	0	0	0	0	-1	0	-2.0278	-17.891	16.968	0	0	0	0	0	0	0	0	0	2
5670	56.7	0	0	0	0	0	0	10.917	-10.917	18.908	0	0	0	0	0	0	0	0	0	0	0	0	0	0	0	10.989	-10.989	19.033	0	0	0	1	0	0	17.883	2.027	16.961	0	0	0	0	0	0	0	0	0	0	0	0	0	-1	0	-2.0278	-17.891	16.968	0	0	0	0	0	0	0	0	0	2
5671	56.71	0	0	0	0	0	0	0	0	0	0	0	0	0	0	0	0	0	0	0	0	0	0	0	0	10.989	-10.989	19.033	0	0	0	1	0	0	17.883	2.027	16.961	0	0	0	0	0	0	0	0	0	0	0	0	0	0	0	0	0	0	0	0	0	0	0	0	0	0	0	2
5672	56.72	0	0	0	0	0	0	0	0	0	0	0	0	0	-1	0	-2.0366	-17.816	16.89	0	0	0	0	0	0	10.989	-10.989	19.033	0	0	0	1	0	0	17.883	2.027	16.961	0	0	0	0	0	0	0	0	0	0	0	0	0	0	0	0	0	0	0	0	0	0	0	0	0	0	0	2
5673	56.73	0	0	0	0	0	0	0	0	0	0	0	0	0	0	0	0	0	0	0	0	0	0	0	0	10.989	-10.989	19.033	0	0	0	1	0	0	17.883	2.027	16.961	0	0	0	0	0	0	0	0	0	0	0	0	0	-1	0	-2.0278	-17.891	16.968	0	0	0	0	0	0	0	0	0	2
5674	56.74	0	0	0	0	0	0	0	0	0	0	0	0	0	0	0	0	0	0	0	0	0	0	0	0	10.989	-10.989	19.033	0	0	0	1	0	0	17.883	2.027	16.961	0	0	0	0	0	0	0	0	0	0	0	0	0	-1	0	-2.0278	-17.891	16.968	0	0	0	0	0	0	0	0	0	2
5675	56.75	0	0	0	0	0	0	0	0	0	0	0	0	0	0	0	0	0	0	0	0	0	0	0	0	10.989	-10.989	19.033	0	0	0	1	0	0	17.883	2.027	16.961	0	0	0	0	0	0	0	0	0	0	0	0	0	-1	0	-2.0278	-17.891	16.968	0	0	0	0	0	0	0	0	0	2
5676	56.76	0	0	0	0	0	0	0	0	0	0	0	0	0	0	0	0	0	0	0	0	0	0	0	0	10.989	-10.989	19.033	0	0	0	0	0	0	0	0	0	0	0	0	0	0	0	0	0	0	0	0	0	0	-1	0	-2.0278	-17.891	16.968	0	0	0	0	0	0	0	0	0	2
5677	56.77	0	0	0	0	0	0	10.917	-10.917	18.908	0	0	0	0	0	0	0	0	0	0	0	0	0	0	0	10.989	-10.989	19.033	0	0	0	1	0	0	17.883	2.027	16.961	0	0	0	0	0	0	0	0	0	0	0	0	0	0	0	0	0	0	0	0	0	0	0	0	0	0	0	2
5678	56.78	0	0	0	0	0	0	10.917	-10.917	18.908	0	0	0	0	0	0	0	0	0	0	0	0	0	0	0	0	0	0	0	0	0	1	0	0	17.883	2.027	16.961	0	0	0	0	0	0	0	0	0	0	0	0	0	-1	0	-2.0278	-17.891	16.968	0	0	0	0	0	0	0	0	0	2
5679	56.79	0	0	0	0	0	0	10.917	-10.917	18.908	0	0	0	0	0	0	0	0	0	0	0	0	0	0	0	10.989	-10.989	19.033	0	0	0	1	0	0	17.883	2.027	16.961	0	0	0	0	0	0	0	0	0	0	0	0	0	0	0	0	0	0	0	0	0	0	0	0	0	0	0	2
5680	56.8	0	0	0	0	0	0	0	0	0	0	0	0	0	0	0	0	0	0	0	0	0	0	0	0	10.989	-10.989	19.033	0	0	0	1	0	0	17.883	2.027	16.961	0	0	0	0	0	0	0	0	0	0	0	0	0	-1	0	-2.0278	-17.891	16.968	0	0	0	0	0	0	0	0	0	2
5681	56.81	0	0	0	0	0	0	0	0	0	0	0	0	0	0	0	0	0	0	0	0	0	0	0	0	10.989	-10.989	19.033	0	0	0	1	0	0	17.883	2.027	16.961	0	0	0	0	0	0	0	0	0	0	0	0	0	0	0	10.994	-10.994	19.042	0	0	0	0	0	0	0	0	0	2
5682	56.82	0	0	0	0	0	0	0	0	0	0	0	0	0	0	0	0	0	0	0	0	0	0	0	0	10.989	-10.989	19.033	0	0	0	1	0	0	17.883	2.027	16.961	0	0	0	0	0	0	0	0	0	0	0	0	1	-1	0	7.5503	-27.469	31.921	0	0	0	0	0	0	0	0	0	2
5683	56.83	0	0	0	0	0	0	10.917	-10.917	18.908	0	0	0	0	0	0	0	0	0	0	0	0	0	0	0	10.989	-10.989	19.033	0	0	0	0	0	0	0	0	0	0	0	0	0	0	0	0	0	0	0	0	0	0	-1	0	-2.0278	-17.891	16.968	0	0	0	0	0	0	0	0	0	2
5684	56.84	0	0	0	0	0	0	0	0	0	0	0	0	0	0	0	0	0	0	0	0	0	0	0	0	10.989	-10.989	19.033	0	0	0	1	0	0	17.883	2.027	16.961	0	0	0	0	0	0	0	0	0	0	0	0	1	-1	0	7.5503	-27.469	31.921	0	0	0	0	0	0	0	0	0	2
5685	56.85	0	0	0	0	0	0	0	0	0	0	0	0	0	0	0	0	0	0	0	0	0	0	0	0	10.989	-10.989	19.033	0	0	0	1	0	0	17.883	2.027	16.961	0	0	0	0	0	0	0	0	0	0	0	0	0	-1	0	-2.0278	-17.891	16.968	0	0	0	0	0	0	0	0	0	2
5686	56.86	0	0	0	0	0	0	0	0	0	0	0	0	0	0	0	0	0	0	0	0	0	0	0	0	0	0	0	0	0	0	1	0	0	17.883	2.027	16.961	0	0	0	0	0	0	0	0	0	0	0	0	0	-1	0	-2.0278	-17.891	16.968	0	0	0	0	0	0	0	0	0	2
5687	56.87	0	0	0	0	0	0	10.917	-10.917	18.908	0	0	0	0	-1	0	-2.0366	-17.816	16.89	0	0	0	0	0	0	10.989	-10.989	19.033	0	0	0	1	0	0	17.883	2.027	16.961	0	0	0	0	0	0	0	0	0	0	0	0	1	-1	0	7.5503	-27.469	31.921	0	0	0	0	0	0	0	0	0	2
5688	56.88	0	0	0	0	0	0	0	0	0	0	0	0	0	0	0	0	0	0	0	0	0	0	0	0	10.989	-10.989	19.033	0	0	0	1	0	0	17.761	2.1499	16.789	0	0	0	0	0	0	0	0	0	0	0	0	0	-1	0	-2.0278	-17.891	16.968	0	0	0	0	0	0	0	0	0	2
5689	56.89	0	0	0	0	0	0	0	0	0	0	0	0	0	0	0	0	0	0	0	0	0	0	0	0	10.989	-10.989	19.033	0	0	0	1	0	0	17.883	2.027	16.961	0	0	0	0	0	0	0	0	0	0	0	0	1	-1	0	7.5503	-27.469	31.921	0	0	0	0	0	0	0	0	0	2
5690	56.9	0	0	0	0	0	0	0	0	0	0	0	0	0	0	0	0	0	0	0	0	0	0	0	0	10.989	-10.989	19.033	0	0	0	0	0	0	10.991	-10.991	19.037	0	0	0	0	0	0	0	0	0	0	0	0	0	-1	0	-2.0278	-17.891	16.968	0	0	0	0	0	0	0	0	0	2
5691	56.91	0	0	0	0	0	0	10.917	-10.917	18.908	0	0	0	0	0	0	0	0	0	0	0	0	0	0	0	10.989	-10.989	19.033	0	0	0	1	0	0	17.883	2.027	16.961	0	0	0	0	0	0	0	0	0	0	0	0	1	-1	0	7.5503	-27.469	31.921	0	0	0	1	0	0	17.47	2.0148	16.554	0
5692	56.92	0	0	0	0	0	0	10.917	-10.917	18.908	0	0	0	0	0	0	0	0	0	0	0	0	0	0	0	10.989	-10.989	19.033	0	0	0	1	0	0	17.883	2.027	16.961	0	0	0	0	0	0	0	0	0	0	0	0	0	0	0	0	0	0	0	0	0	0	0	0	0	0	0	2
5693	56.93	0	0	0	0	0	0	0	0	0	0	0	0	0	0	0	0	0	0	0	0	0	0	0	0	10.989	-10.989	19.033	0	0	0	0	0	0	0	0	0	0	0	0	0	0	0	0	0	0	0	0	0	1	-1	0	7.5503	-27.469	31.921	0	0	0	0	0	0	0	0	0	0
5694	56.94	0	0	0	0	0	0	10.917	-10.917	18.908	0	0	0	0	0	0	0	0	0	0	0	0	0	0	0	10.989	-10.989	19.033	0	0	0	1	0	0	17.883	2.027	16.961	0	0	0	0	0	0	0	0	0	0	0	0	1	-1	0	7.5503	-27.469	31.921	0	0	0	1	0	0	17.47	2.0148	16.554	2
5695	56.95	0	0	0	0	0	0	0	0	0	0	0	0	0	0	0	0	0	0	0	0	0	0	0	0	10.989	-10.989	19.033	0	0	0	1	0	0	17.883	2.027	16.961	0	0	0	0	0	0	0	0	0	0	0	0	0	-1	0	-2.0278	-17.891	16.968	0	0	0	0	0	0	0	0	0	2
5696	56.96	0	0	0	0	0	0	10.917	-10.917	18.908	0	0	0	0	0	0	0	0	0	0	0	0	0	0	0	10.989	-10.989	19.033	0	0	0	1	0	0	17.761	2.1499	16.789	0	0	0	0	0	0	0	0	0	0	0	0	0	-1	0	-2.0278	-17.891	16.968	0	0	0	0	0	0	0	0	0	2
5697	56.97	0	0	0	0	0	0	0	0	0	0	0	0	0	0	0	0	0	0	0	0	0	0	0	0	10.989	-10.989	19.033	0	0	0	1	0	0	17.883	2.027	16.961	0	0	0	0	0	0	0	0	0	0	0	0	0	-1	0	-2.0278	-17.891	16.968	0	0	0	0	0	0	0	0	0	2
5698	56.98	0	0	0	0	0	0	0	0	0	0	0	0	0	0	0	0	0	0	0	0	0	0	0	0	10.989	-10.989	19.033	0	0	0	1	0	0	17.761	2.1499	16.789	0	0	0	0	0	0	0	0	0	0	0	0	0	0	0	10.994	-10.994	19.042	0	0	0	0	0	0	0	0	0	0
5699	56.99	0	0	0	0	0	0	0	0	0	0	0	0	0	0	0	0	0	0	0	0	0	0	0	0	10.989	-10.989	19.033	0	0	0	1	0	0	17.883	2.027	16.961	0	0	0	0	0	0	0	0	0	0	0	0	0	-1	0	-2.0278	-17.891	16.968	0	0	0	0	0	0	0	0	0	2
5700	57	0	0	0	0	0	0	0	0	0	0	0	0	0	0	0	0	0	0	0	0	0	0	0	0	10.989	-10.989	19.033	0	0	0	1	0	0	17.883	2.027	16.961	0	0	0	0	0	0	0	0	0	0	0	0	0	-1	0	-2.0278	-17.891	16.968	0	0	0	0	0	0	0	0	0	2
5701	57.01	0	0	0	0	0	0	0	0	0	0	0	0	0	0	0	0	0	0	0	0	0	0	0	0	10.989	-10.989	19.033	0	0	0	1	0	0	17.883	2.027	16.961	0	0	0	0	0	0	0	0	0	0	0	0	0	0	0	0	0	0	0	0	0	0	0	0	0	0	0	2
5702	57.02	0	0	0	0	0	0	0	0	0	0	0	0	0	0	0	0	0	0	0	0	0	0	0	0	10.989	-10.989	19.033	0	0	0	1	0	0	17.883	2.027	16.961	0	0	0	0	0	0	0	0	0	0	0	0	0	-1	0	-2.0278	-17.891	16.968	0	0	0	0	0	0	0	0	0	2
5703	57.03	0	0	0	0	0	0	0	0	0	0	0	0	0	0	0	0	0	0	0	0	0	0	0	0	10.989	-10.989	19.033	0	0	0	1	0	0	17.883	2.027	16.961	0	0	0	0	0	0	0	0	0	0	0	0	0	0	0	10.994	-10.994	19.042	0	0	0	0	0	0	0	0	0	2
5704	57.04	0	0	0	0	0	0	0	0	0	0	0	0	0	0	0	0	0	0	0	0	0	0	0	0	10.989	-10.989	19.033	0	0	0	1	0	0	17.761	2.1499	16.789	0	0	0	0	0	0	0	0	0	0	0	0	0	-1	0	-2.0278	-17.891	16.968	0	0	0	0	0	0	0	0	0	0
5705	57.05	0	0	0	0	0	0	0	0	0	0	0	0	0	0	0	0	0	0	0	0	0	0	0	0	10.989	-10.989	19.033	0	0	0	0	0	0	0	0	0	0	0	0	0	0	0	0	0	0	0	0	0	1	-1	0	7.5503	-27.469	31.921	0	0	0	0	0	0	0	0	0	2
5706	57.06	0	0	0	0	0	0	0	0	0	0	0	0	0	0	0	0	0	0	0	0	0	0	0	0	10.989	-10.989	19.033	0	0	0	1	0	0	17.761	2.1499	16.789	0	0	0	0	0	0	0	0	0	0	0	0	0	0	0	0	0	0	0	0	0	0	0	0	0	0	0	2
5707	57.07	0	0	0	0	0	0	10.917	-10.917	18.908	0	0	0	0	0	0	0	0	0	0	0	0	0	0	0	10.989	-10.989	19.033	0	0	0	0	0	0	0	0	0	0	0	0	0	0	0	0	0	0	0	0	0	0	-1	0	-2.0278	-17.891	16.968	0	0	0	0	0	0	0	0	0	2
5708	57.08	0	0	0	0	0	0	0	0	0	0	0	0	0	0	0	0	0	0	0	0	0	0	0	0	10.989	-10.989	19.033	0	0	0	1	0	0	17.883	2.027	16.961	0	0	0	0	0	0	0	0	0	0	0	0	0	0	0	0	0	0	0	0	0	0	0	0	0	0	0	2
5709	57.09	0	0	0	0	0	0	0	0	0	0	0	0	0	0	0	0	0	0	0	0	0	0	0	0	10.989	-10.989	19.033	0	0	0	1	0	0	17.761	2.1499	16.789	0	0	0	0	0	0	0	0	0	0	0	0	1	-1	0	7.5503	-27.469	31.921	0	0	0	0	0	0	0	0	0	2
5710	57.1	0	0	0	0	0	0	0	0	0	0	0	0	0	0	0	0	0	0	0	0	0	0	0	0	10.989	-10.989	19.033	0	0	0	1	0	0	17.883	2.027	16.961	0	0	0	0	0	0	0	0	0	0	0	0	0	0	0	0	0	0	0	0	0	0	0	0	0	0	0	2
5711	57.11	0	0	0	0	0	0	0	0	0	0	0	0	0	0	0	0	0	0	0	0	0	0	0	0	10.989	-10.989	19.033	0	0	0	1	0	0	17.883	2.027	16.961	0	0	0	0	0	0	0	0	0	0	0	0	0	0	0	10.994	-10.994	19.042	0	0	0	0	0	0	0	0	0	2
5712	57.12	0	0	0	0	0	0	0	0	0	0	0	0	0	0	0	0	0	0	0	0	0	0	0	0	10.989	-10.989	19.033	0	0	0	1	0	0	17.761	2.1499	16.789	0	0	0	0	0	0	0	0	0	0	0	0	0	-1	0	-2.0278	-17.891	16.968	0	0	0	0	0	0	0	0	0	2
5713	57.13	0	0	0	0	0	0	10.917	-10.917	18.908	0	0	0	0	0	0	0	0	0	0	0	0	0	0	0	10.989	-10.989	19.033	0	0	0	0	0	0	0	0	0	0	0	0	0	0	0	0	0	0	0	0	0	0	0	0	0	0	0	0	0	0	0	0	0	0	0	0	2
5714	57.14	0	0	0	0	0	0	0	0	0	0	0	0	0	0	0	0	0	0	0	0	0	0	0	0	10.989	-10.989	19.033	0	0	0	1	0	0	17.883	2.027	16.961	0	0	0	0	0	0	0	0	0	0	0	0	0	0	0	0	0	0	0	0	0	1	0	0	17.47	2.0148	16.554	0
5715	57.15	0	0	0	0	0	0	0	0	0	0	0	0	0	0	0	0	0	0	0	0	0	0	0	0	10.989	-10.989	19.033	0	0	0	1	0	0	17.883	2.027	16.961	0	0	0	0	0	0	0	0	0	0	0	0	1	-1	0	7.5503	-27.469	31.921	0	0	0	0	0	0	0	0	0	2
5716	57.16	0	0	0	0	0	0	10.917	-10.917	18.908	0	0	0	0	0	0	0	0	0	0	0	0	0	0	0	10.989	-10.989	19.033	0	0	0	1	0	0	17.883	2.027	16.961	0	0	0	0	0	0	0	0	0	0	0	0	0	0	0	0	0	0	0	0	0	0	0	0	0	0	0	2
5717	57.17	0	0	0	0	0	0	0	0	0	0	0	0	0	0	0	0	0	0	0	0	0	0	0	0	10.989	-10.989	19.033	0	0	0	1	0	0	17.761	2.1499	16.789	0	0	0	0	0	0	0	0	0	0	0	0	1	-1	0	7.5503	-27.469	31.921	0	0	0	1	0	0	17.47	2.0148	16.554	2
5718	57.18	0	0	0	0	0	0	0	0	0	0	0	0	0	-1	0	-2.0366	-17.816	16.89	0	0	0	0	0	0	10.989	-10.989	19.033	0	0	0	1	0	0	17.883	2.027	16.961	0	0	0	0	0	0	0	0	0	0	0	0	0	-1	0	-2.0278	-17.891	16.968	0	0	0	0	0	0	0	0	0	0
5719	57.19	0	0	0	0	0	0	0	0	0	0	0	0	0	0	0	0	0	0	0	0	0	0	0	0	10.989	-10.989	19.033	0	0	0	1	0	0	17.761	2.1499	16.789	0	0	0	0	0	0	0	0	0	0	0	0	0	-1	0	-2.0278	-17.891	16.968	0	0	0	0	0	0	0	0	0	2
5720	57.2	0	0	0	0	0	0	10.917	-10.917	18.908	0	0	0	0	0	0	0	0	0	0	0	0	0	0	0	10.989	-10.989	19.033	0	0	0	1	0	0	17.883	2.027	16.961	0	0	0	0	0	0	0	0	0	0	0	0	0	-1	0	-2.0278	-17.891	16.968	0	0	0	0	0	0	0	0	0	2
5721	57.21	0	0	0	0	0	0	0	0	0	0	0	0	0	0	0	0	0	0	0	0	0	1	0	0	17.755	2.1475	16.785	0	0	0	1	0	0	17.883	2.027	16.961	0	0	0	0	0	0	0	0	0	0	0	0	0	-1	0	-2.0278	-17.891	16.968	0	0	0	0	0	0	0	0	0	2
5722	57.22	0	0	0	0	0	0	10.917	-10.917	18.908	0	0	0	0	0	0	0	0	0	0	0	0	0	0	0	10.989	-10.989	19.033	0	0	0	1	0	0	17.883	2.027	16.961	0	0	0	0	0	0	0	0	0	0	0	0	0	0	0	0	0	0	0	0	0	0	0	0	0	0	0	2
5723	57.23	0	0	0	0	0	0	10.917	-10.917	18.908	0	0	0	0	0	0	0	0	0	0	0	0	0	0	0	10.989	-10.989	19.033	0	0	0	1	0	0	17.883	2.027	16.961	0	0	0	0	0	0	0	0	0	0	0	0	0	0	0	0	0	0	0	0	0	0	0	0	0	0	0	2
5724	57.24	0	0	0	0	0	0	0	0	0	0	0	0	0	0	0	0	0	0	0	0	0	1	0	0	17.755	2.1475	16.785	0	0	0	1	0	0	17.761	2.1499	16.789	0	0	0	0	0	0	0	0	0	0	0	0	0	-1	0	-2.0278	-17.891	16.968	0	0	0	1	0	0	17.47	2.0148	16.554	2
5725	57.25	0	0	0	0	0	0	0	0	0	0	0	0	0	0	0	0	0	0	0	0	0	0	0	0	10.989	-10.989	19.033	0	0	0	1	0	0	17.883	2.027	16.961	0	0	0	0	0	0	0	0	0	0	0	0	1	-1	0	7.5503	-27.469	31.921	0	0	0	0	0	0	0	0	0	2
5726	57.26	0	0	0	0	0	0	0	0	0	0	0	0	0	0	0	0	0	0	0	0	0	0	0	0	0	0	0	0	0	0	1	0	0	17.883	2.027	16.961	0	0	0	0	0	0	0	0	0	0	0	0	0	0	0	0	0	0	0	0	0	1	0	0	17.47	2.0148	16.554	2
5727	57.27	0	0	0	0	0	0	0	0	0	0	0	0	0	0	0	0	0	0	0	0	0	0	0	0	10.989	-10.989	19.033	0	0	0	1	0	0	17.883	2.027	16.961	0	0	0	0	0	0	0	0	0	0	0	0	0	-1	0	-2.0278	-17.891	16.968	0	0	0	1	0	0	17.47	2.0148	16.554	2
5728	57.28	0	0	0	0	0	0	0	0	0	0	0	0	0	0	0	0	0	0	0	0	0	0	0	0	10.989	-10.989	19.033	0	0	0	0	0	0	0	0	0	0	0	0	0	0	0	0	0	0	0	0	0	0	-1	0	-2.0278	-17.891	16.968	0	0	0	0	0	0	0	0	0	0
5729	57.29	0	0	0	0	0	0	0	0	0	0	0	0	0	0	0	0	0	0	0	0	0	0	0	0	0	0	0	0	0	0	0	0	0	10.991	-10.991	19.037	0	0	0	0	0	0	0	0	0	0	0	0	0	0	0	10.994	-10.994	19.042	0	0	0	1	0	0	17.47	2.0148	16.554	0
5730	57.3	0	0	0	0	0	0	0	0	0	0	0	0	0	0	0	0	0	0	0	0	0	0	0	0	10.989	-10.989	19.033	0	0	0	1	0	0	17.883	2.027	16.961	0	0	0	0	0	0	0	0	0	0	0	0	0	-1	0	-2.0278	-17.891	16.968	0	0	0	0	0	0	0	0	0	2
5731	57.31	0	0	0	0	0	0	0	0	0	0	0	0	0	0	0	0	0	0	0	0	0	0	0	0	10.989	-10.989	19.033	0	0	0	1	0	0	17.761	2.1499	16.789	0	0	0	0	0	0	0	0	0	0	0	0	0	-1	0	-2.0278	-17.891	16.968	0	0	0	0	0	0	0	0	0	2
5732	57.32	0	0	0	0	0	0	0	0	0	0	0	0	0	0	0	0	0	0	0	0	0	0	0	0	10.989	-10.989	19.033	0	0	0	1	0	0	17.883	2.027	16.961	0	0	0	0	0	0	0	0	0	0	0	0	0	-1	0	-2.0278	-17.891	16.968	0	0	0	1	0	0	17.47	2.0148	16.554	2
5733	57.33	0	0	0	0	0	0	0	0	0	0	0	0	0	0	0	0	0	0	0	0	0	0	0	0	10.989	-10.989	19.033	0	0	0	0	0	0	0	0	0	0	0	0	0	0	0	0	0	0	0	0	0	0	0	0	0	0	0	0	0	0	0	0	0	0	0	0	2
5734	57.34	0	0	0	0	0	0	0	0	0	0	0	0	0	0	0	0	0	0	0	0	0	0	0	0	10.989	-10.989	19.033	0	0	0	1	0	0	17.761	2.1499	16.789	0	0	0	0	0	0	0	0	0	0	0	0	1	-1	0	7.5503	-27.469	31.921	0	0	0	0	0	0	0	0	0	2
5735	57.35	0	0	0	0	0	0	0	0	0	0	0	0	0	0	0	0	0	0	0	0	0	0	0	0	10.989	-10.989	19.033	0	0	0	1	0	0	17.883	2.027	16.961	0	0	0	0	0	0	0	0	0	0	0	0	0	-1	0	-2.0278	-17.891	16.968	0	0	0	0	0	0	0	0	0	2
5736	57.36	0	0	0	0	0	0	10.917	-10.917	18.908	0	0	0	0	0	0	0	0	0	0	0	0	0	0	0	10.989	-10.989	19.033	0	0	0	1	0	0	17.883	2.027	16.961	0	0	0	0	0	0	0	0	0	0	0	0	0	0	0	10.994	-10.994	19.042	0	0	0	1	0	0	17.47	2.0148	16.554	2
5737	57.37	0	0	0	0	0	0	0	0	0	0	0	0	0	0	0	0	0	0	0	0	0	1	0	0	17.755	2.1475	16.785	0	0	0	1	0	0	17.883	2.027	16.961	0	0	0	0	0	0	0	0	0	0	0	0	0	-1	0	-2.0278	-17.891	16.968	0	0	0	0	0	0	0	0	0	2
5738	57.38	0	0	0	0	0	0	0	0	0	0	0	0	0	0	0	0	0	0	0	0	0	0	0	0	10.989	-10.989	19.033	0	0	0	1	0	0	17.883	2.027	16.961	0	0	0	0	0	0	0	0	0	0	0	0	0	-1	0	-2.0278	-17.891	16.968	0	0	0	0	0	0	0	0	0	2
5739	57.39	0	0	0	0	0	0	0	0	0	0	0	0	0	0	0	0	0	0	0	0	0	0	0	0	10.989	-10.989	19.033	0	0	0	1	0	0	17.883	2.027	16.961	0	0	0	0	0	0	0	0	0	0	0	0	0	0	0	0	0	0	0	0	0	0	0	0	0	0	0	2
5740	57.4	0	0	0	0	0	0	0	0	0	0	0	0	0	0	0	0	0	0	0	0	0	0	0	0	10.989	-10.989	19.033	0	0	0	0	0	0	0	0	0	0	0	0	0	0	0	0	0	0	0	0	0	0	-1	0	-2.0278	-17.891	16.968	0	0	0	0	0	0	0	0	0	2
5741	57.41	0	0	0	0	0	0	0	0	0	0	0	0	0	0	0	0	0	0	0	0	0	0	0	0	10.989	-10.989	19.033	0	0	0	1	0	0	17.883	2.027	16.961	0	0	0	0	0	0	0	0	0	0	0	0	1	-1	0	7.5503	-27.469	31.921	0	0	0	1	0	0	17.47	2.0148	16.554	2
5742	57.42	0	0	0	0	0	0	0	0	0	0	0	0	0	0	0	0	0	0	0	0	0	0	0	0	10.989	-10.989	19.033	0	0	0	1	0	0	17.883	2.027	16.961	0	0	0	0	0	0	0	0	0	0	0	0	0	-1	0	-2.0278	-17.891	16.968	0	0	0	0	0	0	0	0	0	2
5743	57.43	0	0	0	0	0	0	0	0	0	0	0	0	0	0	0	0	0	0	0	0	0	0	0	0	10.989	-10.989	19.033	0	0	0	1	0	0	17.883	2.027	16.961	0	0	0	0	0	0	0	0	0	0	0	0	1	-1	0	7.5503	-27.469	31.921	0	0	0	0	0	0	0	0	0	2
5744	57.44	0	0	0	0	0	0	0	0	0	0	0	0	0	0	0	0	0	0	0	0	0	0	0	0	10.989	-10.989	19.033	0	0	0	1	0	0	17.883	2.027	16.961	0	0	0	0	0	0	0	0	0	0	0	0	0	-1	0	-2.0278	-17.891	16.968	0	0	0	1	0	0	17.47	2.0148	16.554	2
5745	57.45	0	0	0	0	0	0	0	0	0	0	0	0	0	0	0	0	0	0	0	0	0	0	0	0	10.989	-10.989	19.033	0	0	0	1	0	0	17.883	2.027	16.961	0	0	0	0	0	0	0	0	0	0	0	0	1	-1	0	7.5503	-27.469	31.921	0	0	0	0	0	0	0	0	0	2
5746	57.46	0	0	0	0	0	0	0	0	0	0	0	0	0	0	0	0	0	0	0	0	0	1	0	0	17.755	2.1475	16.785	0	0	0	1	0	0	17.883	2.027	16.961	0	0	0	0	0	0	0	0	0	0	0	0	1	-1	0	7.5503	-27.469	31.921	0	0	0	1	0	0	17.47	2.0148	16.554	2
5747	57.47	0	0	0	0	0	0	0	0	0	0	0	0	0	0	0	0	0	0	0	0	0	0	0	0	10.989	-10.989	19.033	0	0	0	1	0	0	17.883	2.027	16.961	0	0	0	0	0	0	0	0	0	0	0	0	1	-1	0	7.5503	-27.469	31.921	0	0	0	1	0	0	17.47	2.0148	16.554	2
5748	57.48	0	0	0	0	0	0	0	0	0	0	0	0	0	0	0	0	0	0	0	0	0	0	0	0	10.989	-10.989	19.033	0	0	0	1	0	0	17.883	2.027	16.961	0	0	0	0	0	0	0	0	0	0	0	0	0	-1	0	-2.0278	-17.891	16.968	0	0	0	0	0	0	0	0	0	0
5749	57.49	0	0	0	0	0	0	0	0	0	0	0	0	0	0	0	0	0	0	0	0	0	0	0	0	10.989	-10.989	19.033	0	0	0	1	0	0	17.761	2.1499	16.789	0	0	0	0	0	0	0	0	0	0	0	0	1	-1	0	7.5503	-27.469	31.921	0	0	0	1	0	0	17.47	2.0148	16.554	2
5750	57.5	0	0	0	0	0	0	0	0	0	0	0	0	0	0	0	0	0	0	0	0	0	0	0	0	10.989	-10.989	19.033	0	0	0	1	0	0	17.883	2.027	16.961	0	0	0	0	0	0	0	0	0	0	0	0	0	0	0	0	0	0	0	0	0	0	0	0	0	0	0	2
5751	57.51	0	0	0	0	0	0	0	0	0	0	0	0	0	0	0	0	0	0	0	0	0	0	0	0	10.989	-10.989	19.033	0	0	0	0	0	0	0	0	0	0	0	0	0	0	0	0	0	0	0	0	0	1	-1	0	7.5503	-27.469	31.921	0	0	0	1	0	0	17.47	2.0148	16.554	2
5752	57.52	0	0	0	0	0	0	0	0	0	0	0	0	0	0	0	0	0	0	0	0	0	0	0	0	10.989	-10.989	19.033	0	0	0	1	0	0	17.883	2.027	16.961	0	0	0	0	0	0	0	0	0	0	0	0	0	0	0	0	0	0	0	0	0	0	0	0	0	0	0	2
5753	57.53	0	0	0	0	0	0	10.917	-10.917	18.908	0	0	0	0	0	0	0	0	0	0	0	0	0	0	0	10.989	-10.989	19.033	0	0	0	0	0	0	0	0	0	0	0	0	0	0	0	0	0	0	0	0	0	1	-1	0	7.5503	-27.469	31.921	0	0	0	1	0	0	17.47	2.0148	16.554	2
5754	57.54	0	0	0	0	0	0	10.917	-10.917	18.908	0	0	0	0	0	0	0	0	0	0	0	0	0	0	0	10.989	-10.989	19.033	0	0	0	1	0	0	17.883	2.027	16.961	0	0	0	0	0	0	0	0	0	0	0	0	0	0	0	0	0	0	0	0	0	1	0	0	17.47	2.0148	16.554	2
5755	57.55	0	0	0	1	-1	0	7.4664	-27.317	31.716	0	0	0	0	0	0	0	0	0	0	0	0	0	0	0	10.989	-10.989	19.033	0	0	0	1	0	0	17.883	2.027	16.961	0	0	0	0	0	0	0	0	0	0	0	0	0	0	0	0	0	0	0	0	0	1	0	0	17.47	2.0148	16.554	2
5756	57.56	0	0	0	0	0	0	10.917	-10.917	18.908	0	0	0	0	0	0	0	0	0	0	0	0	1	0	0	17.755	2.1475	16.785	0	0	0	1	0	0	17.883	2.027	16.961	0	0	0	0	0	0	0	0	0	0	0	0	0	0	0	10.994	-10.994	19.042	0	0	0	1	0	0	17.47	2.0148	16.554	2
5757	57.57	0	0	0	0	0	0	0	0	0	0	0	0	0	0	0	0	0	0	0	0	0	0	0	0	10.989	-10.989	19.033	0	0	0	1	0	0	17.883	2.027	16.961	0	0	0	0	0	0	0	0	0	0	0	0	0	0	0	0	0	0	0	0	0	0	0	0	0	0	0	2
5758	57.58	0	0	0	0	0	0	0	0	0	0	0	0	0	0	0	0	0	0	0	0	0	0	0	0	10.989	-10.989	19.033	0	0	0	1	0	0	17.883	2.027	16.961	0	0	0	0	0	0	0	0	0	0	0	0	0	0	0	10.994	-10.994	19.042	0	0	0	0	0	0	0	0	0	2
5759	57.59	0	0	0	0	0	0	0	0	0	0	0	0	0	0	0	0	0	0	0	0	0	0	0	0	10.989	-10.989	19.033	0	0	0	1	0	0	17.883	2.027	16.961	0	0	0	0	0	0	0	0	0	0	0	0	1	-1	0	7.5503	-27.469	31.921	0	0	0	1	0	0	17.47	2.0148	16.554	2
5760	57.6	0	0	0	0	0	0	0	0	0	0	0	0	0	-1	0	-2.0366	-17.816	16.89	0	0	0	0	0	0	10.989	-10.989	19.033	0	0	0	1	0	0	17.883	2.027	16.961	0	0	0	0	0	0	0	0	0	0	0	0	0	-1	0	-2.0278	-17.891	16.968	0	0	0	0	0	0	0	0	0	2
5761	57.61	0	0	0	0	0	0	0	0	0	0	0	0	0	0	0	0	0	0	0	0	0	0	0	0	10.989	-10.989	19.033	0	0	0	1	0	0	17.883	2.027	16.961	0	0	0	0	0	0	0	0	0	0	0	0	0	0	0	0	0	0	0	0	0	1	0	0	17.47	2.0148	16.554	2
5762	57.62	0	0	0	0	0	0	10.917	-10.917	18.908	0	0	0	0	0	0	0	0	0	0	0	0	0	0	0	10.989	-10.989	19.033	0	0	0	1	0	0	17.883	2.027	16.961	0	0	0	0	0	0	0	0	0	0	0	0	0	0	0	0	0	0	0	0	0	0	0	0	0	0	0	2
5763	57.63	0	0	0	0	0	0	0	0	0	0	0	0	0	0	0	0	0	0	0	0	0	0	0	0	10.989	-10.989	19.033	0	0	0	0	0	0	0	0	0	0	0	0	0	0	0	0	0	0	0	0	0	0	0	0	0	0	0	0	0	0	0	0	0	0	0	0	0
5764	57.64	0	0	0	0	0	0	0	0	0	0	0	0	0	0	0	0	0	0	0	0	0	0	0	0	10.989	-10.989	19.033	0	0	0	1	0	0	17.761	2.1499	16.789	0	0	0	0	0	0	0	0	0	0	0	0	0	0	0	0	0	0	0	0	0	0	0	0	0	0	0	2
5765	57.65	0	0	0	0	0	0	0	0	0	0	0	0	0	0	0	0	0	0	0	0	0	0	0	0	10.989	-10.989	19.033	0	0	0	0	0	0	0	0	0	0	0	0	0	0	0	0	0	0	0	0	0	0	-1	0	-2.0278	-17.891	16.968	0	0	0	0	0	0	0	0	0	2
5766	57.66	0	0	0	0	0	0	0	0	0	0	0	0	0	0	0	0	0	0	0	0	0	0	0	0	10.989	-10.989	19.033	0	0	0	1	0	0	17.761	2.1499	16.789	0	0	0	0	0	0	0	0	0	0	0	0	0	-1	0	-2.0278	-17.891	16.968	0	0	0	0	0	0	0	0	0	2
5767	57.67	0	0	0	0	0	0	0	0	0	0	0	0	0	0	0	0	0	0	0	0	0	0	0	0	10.989	-10.989	19.033	0	0	0	1	0	0	17.883	2.027	16.961	0	0	0	0	0	0	0	0	0	0	0	0	0	-1	0	-2.0278	-17.891	16.968	0	0	0	1	0	0	17.47	2.0148	16.554	2
5768	57.68	0	0	0	0	0	0	0	0	0	0	0	0	0	0	0	0	0	0	0	0	0	0	0	0	10.989	-10.989	19.033	0	0	0	1	0	0	17.883	2.027	16.961	0	0	0	0	0	0	0	0	0	0	0	0	0	-1	0	-2.0278	-17.891	16.968	0	0	0	0	0	0	0	0	0	2
5769	57.69	0	0	0	0	0	0	0	0	0	0	0	0	0	0	0	0	0	0	0	0	0	0	0	0	10.989	-10.989	19.033	0	0	0	1	0	0	17.883	2.027	16.961	0	0	0	0	0	0	0	0	0	0	0	0	1	-1	0	7.5503	-27.469	31.921	0	0	0	0	0	0	0	0	0	2
5770	57.7	0	0	0	0	0	0	0	0	0	0	0	0	0	0	0	0	0	0	0	0	0	0	0	0	10.989	-10.989	19.033	0	0	0	1	0	0	17.883	2.027	16.961	0	0	0	0	0	0	0	0	0	0	0	0	0	-1	0	-2.0278	-17.891	16.968	0	0	0	0	0	0	0	0	0	2
5771	57.71	0	0	0	0	0	0	0	0	0	0	0	0	0	0	0	0	0	0	0	0	0	0	0	0	10.989	-10.989	19.033	0	0	0	1	0	0	17.883	2.027	16.961	0	0	0	0	0	0	0	0	0	0	0	0	0	-1	0	-2.0278	-17.891	16.968	0	0	0	0	0	0	0	0	0	2
5772	57.72	0	0	0	0	0	0	10.917	-10.917	18.908	0	0	0	0	0	0	0	0	0	0	0	0	0	0	0	10.989	-10.989	19.033	0	0	0	1	0	0	17.883	2.027	16.961	0	0	0	0	0	0	0	0	0	0	0	0	0	-1	0	-2.0278	-17.891	16.968	0	0	0	1	0	0	17.47	2.0148	16.554	2
5773	57.73	0	0	0	0	0	0	0	0	0	0	0	0	0	0	0	0	0	0	0	0	0	0	0	0	10.989	-10.989	19.033	0	0	0	1	0	0	17.883	2.027	16.961	0	0	0	0	0	0	0	0	0	0	0	0	0	0	0	0	0	0	0	0	0	0	0	0	0	0	0	2
5774	57.74	0	0	0	0	0	0	10.917	-10.917	18.908	0	0	0	0	0	0	0	0	0	0	0	0	0	0	0	10.989	-10.989	19.033	0	0	0	1	0	0	17.883	2.027	16.961	0	0	0	0	0	0	0	0	0	0	0	0	0	0	0	10.994	-10.994	19.042	0	0	0	1	0	0	17.47	2.0148	16.554	2
5775	57.75	0	0	0	0	0	0	0	0	0	0	0	0	0	0	0	0	0	0	0	0	0	0	0	0	10.989	-10.989	19.033	0	0	0	0	0	0	0	0	0	0	0	0	0	0	0	0	0	0	0	0	0	1	-1	0	7.5503	-27.469	31.921	0	0	0	0	0	0	0	0	0	2
5776	57.76	0	0	0	0	0	0	0	0	0	0	0	0	0	0	0	0	0	0	0	0	0	0	0	0	10.989	-10.989	19.033	0	0	0	1	0	0	17.883	2.027	16.961	0	0	0	0	0	0	0	0	0	0	0	0	0	-1	0	-2.0278	-17.891	16.968	0	0	0	0	0	0	0	0	0	2
5777	57.77	0	0	0	0	0	0	0	0	0	0	0	0	0	0	0	0	0	0	0	0	0	0	0	0	10.989	-10.989	19.033	0	0	0	1	0	0	17.761	2.1499	16.789	0	0	0	0	0	0	0	0	0	0	0	0	0	0	0	0	0	0	0	0	0	1	0	0	17.47	2.0148	16.554	2
5778	57.78	0	0	0	0	0	0	0	0	0	0	0	0	0	0	0	0	0	0	0	0	0	0	0	0	10.989	-10.989	19.033	0	0	0	1	0	0	17.883	2.027	16.961	0	0	0	0	0	0	0	0	0	0	0	0	0	0	0	10.994	-10.994	19.042	0	0	0	0	0	0	0	0	0	2
5779	57.79	0	0	0	0	0	0	10.917	-10.917	18.908	0	0	0	0	0	0	0	0	0	0	0	0	0	0	0	10.989	-10.989	19.033	0	0	0	1	0	0	17.883	2.027	16.961	0	0	0	0	0	0	0	0	0	0	0	0	0	0	0	0	0	0	0	0	0	0	0	0	0	0	0	2
5780	57.8	0	0	0	0	0	0	0	0	0	0	0	0	0	0	0	0	0	0	0	0	0	0	0	0	10.989	-10.989	19.033	0	0	0	1	0	0	17.883	2.027	16.961	0	0	0	0	0	0	0	0	0	0	0	0	0	-1	0	-2.0278	-17.891	16.968	0	0	0	1	0	0	17.47	2.0148	16.554	2
5781	57.81	0	0	0	0	0	0	10.917	-10.917	18.908	0	0	0	0	0	0	0	0	0	0	0	0	1	0	0	17.755	2.1475	16.785	0	0	0	1	0	0	17.883	2.027	16.961	0	0	0	0	0	0	0	0	0	0	0	0	1	-1	0	7.5503	-27.469	31.921	0	0	0	0	0	0	0	0	0	2
5782	57.82	0	0	0	0	0	0	0	0	0	0	0	0	0	0	0	0	0	0	0	0	0	0	0	0	10.989	-10.989	19.033	0	0	0	1	0	0	17.883	2.027	16.961	0	0	0	0	0	0	0	0	0	0	0	0	1	-1	0	7.5503	-27.469	31.921	0	0	0	0	0	0	0	0	0	2
5783	57.83	0	0	0	0	0	0	0	0	0	0	0	0	0	0	0	0	0	0	0	0	0	0	0	0	10.989	-10.989	19.033	0	0	0	1	0	0	17.883	2.027	16.961	0	0	0	0	0	0	0	0	0	0	0	0	0	-1	0	-2.0278	-17.891	16.968	0	0	0	0	0	0	0	0	0	2
5784	57.84	0	0	0	0	0	0	0	0	0	0	0	0	0	0	0	0	0	0	0	0	0	0	0	0	10.989	-10.989	19.033	0	0	0	1	0	0	17.883	2.027	16.961	0	0	0	0	0	0	0	0	0	0	0	0	0	-1	0	-2.0278	-17.891	16.968	0	0	0	1	0	0	17.47	2.0148	16.554	0
5785	57.85	0	0	0	0	0	0	0	0	0	0	0	0	0	0	0	0	0	0	0	0	0	0	0	0	10.989	-10.989	19.033	0	0	0	1	0	0	17.883	2.027	16.961	0	0	0	0	0	0	0	0	0	0	0	0	0	-1	0	-2.0278	-17.891	16.968	0	0	0	0	0	0	0	0	0	2
5786	57.86	0	0	0	0	0	0	0	0	0	0	0	0	0	0	0	0	0	0	0	0	0	0	0	0	10.989	-10.989	19.033	0	0	0	1	0	0	17.883	2.027	16.961	0	0	0	0	0	0	0	0	0	0	0	0	1	-1	0	7.5503	-27.469	31.921	0	0	0	0	0	0	0	0	0	2
5787	57.87	0	0	0	0	0	0	0	0	0	0	0	0	0	0	0	0	0	0	0	0	0	0	0	0	10.989	-10.989	19.033	0	0	0	1	0	0	17.883	2.027	16.961	0	0	0	0	0	0	0	0	0	0	0	0	0	-1	0	-2.0278	-17.891	16.968	0	0	0	1	0	0	17.47	2.0148	16.554	2
5788	57.88	0	0	0	0	0	0	0	0	0	0	0	0	0	0	0	0	0	0	0	0	0	0	0	0	10.989	-10.989	19.033	0	0	0	1	0	0	17.883	2.027	16.961	0	0	0	0	0	0	0	0	0	0	0	0	0	0	0	0	0	0	0	0	0	0	0	0	0	0	0	2
5789	57.89	0	0	0	0	0	0	10.917	-10.917	18.908	0	0	0	0	0	0	0	0	0	0	0	0	1	0	0	17.755	2.1475	16.785	0	0	0	1	0	0	17.883	2.027	16.961	0	0	0	0	0	0	0	0	0	0	0	0	0	-1	0	-2.0278	-17.891	16.968	0	0	0	0	0	0	0	0	0	2
5790	57.9	0	0	0	0	0	0	0	0	0	0	0	0	0	0	0	0	0	0	0	0	0	0	0	0	10.989	-10.989	19.033	0	0	0	1	0	0	17.761	2.1499	16.789	0	0	0	0	0	0	0	0	0	0	0	0	0	-1	0	-2.0278	-17.891	16.968	0	0	0	0	0	0	0	0	0	2
5791	57.91	0	0	0	0	0	0	0	0	0	0	0	0	0	0	0	0	0	0	0	0	0	0	0	0	0	0	0	0	0	0	1	0	0	17.883	2.027	16.961	0	0	0	0	0	0	0	0	0	0	0	0	1	-1	0	7.5503	-27.469	31.921	0	0	0	0	0	0	0	0	0	2
5792	57.92	0	0	0	0	0	0	0	0	0	0	0	0	0	0	0	0	0	0	0	0	0	0	0	0	10.989	-10.989	19.033	0	0	0	1	0	0	17.883	2.027	16.961	0	0	0	0	0	0	0	0	0	0	0	0	1	-1	0	7.5503	-27.469	31.921	0	0	0	0	0	0	0	0	0	2
5793	57.93	0	0	0	0	0	0	0	0	0	0	0	0	0	0	0	0	0	0	0	0	0	0	0	0	10.989	-10.989	19.033	0	0	0	1	0	0	17.883	2.027	16.961	0	0	0	0	0	0	0	0	0	0	0	0	0	0	0	0	0	0	0	0	0	0	0	0	0	0	0	0
5794	57.94	0	0	0	0	0	0	10.917	-10.917	18.908	0	0	0	0	0	0	0	0	0	0	0	0	0	0	0	10.989	-10.989	19.033	0	0	0	1	0	0	17.883	2.027	16.961	0	0	0	0	0	0	0	0	0	0	0	0	0	0	0	0	0	0	0	0	0	1	0	0	17.47	2.0148	16.554	2
5795	57.95	0	0	0	0	0	0	0	0	0	0	0	0	0	0	0	0	0	0	0	0	0	0	0	0	10.989	-10.989	19.033	0	0	0	1	0	0	17.883	2.027	16.961	0	0	0	0	0	0	10.996	-10.996	19.046	0	0	0	1	-1	0	7.5503	-27.469	31.921	0	0	0	0	0	0	0	0	0	2
5796	57.96	0	0	0	0	0	0	0	0	0	0	0	0	0	0	0	0	0	0	0	0	0	0	0	0	0	0	0	0	0	0	1	0	0	17.883	2.027	16.961	0	0	0	0	0	0	0	0	0	0	0	0	0	-1	0	-2.0278	-17.891	16.968	0	0	0	0	0	0	0	0	0	2
5797	57.97	0	0	0	0	0	0	10.917	-10.917	18.908	0	0	0	0	0	0	0	0	0	0	0	0	0	0	0	10.989	-10.989	19.033	0	0	0	1	0	0	17.883	2.027	16.961	0	0	0	0	0	0	0	0	0	0	0	0	0	-1	0	-2.0278	-17.891	16.968	0	0	0	1	0	0	17.482	2.0162	16.566	2
5798	57.98	0	0	0	0	0	0	0	0	0	0	0	0	0	0	0	0	0	0	0	0	0	0	0	0	10.989	-10.989	19.033	0	0	0	1	0	0	17.883	2.027	16.961	0	0	0	0	0	0	0	0	0	0	0	0	0	-1	0	-2.0278	-17.891	16.968	0	0	0	0	0	0	0	0	0	0
5799	57.99	0	0	0	0	0	0	0	0	0	0	0	0	0	0	0	0	0	0	0	0	0	0	0	0	10.989	-10.989	19.033	0	0	0	1	0	0	17.883	2.027	16.961	0	0	0	0	0	0	0	0	0	0	0	0	1	-1	0	7.5503	-27.469	31.921	0	0	0	0	0	0	0	0	0	2
5800	58	0	0	0	0	0	0	0	0	0	0	0	0	0	0	0	0	0	0	0	0	0	0	0	0	10.989	-10.989	19.033	0	0	0	1	0	0	17.883	2.027	16.961	0	0	0	0	0	0	0	0	0	0	0	0	0	-1	0	-2.0278	-17.891	16.968	0	0	0	0	0	0	0	0	0	2
5801	58.01	0	0	0	0	0	0	0	0	0	0	0	0	0	0	0	0	0	0	0	0	0	0	0	0	10.989	-10.989	19.033	0	0	0	1	0	0	17.883	2.027	16.961	0	0	0	0	0	0	0	0	0	0	0	0	0	0	0	10.994	-10.994	19.042	0	0	0	0	0	0	0	0	0	2
5802	58.02	0	0	0	0	0	0	0	0	0	0	0	0	0	0	0	0	0	0	0	0	0	0	0	0	10.989	-10.989	19.033	0	0	0	1	0	0	17.883	2.027	16.961	0	0	0	0	0	0	0	0	0	0	0	0	0	0	0	10.994	-10.994	19.042	0	0	0	0	0	0	0	0	0	2
5803	58.03	0	0	0	0	0	0	0	0	0	0	0	0	0	0	0	0	0	0	0	0	0	0	0	0	10.989	-10.989	19.033	0	0	0	1	0	0	17.883	2.027	16.961	0	0	0	0	0	0	0	0	0	0	0	0	0	-1	0	-2.0278	-17.891	16.968	0	0	0	0	0	0	0	0	0	2
5804	58.04	0	0	0	0	0	0	0	0	0	0	0	0	0	0	0	0	0	0	0	0	0	0	0	0	10.989	-10.989	19.033	0	0	0	1	0	0	17.883	2.027	16.961	0	0	0	0	0	0	0	0	0	0	0	0	0	0	0	0	0	0	0	0	0	1	0	0	17.47	2.0148	16.554	2
5805	58.05	0	0	0	0	0	0	0	0	0	0	0	0	0	0	0	0	0	0	0	0	0	0	0	0	10.989	-10.989	19.033	0	0	0	0	0	0	0	0	0	0	0	0	0	0	0	0	0	0	0	0	0	0	-1	0	-2.0278	-17.891	16.968	0	0	0	1	0	0	17.47	2.0148	16.554	2
5806	58.06	0	0	0	0	0	0	0	0	0	0	0	0	0	0	0	0	0	0	0	0	0	0	0	0	10.989	-10.989	19.033	0	0	0	1	0	0	17.883	2.027	16.961	0	0	0	0	0	0	0	0	0	0	0	0	0	-1	0	-2.0278	-17.891	16.968	0	0	0	1	0	0	17.47	2.0148	16.554	0
5807	58.07	0	0	0	0	0	0	10.917	-10.917	18.908	0	0	0	0	0	0	0	0	0	0	0	0	0	0	0	10.989	-10.989	19.033	0	0	0	1	0	0	17.883	2.027	16.961	0	0	0	0	0	0	0	0	0	0	0	0	0	-1	0	-2.0278	-17.891	16.968	0	0	0	1	0	0	17.47	2.0148	16.554	2
5808	58.08	0	0	0	0	0	0	10.917	-10.917	18.908	0	0	0	0	0	0	0	0	0	0	0	0	0	0	0	10.989	-10.989	19.033	0	0	0	0	0	0	0	0	0	0	0	0	0	0	0	10.996	-10.996	19.046	0	0	0	0	-1	0	-2.0278	-17.891	16.968	0	0	0	0	0	0	0	0	0	2
5809	58.09	0	0	0	0	0	0	0	0	0	0	0	0	0	0	0	0	0	0	0	0	0	1	0	0	17.755	2.1475	16.785	0	0	0	1	0	0	17.883	2.027	16.961	0	0	0	0	0	0	0	0	0	0	0	0	0	0	0	0	0	0	0	0	0	1	0	0	17.47	2.0148	16.554	0
5810	58.1	0	0	0	0	0	0	0	0	0	0	0	0	0	0	0	0	0	0	0	0	0	0	0	0	10.989	-10.989	19.033	0	0	0	0	0	0	0	0	0	0	0	0	0	0	0	0	0	0	0	0	0	0	-1	0	-2.0278	-17.891	16.968	0	0	0	0	0	0	0	0	0	2
5811	58.11	0	0	0	0	0	0	0	0	0	0	0	0	0	0	0	0	0	0	0	0	0	0	0	0	10.989	-10.989	19.033	0	0	0	0	0	0	0	0	0	0	0	0	0	0	0	0	0	0	0	0	0	0	-1	0	-2.0278	-17.891	16.968	0	0	0	0	0	0	0	0	0	2
5812	58.12	0	0	0	0	0	0	10.917	-10.917	18.908	0	0	0	0	0	0	0	0	0	0	0	0	0	0	0	10.989	-10.989	19.033	0	0	0	1	0	0	17.883	2.027	16.961	0	0	0	0	0	0	0	0	0	0	0	0	1	-1	0	7.5503	-27.469	31.921	0	0	0	0	0	0	0	0	0	2
5813	58.13	0	0	0	0	0	0	10.917	-10.917	18.908	0	0	0	0	0	0	0	0	0	0	0	0	0	0	0	10.989	-10.989	19.033	0	0	0	1	0	0	17.883	2.027	16.961	0	0	0	0	0	0	0	0	0	0	0	0	0	-1	0	-2.0278	-17.891	16.968	0	0	0	0	0	0	0	0	0	0
5814	58.14	0	0	0	0	0	0	0	0	0	0	0	0	0	0	0	0	0	0	0	0	0	0	0	0	10.989	-10.989	19.033	0	0	0	1	0	0	17.883	2.027	16.961	0	0	0	0	0	0	0	0	0	0	0	0	0	-1	0	-2.0278	-17.891	16.968	0	0	0	1	0	0	17.47	2.0148	16.554	2
5815	58.15	0	0	0	0	0	0	0	0	0	0	0	0	0	0	0	0	0	0	0	0	0	0	0	0	0	0	0	0	0	0	1	0	0	17.883	2.027	16.961	0	0	0	0	0	0	0	0	0	0	0	0	0	0	0	10.994	-10.994	19.042	0	0	0	1	0	0	17.47	2.0148	16.554	2
5816	58.16	0	0	0	0	0	0	0	0	0	0	0	0	0	0	0	0	0	0	0	0	0	0	0	0	10.989	-10.989	19.033	0	0	0	0	0	0	0	0	0	0	0	0	0	0	0	0	0	0	0	0	0	0	-1	0	-2.0278	-17.891	16.968	0	0	0	0	0	0	0	0	0	0
5817	58.17	0	0	0	0	0	0	10.917	-10.917	18.908	0	0	0	0	0	0	0	0	0	0	0	0	0	0	0	10.989	-10.989	19.033	0	0	0	1	0	0	17.883	2.027	16.961	0	0	0	0	0	0	0	0	0	0	0	0	1	-1	0	7.5503	-27.469	31.921	0	0	0	1	0	0	17.47	2.0148	16.554	2
5818	58.18	0	0	0	0	-1	0	-2.0364	-17.814	16.888	0	0	0	0	0	0	0	0	0	0	0	0	0	0	0	10.989	-10.989	19.033	0	0	0	1	0	0	17.883	2.027	16.961	0	0	0	0	0	0	0	0	0	0	0	0	0	0	0	0	0	0	0	0	0	0	0	0	0	0	0	2
5819	58.19	0	0	0	0	0	0	10.917	-10.917	18.908	0	0	0	0	0	0	0	0	0	0	0	0	0	0	0	10.989	-10.989	19.033	0	0	0	1	0	0	17.883	2.027	16.961	0	0	0	0	0	0	0	0	0	0	0	0	1	-1	0	7.5503	-27.469	31.921	0	0	0	1	0	0	17.47	2.0148	16.554	2
5820	58.2	0	0	0	0	0	0	0	0	0	0	0	0	0	-1	0	-2.0366	-17.816	16.89	0	0	0	0	0	0	10.989	-10.989	19.033	0	0	0	1	0	0	17.883	2.027	16.961	0	0	0	0	0	0	0	0	0	0	0	0	0	0	0	0	0	0	0	0	0	0	0	0	0	0	0	2
5821	58.21	0	0	0	0	0	0	10.917	-10.917	18.908	0	0	0	0	0	0	0	0	0	0	0	0	0	0	0	10.989	-10.989	19.033	0	0	0	1	0	0	17.883	2.027	16.961	0	0	0	0	0	0	0	0	0	0	0	0	0	-1	0	-2.0278	-17.891	16.968	0	0	0	1	0	0	17.47	2.0148	16.554	2
5822	58.22	0	0	0	0	0	0	0	0	0	0	0	0	0	0	0	0	0	0	0	0	0	0	0	0	10.989	-10.989	19.033	0	0	0	1	0	0	17.883	2.027	16.961	0	0	0	0	0	0	0	0	0	0	0	0	0	-1	0	-2.0278	-17.891	16.968	0	0	0	1	0	0	17.47	2.0148	16.554	2
5823	58.23	0	0	0	0	0	0	0	0	0	0	0	0	0	0	0	0	0	0	0	0	0	0	0	0	10.989	-10.989	19.033	0	0	0	1	0	0	17.883	2.027	16.961	0	0	0	0	0	0	0	0	0	0	0	0	0	0	0	10.994	-10.994	19.042	0	0	0	0	0	0	0	0	0	2
5824	58.24	0	0	0	0	0	0	0	0	0	0	0	0	0	0	0	0	0	0	0	0	0	0	0	0	10.989	-10.989	19.033	0	0	0	1	0	0	17.761	2.1499	16.789	0	0	0	0	0	0	0	0	0	0	0	0	0	0	0	0	0	0	0	0	0	0	0	0	0	0	0	2
5825	58.25	0	0	0	0	0	0	0	0	0	0	0	0	0	0	0	0	0	0	0	0	0	0	0	0	10.989	-10.989	19.033	0	0	0	1	0	0	17.883	2.027	16.961	0	0	0	0	0	0	0	0	0	0	0	0	1	-1	0	7.5503	-27.469	31.921	0	0	0	0	0	0	0	0	0	0
5826	58.26	0	0	0	0	0	0	10.917	-10.917	18.908	0	0	0	0	0	0	0	0	0	0	0	0	0	0	0	10.989	-10.989	19.033	0	0	0	1	0	0	17.883	2.027	16.961	0	0	0	0	0	0	0	0	0	0	0	0	0	-1	0	-2.0278	-17.891	16.968	0	0	0	1	0	0	17.47	2.0148	16.554	2
5827	58.27	0	0	0	0	0	0	0	0	0	0	0	0	0	0	0	0	0	0	0	0	0	0	0	0	10.989	-10.989	19.033	0	0	0	1	0	0	17.883	2.027	16.961	0	0	0	0	0	0	0	0	0	0	0	0	0	0	0	0	0	0	0	0	0	1	0	0	17.482	2.0162	16.566	2
5828	58.28	0	0	0	0	0	0	0	0	0	0	0	0	0	0	0	0	0	0	0	0	0	0	0	0	0	0	0	0	0	0	1	0	0	17.883	2.027	16.961	0	0	0	0	0	0	0	0	0	0	0	0	0	0	0	0	0	0	0	0	0	0	0	0	0	0	0	2
5829	58.29	0	0	0	0	0	0	0	0	0	0	0	0	0	0	0	0	0	0	0	0	0	0	0	0	10.989	-10.989	19.033	0	0	0	1	0	0	17.883	2.027	16.961	0	0	0	0	0	0	0	0	0	0	0	0	0	0	0	0	0	0	0	0	0	0	0	0	0	0	0	2
5830	58.3	0	0	0	0	0	0	0	0	0	0	0	0	0	0	0	0	0	0	0	0	0	0	0	0	10.989	-10.989	19.033	0	0	0	1	0	0	17.761	2.1499	16.789	0	0	0	0	0	0	0	0	0	0	0	0	0	-1	0	-2.0278	-17.891	16.968	0	0	0	0	0	0	0	0	0	2
5831	58.31	0	0	0	0	0	0	0	0	0	0	0	0	0	0	0	0	0	0	0	0	0	0	0	0	10.989	-10.989	19.033	0	0	0	1	0	0	17.883	2.027	16.961	0	0	0	0	0	0	0	0	0	0	0	0	0	-1	0	-2.0278	-17.891	16.968	0	0	0	0	0	0	0	0	0	0
5832	58.32	0	0	0	0	0	0	0	0	0	0	0	0	0	0	0	0	0	0	0	0	0	0	0	0	10.989	-10.989	19.033	0	0	0	0	0	0	0	0	0	0	0	0	0	0	0	0	0	0	0	0	0	0	-1	0	-2.0278	-17.891	16.968	0	0	0	0	0	0	0	0	0	2
5833	58.33	0	0	0	0	0	0	10.917	-10.917	18.908	0	0	0	0	0	0	0	0	0	0	0	0	0	0	0	10.989	-10.989	19.033	0	0	0	1	0	0	17.883	2.027	16.961	0	0	0	0	0	0	0	0	0	0	0	0	1	-1	0	7.5503	-27.469	31.921	0	0	0	0	0	0	0	0	0	2
5834	58.34	0	0	0	0	0	0	0	0	0	0	0	0	0	0	0	0	0	0	0	0	0	0	0	0	10.989	-10.989	19.033	0	0	0	1	0	0	17.883	2.027	16.961	0	0	0	0	0	0	0	0	0	0	0	0	0	-1	0	-2.0278	-17.891	16.968	0	0	0	1	0	0	17.47	2.0148	16.554	2
5835	58.35	0	0	0	0	0	0	0	0	0	0	0	0	0	0	0	0	0	0	0	0	0	0	0	0	10.989	-10.989	19.033	0	0	0	1	0	0	17.761	2.1499	16.789	0	0	0	0	0	0	0	0	0	0	0	0	0	-1	0	-2.0278	-17.891	16.968	0	0	0	0	0	0	0	0	0	2
5836	58.36	0	0	0	0	0	0	0	0	0	0	0	0	0	0	0	0	0	0	0	0	0	0	0	0	10.989	-10.989	19.033	0	0	0	0	0	0	10.991	-10.991	19.037	0	0	0	0	0	0	0	0	0	0	0	0	1	-1	0	7.5503	-27.469	31.921	0	0	0	0	0	0	0	0	0	2
5837	58.37	0	0	0	0	0	0	0	0	0	0	0	0	0	0	0	0	0	0	0	0	0	0	0	0	10.989	-10.989	19.033	0	0	0	1	0	0	17.883	2.027	16.961	0	0	0	0	0	0	0	0	0	0	0	0	0	-1	0	-2.0278	-17.891	16.968	0	0	0	0	0	0	0	0	0	2
5838	58.38	0	0	0	0	0	0	0	0	0	0	0	0	0	0	0	0	0	0	0	0	0	0	0	0	10.989	-10.989	19.033	0	0	0	0	0	0	0	0	0	0	0	0	0	0	0	0	0	0	0	0	0	0	-1	0	-2.0278	-17.891	16.968	0	0	0	0	0	0	0	0	0	2
5839	58.39	0	0	0	0	0	0	0	0	0	0	0	0	0	0	0	0	0	0	0	0	0	0	0	0	10.989	-10.989	19.033	0	0	0	1	0	0	17.883	2.027	16.961	0	0	0	0	0	0	0	0	0	0	0	0	0	0	0	0	0	0	0	0	0	1	0	0	17.482	2.0162	16.566	2
5840	58.4	0	0	0	0	0	0	0	0	0	0	0	0	0	0	0	0	0	0	0	0	0	0	0	0	10.989	-10.989	19.033	0	0	0	1	0	0	17.883	2.027	16.961	0	0	0	0	0	0	0	0	0	0	0	0	0	-1	0	-2.0278	-17.891	16.968	0	0	0	0	0	0	0	0	0	2
5841	58.41	0	0	0	0	0	0	0	0	0	0	0	0	0	0	0	0	0	0	0	0	0	0	0	0	10.989	-10.989	19.033	0	0	0	1	0	0	17.883	2.027	16.961	0	0	0	0	0	0	0	0	0	0	0	0	0	0	0	10.994	-10.994	19.042	0	0	0	0	0	0	10.93	-10.93	18.931	2
5842	58.42	0	0	0	0	0	0	0	0	0	0	0	0	0	0	0	0	0	0	0	0	0	0	0	0	10.989	-10.989	19.033	0	0	0	1	0	0	17.883	2.027	16.961	0	0	0	0	0	0	0	0	0	0	0	0	0	-1	0	-2.0278	-17.891	16.968	0	0	0	1	0	0	17.482	2.0162	16.566	2
5843	58.43	0	0	0	0	0	0	10.917	-10.917	18.908	0	0	0	0	0	0	0	0	0	0	0	0	0	0	0	10.989	-10.989	19.033	0	0	0	1	0	0	17.883	2.027	16.961	0	0	0	0	0	0	0	0	0	0	0	0	0	0	0	0	0	0	0	0	0	0	0	0	0	0	0	2
5844	58.44	0	0	0	0	0	0	0	0	0	0	0	0	0	0	0	0	0	0	0	0	0	0	0	0	10.989	-10.989	19.033	0	0	0	1	0	0	17.761	2.1499	16.789	0	0	0	0	0	0	0	0	0	0	0	0	0	-1	0	-2.0278	-17.891	16.968	0	0	0	0	0	0	0	0	0	2
5845	58.45	0	0	0	0	0	0	0	0	0	0	0	0	0	0	0	0	0	0	0	0	0	0	0	0	10.989	-10.989	19.033	0	0	0	1	0	0	17.761	2.1499	16.789	0	0	0	0	0	0	0	0	0	0	0	0	0	0	0	10.994	-10.994	19.042	0	0	0	0	0	0	0	0	0	2
5846	58.46	0	0	0	0	0	0	0	0	0	0	0	0	0	0	0	0	0	0	0	0	0	0	0	0	10.989	-10.989	19.033	0	0	0	1	0	0	17.883	2.027	16.961	0	0	0	0	0	0	0	0	0	0	0	0	0	0	0	10.994	-10.994	19.042	0	0	0	1	0	0	17.482	2.0162	16.566	2
5847	58.47	0	0	0	0	0	0	0	0	0	0	0	0	0	0	0	0	0	0	0	0	0	0	0	0	10.989	-10.989	19.033	0	0	0	1	0	0	17.883	2.027	16.961	0	0	0	0	0	0	0	0	0	0	0	0	0	-1	0	-2.0278	-17.891	16.968	0	0	0	0	0	0	0	0	0	2
5848	58.48	0	0	0	0	0	0	0	0	0	0	0	0	0	0	0	0	0	0	0	0	0	0	0	0	10.989	-10.989	19.033	0	0	0	1	0	0	17.883	2.027	16.961	0	0	0	0	0	0	0	0	0	0	0	0	0	0	0	0	0	0	0	0	0	0	0	0	0	0	0	2
5849	58.49	0	0	0	0	0	0	0	0	0	0	0	0	0	0	0	0	0	0	0	0	0	1	0	0	17.755	2.1475	16.785	0	0	0	1	0	0	17.883	2.027	16.961	0	0	0	0	0	0	0	0	0	0	0	0	0	-1	0	-2.0278	-17.891	16.968	0	0	0	0	0	0	0	0	0	2
5850	58.5	0	0	0	0	0	0	0	0	0	0	0	0	0	0	0	0	0	0	0	0	0	0	0	0	10.989	-10.989	19.033	0	0	0	1	0	0	17.883	2.027	16.961	0	0	0	0	0	0	0	0	0	0	0	0	1	-1	0	7.5503	-27.469	31.921	0	0	0	0	0	0	0	0	0	2
5851	58.51	0	0	0	0	0	0	0	0	0	0	0	0	0	0	0	0	0	0	0	0	0	0	0	0	10.989	-10.989	19.033	0	0	0	1	0	0	17.883	2.027	16.961	0	0	0	0	0	0	0	0	0	0	0	0	0	0	0	0	0	0	0	0	0	0	0	0	0	0	0	2
5852	58.52	0	0	0	0	0	0	0	0	0	0	0	0	0	0	0	0	0	0	0	0	0	0	0	0	10.989	-10.989	19.033	0	0	0	0	0	0	0	0	0	0	0	0	0	0	0	0	0	0	0	0	0	0	-1	0	-2.0278	-17.891	16.968	0	0	0	0	0	0	0	0	0	2
5853	58.53	0	0	0	0	0	0	0	0	0	0	0	0	0	0	0	0	0	0	0	0	0	0	0	0	10.989	-10.989	19.033	0	0	0	0	0	0	0	0	0	0	0	0	0	0	0	0	0	0	0	0	0	0	0	0	0	0	0	0	0	0	0	0	0	0	0	0	2
5854	58.54	0	0	0	0	0	0	0	0	0	0	0	0	0	0	0	0	0	0	0	0	0	0	0	0	10.989	-10.989	19.033	0	0	0	1	0	0	17.883	2.027	16.961	0	0	0	0	0	0	0	0	0	0	0	0	0	-1	0	-2.0278	-17.891	16.968	0	0	0	0	0	0	0	0	0	2
5855	58.55	0	0	0	0	0	0	0	0	0	0	0	0	0	0	0	0	0	0	0	0	0	0	0	0	10.989	-10.989	19.033	0	0	0	1	0	0	17.761	2.1499	16.789	0	0	0	0	0	0	0	0	0	0	0	0	0	0	0	10.994	-10.994	19.042	0	0	0	0	0	0	0	0	0	2
5856	58.56	0	0	0	0	0	0	0	0	0	0	0	0	0	0	0	0	0	0	0	0	0	0	0	0	10.989	-10.989	19.033	0	0	0	1	0	0	17.883	2.027	16.961	0	0	0	0	0	0	0	0	0	0	0	0	0	-1	0	-2.0278	-17.891	16.968	0	0	0	1	0	0	17.47	2.0148	16.554	2
5857	58.57	0	0	0	0	0	0	10.917	-10.917	18.908	0	0	0	0	0	0	0	0	0	0	0	0	0	0	0	10.989	-10.989	19.033	0	0	0	1	0	0	17.883	2.027	16.961	0	0	0	0	0	0	0	0	0	0	0	0	0	-1	0	-2.0278	-17.891	16.968	0	0	0	1	0	0	17.47	2.0148	16.554	0
5858	58.58	0	0	0	0	0	0	0	0	0	0	0	0	0	0	0	0	0	0	0	0	0	0	0	0	0	0	0	0	0	0	1	0	0	17.883	2.027	16.961	0	0	0	0	0	0	0	0	0	0	0	0	0	0	0	0	0	0	0	0	0	0	0	0	0	0	0	2
5859	58.59	0	0	0	0	0	0	10.917	-10.917	18.908	0	0	0	0	0	0	0	0	0	0	0	0	1	0	0	17.755	2.1475	16.785	0	0	0	1	0	0	17.883	2.027	16.961	0	0	0	0	0	0	0	0	0	0	0	0	0	-1	0	-2.0278	-17.891	16.968	0	0	0	1	0	0	17.47	2.0148	16.554	2
5860	58.6	0	0	0	0	0	0	0	0	0	0	0	0	0	0	0	0	0	0	0	0	0	0	0	0	10.989	-10.989	19.033	0	0	0	1	0	0	17.761	2.1499	16.789	0	0	0	0	0	0	0	0	0	0	0	0	0	0	0	0	0	0	0	0	0	0	0	0	0	0	0	2
5861	58.61	0	0	0	0	0	0	0	0	0	0	0	0	0	0	0	0	0	0	0	0	0	0	0	0	10.989	-10.989	19.033	0	0	0	1	0	0	17.883	2.027	16.961	0	0	0	0	0	0	0	0	0	0	0	0	0	0	0	0	0	0	0	0	0	1	0	0	17.47	2.0148	16.554	2
5862	58.62	0	0	0	0	0	0	0	0	0	0	0	0	0	0	0	0	0	0	0	0	0	1	0	0	17.755	2.1475	16.785	0	0	0	1	0	0	17.883	2.027	16.961	0	0	0	0	0	0	0	0	0	0	0	0	0	-1	0	-2.0278	-17.891	16.968	0	0	0	1	0	0	17.47	2.0148	16.554	2
5863	58.63	0	0	0	0	0	0	0	0	0	0	0	0	0	0	0	0	0	0	0	0	0	0	0	0	10.989	-10.989	19.033	0	0	0	1	0	0	17.883	2.027	16.961	0	0	0	0	0	0	0	0	0	0	0	0	0	0	0	0	0	0	0	0	0	1	0	0	17.47	2.0148	16.554	2
5864	58.64	0	0	0	0	0	0	0	0	0	0	0	0	0	0	0	0	0	0	0	0	0	0	0	0	10.989	-10.989	19.033	0	0	0	1	0	0	17.883	2.027	16.961	0	0	0	0	0	0	0	0	0	0	0	0	1	-1	0	7.5503	-27.469	31.921	0	0	0	1	0	0	17.47	2.0148	16.554	2
5865	58.65	0	0	0	0	0	0	0	0	0	0	0	0	0	0	0	0	0	0	0	0	0	0	0	0	10.989	-10.989	19.033	0	0	0	1	0	0	17.883	2.027	16.961	0	0	0	0	0	0	0	0	0	0	0	0	0	-1	0	-2.0278	-17.891	16.968	0	0	0	0	0	0	0	0	0	2
5866	58.66	0	0	0	0	0	0	0	0	0	0	0	0	0	0	0	0	0	0	0	0	0	0	0	0	10.989	-10.989	19.033	0	0	0	1	0	0	17.761	2.1499	16.789	0	0	0	0	0	0	0	0	0	0	0	0	0	0	0	0	0	0	0	0	0	0	0	0	0	0	0	2
5867	58.67	0	0	0	0	0	0	0	0	0	0	0	0	0	0	0	0	0	0	0	0	0	0	0	0	10.989	-10.989	19.033	0	0	0	1	0	0	17.761	2.1499	16.789	0	0	0	0	0	0	0	0	0	0	0	0	0	-1	0	-2.0278	-17.891	16.968	0	0	0	0	0	0	0	0	0	2
5868	58.68	0	0	0	0	0	0	0	0	0	0	0	0	0	0	0	0	0	0	0	0	0	0	0	0	10.989	-10.989	19.033	0	0	0	1	0	0	17.883	2.027	16.961	0	0	0	0	0	0	10.996	-10.996	19.046	0	0	0	0	-1	0	-2.0278	-17.891	16.968	0	0	0	0	0	0	0	0	0	2
5869	58.69	0	0	0	0	0	0	0	0	0	0	0	0	0	0	0	0	0	0	0	0	0	0	0	0	10.989	-10.989	19.033	0	0	0	1	0	0	17.883	2.027	16.961	0	0	0	0	0	0	0	0	0	0	0	0	0	0	0	10.994	-10.994	19.042	0	0	0	1	0	0	17.47	2.0148	16.554	2
5870	58.7	0	0	0	0	0	0	0	0	0	0	0	0	0	-1	0	-2.0366	-17.816	16.89	0	0	0	0	0	0	10.989	-10.989	19.033	0	0	0	0	0	0	0	0	0	0	0	0	0	0	0	0	0	0	0	0	0	1	-1	0	7.5503	-27.469	31.921	0	0	0	0	0	0	0	0	0	2
5871	58.71	0	0	0	0	0	0	0	0	0	0	0	0	0	0	0	0	0	0	0	0	0	0	0	0	10.989	-10.989	19.033	0	0	0	1	0	0	17.761	2.1499	16.789	0	0	0	0	0	0	0	0	0	0	0	0	1	-1	0	7.5503	-27.469	31.921	0	0	0	0	0	0	0	0	0	2
5872	58.72	0	0	0	0	0	0	0	0	0	0	0	0	0	0	0	0	0	0	0	0	0	1	0	0	17.755	2.1475	16.785	0	0	0	0	0	0	0	0	0	0	0	0	0	0	0	0	0	0	0	0	0	0	0	0	0	0	0	0	0	0	1	0	0	17.47	2.0148	16.554	2
5873	58.73	0	0	0	0	0	0	0	0	0	0	0	0	0	0	0	0	0	0	0	0	0	0	0	0	10.989	-10.989	19.033	0	0	0	1	0	0	17.883	2.027	16.961	0	0	0	0	0	0	10.996	-10.996	19.046	0	0	0	0	-1	0	-2.0278	-17.891	16.968	0	0	0	0	0	0	0	0	0	2
5874	58.74	0	0	0	0	0	0	0	0	0	0	0	0	0	0	0	0	0	0	0	0	0	0	0	0	10.989	-10.989	19.033	0	0	0	1	0	0	17.761	2.1499	16.789	0	0	0	0	0	0	0	0	0	0	0	0	0	-1	0	-2.0278	-17.891	16.968	0	0	0	0	0	0	0	0	0	2
5875	58.75	0	0	0	0	0	0	0	0	0	0	0	0	0	0	0	0	0	0	0	0	0	0	0	0	10.989	-10.989	19.033	0	0	0	1	0	0	17.883	2.027	16.961	0	0	0	0	0	0	0	0	0	0	0	0	0	-1	0	-2.0278	-17.891	16.968	0	0	0	0	0	0	0	0	0	2
5876	58.76	0	0	0	0	0	0	0	0	0	0	0	0	0	0	0	0	0	0	0	0	0	0	0	0	10.989	-10.989	19.033	0	0	0	1	0	0	17.883	2.027	16.961	0	0	0	0	0	0	0	0	0	0	0	0	0	-1	0	-2.0278	-17.891	16.968	0	0	0	0	0	0	0	0	0	0
5877	58.77	0	0	0	0	0	0	0	0	0	0	0	0	0	0	0	0	0	0	0	0	0	0	0	0	10.989	-10.989	19.033	0	0	0	1	0	0	17.761	2.1499	16.789	0	0	0	0	0	0	0	0	0	0	0	0	0	-1	0	-2.0278	-17.891	16.968	0	0	0	1	0	0	17.47	2.0148	16.554	2
5878	58.78	0	0	0	0	0	0	0	0	0	0	0	0	0	0	0	0	0	0	0	0	0	0	0	0	10.989	-10.989	19.033	0	0	0	1	0	0	17.883	2.027	16.961	0	0	0	0	0	0	0	0	0	0	0	0	1	-1	0	7.5503	-27.469	31.921	0	0	0	0	0	0	0	0	0	2
5879	58.79	0	0	0	0	0	0	0	0	0	0	0	0	0	0	0	0	0	0	0	0	0	1	0	0	17.755	2.1475	16.785	0	0	0	1	0	0	17.761	2.1499	16.789	0	0	0	0	0	0	0	0	0	0	0	0	1	-1	0	7.5503	-27.469	31.921	0	0	0	1	0	0	17.47	2.0148	16.554	0
5880	58.8	0	0	0	0	-1	0	-2.0364	-17.814	16.888	0	0	0	0	0	0	0	0	0	0	0	0	0	0	0	10.989	-10.989	19.033	0	0	0	1	0	0	17.883	2.027	16.961	0	0	0	0	0	0	0	0	0	0	0	0	0	-1	0	-2.0278	-17.891	16.968	0	0	0	0	0	0	0	0	0	2
5881	58.81	0	0	0	0	0	0	0	0	0	0	0	0	0	0	0	0	0	0	0	0	0	1	0	0	17.755	2.1475	16.785	0	0	0	1	0	0	17.883	2.027	16.961	0	0	0	0	0	0	0	0	0	0	0	0	0	-1	0	-2.0278	-17.891	16.968	0	0	0	1	0	0	17.47	2.0148	16.554	2
5882	58.82	0	0	0	0	0	0	10.917	-10.917	18.908	0	0	0	0	0	0	0	0	0	0	0	0	1	0	0	17.755	2.1475	16.785	0	0	0	1	0	0	17.883	2.027	16.961	0	0	0	0	0	0	0	0	0	0	0	0	0	-1	0	-2.0278	-17.891	16.968	0	0	0	0	0	0	0	0	0	2
5883	58.83	0	0	0	0	0	0	0	0	0	0	0	0	0	0	0	0	0	0	0	0	0	0	0	0	10.989	-10.989	19.033	0	0	0	1	0	0	17.883	2.027	16.961	0	0	0	0	0	0	0	0	0	0	0	0	0	-1	0	-2.0278	-17.891	16.968	0	0	0	0	0	0	0	0	0	0
5884	58.84	0	0	0	0	-1	0	-2.0364	-17.814	16.888	0	0	0	0	0	0	0	0	0	0	0	0	1	0	0	17.755	2.1475	16.785	0	0	0	1	0	0	17.883	2.027	16.961	0	0	0	0	0	0	0	0	0	0	0	0	1	-1	0	7.5503	-27.469	31.921	0	0	0	1	0	0	30.423	8.5595	27.174	2
5885	58.85	0	0	0	0	0	0	0	0	0	0	0	0	0	0	0	0	0	0	0	0	0	0	0	0	10.989	-10.989	19.033	0	0	0	1	0	0	17.883	2.027	16.961	0	0	0	0	0	0	0	0	0	0	0	0	0	0	0	0	0	0	0	0	0	0	0	0	0	0	0	2
5886	58.86	0	0	0	0	0	0	10.917	-10.917	18.908	0	0	0	0	0	0	0	0	0	0	0	0	1	0	0	17.755	2.1475	16.785	0	0	0	1	0	0	17.761	2.1499	16.789	0	0	0	0	0	0	0	0	0	0	0	0	0	0	0	0	0	0	0	0	0	0	0	0	0	0	0	2
5887	58.87	0	0	0	0	0	0	0	0	0	0	0	0	0	0	0	0	0	0	0	0	0	0	0	0	10.989	-10.989	19.033	0	0	0	1	0	0	17.883	2.027	16.961	0	0	0	0	0	0	0	0	0	0	0	0	1	-1	0	7.5503	-27.469	31.921	0	0	0	1	0	0	17.47	2.0148	16.554	2
5888	58.88	0	0	0	0	0	0	0	0	0	0	0	0	0	0	0	0	0	0	0	0	0	0	0	0	10.989	-10.989	19.033	0	0	0	1	0	0	17.883	2.027	16.961	0	0	0	0	0	0	0	0	0	0	0	0	0	-1	0	-2.0278	-17.891	16.968	0	0	0	0	0	0	0	0	0	2
5889	58.89	0	0	0	0	0	0	0	0	0	0	0	0	0	0	0	0	0	0	0	0	0	0	0	0	10.989	-10.989	19.033	0	0	0	1	0	0	17.883	2.027	16.961	0	0	0	0	0	0	0	0	0	0	0	0	0	-1	0	-2.0278	-17.891	16.968	0	0	0	0	0	0	0	0	0	0
5890	58.9	0	0	0	0	0	0	0	0	0	0	0	0	0	0	0	0	0	0	0	0	0	0	0	0	10.989	-10.989	19.033	0	0	0	1	0	0	17.883	2.027	16.961	0	0	0	0	0	0	0	0	0	0	0	0	0	-1	0	-2.0278	-17.891	16.968	0	0	0	1	0	0	17.47	2.0148	16.554	2
5891	58.91	0	0	0	0	0	0	0	0	0	0	0	0	0	0	0	0	0	0	0	0	0	0	0	0	10.989	-10.989	19.033	0	0	0	1	0	0	17.883	2.027	16.961	0	0	0	0	0	0	0	0	0	0	0	0	0	0	0	10.994	-10.994	19.042	0	0	0	0	0	0	0	0	0	2
5892	58.92	0	0	0	0	0	0	0	0	0	0	0	0	0	-1	0	-2.0366	-17.816	16.89	0	0	0	0	0	0	10.989	-10.989	19.033	0	0	0	1	0	0	17.883	2.027	16.961	0	0	0	0	0	0	0	0	0	0	0	0	0	-1	0	-2.0278	-17.891	16.968	0	0	0	1	0	0	17.47	2.0148	16.554	2
5893	58.93	0	0	0	0	0	0	10.917	-10.917	18.908	0	0	0	0	0	0	0	0	0	0	0	0	0	0	0	10.989	-10.989	19.033	0	0	0	1	0	0	17.883	2.027	16.961	0	0	0	0	0	0	0	0	0	0	0	0	0	-1	0	-2.0278	-17.891	16.968	0	0	0	1	0	0	17.47	2.0148	16.554	2
5894	58.94	0	0	0	0	0	0	0	0	0	0	0	0	0	0	0	0	0	0	0	0	0	0	0	0	10.989	-10.989	19.033	0	0	0	1	0	0	17.761	2.1499	16.789	0	0	0	0	0	0	0	0	0	0	0	0	0	-1	0	-2.0278	-17.891	16.968	0	0	0	1	0	0	17.47	2.0148	16.554	2
5895	58.95	0	0	0	0	0	0	0	0	0	0	0	0	0	0	0	0	0	0	0	0	0	0	0	0	10.989	-10.989	19.033	0	0	0	1	0	0	17.883	2.027	16.961	0	0	0	0	0	0	0	0	0	0	0	0	0	-1	0	-2.0278	-17.891	16.968	0	0	0	0	0	0	0	0	0	2
5896	58.96	0	0	0	0	0	0	0	0	0	0	0	0	0	0	0	0	0	0	0	0	0	0	0	0	10.989	-10.989	19.033	0	0	0	1	0	0	17.761	2.1499	16.789	0	0	0	0	0	0	0	0	0	0	0	0	0	-1	0	-2.0278	-17.891	16.968	0	0	0	0	0	0	0	0	0	2
5897	58.97	0	0	0	0	0	0	0	0	0	0	0	0	0	0	0	0	0	0	0	0	0	0	0	0	10.989	-10.989	19.033	0	0	0	1	0	0	17.883	2.027	16.961	0	0	0	0	0	0	0	0	0	0	0	0	0	0	0	0	0	0	0	0	0	1	0	0	17.47	2.0148	16.554	2
5898	58.98	0	0	0	0	0	0	0	0	0	0	0	0	0	0	0	0	0	0	0	0	0	0	0	0	0	0	0	0	0	0	1	0	0	17.883	2.027	16.961	0	0	0	0	0	0	0	0	0	0	0	0	0	-1	0	-2.0278	-17.891	16.968	0	0	0	0	0	0	0	0	0	2
5899	58.99	0	0	0	0	0	0	10.917	-10.917	18.908	0	0	0	0	0	0	0	0	0	0	0	0	0	0	0	10.989	-10.989	19.033	0	0	0	1	0	0	17.883	2.027	16.961	0	0	0	0	0	0	0	0	0	0	0	0	0	0	0	0	0	0	0	0	0	1	0	0	17.47	2.0148	16.554	0
5900	59	0	0	0	0	0	0	0	0	0	0	0	0	0	0	0	0	0	0	0	0	0	0	0	0	10.989	-10.989	19.033	0	0	0	0	0	0	0	0	0	0	0	0	0	0	0	0	0	0	0	0	0	0	0	0	0	0	0	0	0	0	0	0	0	0	0	0	2
5901	59.01	0	0	0	0	0	0	0	0	0	0	0	0	0	-1	0	-2.0366	-17.816	16.89	0	0	0	0	0	0	10.989	-10.989	19.033	0	0	0	1	0	0	17.883	2.027	16.961	0	0	0	0	0	0	0	0	0	0	0	0	0	0	0	0	0	0	0	0	0	0	0	0	0	0	0	2
5902	59.02	0	0	0	0	0	0	0	0	0	0	0	0	0	0	0	0	0	0	0	0	0	0	0	0	10.989	-10.989	19.033	0	0	0	1	0	0	17.883	2.027	16.961	0	0	0	0	0	0	0	0	0	0	0	0	0	0	0	10.994	-10.994	19.042	0	0	0	1	0	0	30.423	8.5595	27.174	2
5903	59.03	0	0	0	0	0	0	0	0	0	0	0	0	0	0	0	0	0	0	0	0	0	0	0	0	10.989	-10.989	19.033	0	0	0	1	0	0	17.883	2.027	16.961	0	0	0	0	0	0	0	0	0	0	0	0	0	0	0	0	0	0	0	0	0	0	0	0	0	0	0	2
5904	59.04	0	0	0	0	0	0	0	0	0	0	0	0	0	0	0	0	0	0	0	0	0	0	0	0	10.989	-10.989	19.033	0	0	0	1	0	0	17.761	2.1499	16.789	0	0	0	0	0	0	0	0	0	0	0	0	0	-1	0	-2.0278	-17.891	16.968	0	0	0	1	0	0	17.47	2.0148	16.554	0
5905	59.05	0	0	0	0	0	0	0	0	0	0	0	0	0	0	0	0	0	0	0	0	0	0	0	0	10.989	-10.989	19.033	0	0	0	0	0	0	10.991	-10.991	19.037	0	0	0	0	0	0	0	0	0	0	0	0	0	-1	0	-2.0278	-17.891	16.968	0	0	0	0	0	0	0	0	0	2
5906	59.06	0	0	0	0	0	0	0	0	0	0	0	0	0	0	0	0	0	0	0	0	0	0	0	0	10.989	-10.989	19.033	0	0	0	1	0	0	17.883	2.027	16.961	0	0	0	0	0	0	0	0	0	0	0	0	1	-1	0	7.5503	-27.469	31.921	0	0	0	1	0	0	17.47	2.0148	16.554	2
5907	59.07	0	0	0	0	0	0	0	0	0	0	0	0	0	0	0	0	0	0	0	0	0	1	0	0	17.755	2.1475	16.785	0	0	0	1	0	0	17.761	2.1499	16.789	0	0	0	0	0	0	0	0	0	0	0	0	0	-1	0	-2.0278	-17.891	16.968	0	0	0	1	0	0	17.47	2.0148	16.554	2
5908	59.08	0	0	0	0	0	0	0	0	0	0	0	0	0	0	0	0	0	0	0	0	0	0	0	0	10.989	-10.989	19.033	0	0	0	1	0	0	17.883	2.027	16.961	0	0	0	0	0	0	0	0	0	0	0	0	0	-1	0	-2.0278	-17.891	16.968	0	0	0	0	0	0	0	0	0	2
5909	59.09	0	0	0	0	0	0	0	0	0	0	0	0	0	0	0	0	0	0	0	0	0	0	0	0	10.989	-10.989	19.033	0	0	0	1	0	0	17.883	2.027	16.961	0	0	0	0	0	0	0	0	0	0	0	0	0	0	0	0	0	0	0	0	0	0	0	0	0	0	0	2
5910	59.1	0	0	0	0	0	0	0	0	0	0	0	0	0	-1	0	-2.0366	-17.816	16.89	0	0	0	0	0	0	10.989	-10.989	19.033	0	0	0	1	0	0	17.883	2.027	16.961	0	0	0	0	0	0	0	0	0	0	0	0	1	-1	0	7.5503	-27.469	31.921	0	0	0	1	0	0	17.47	2.0148	16.554	2
5911	59.11	0	0	0	0	0	0	0	0	0	0	0	0	0	0	0	0	0	0	0	0	0	0	0	0	10.989	-10.989	19.033	0	0	0	1	0	0	17.761	2.1499	16.789	0	0	0	0	0	0	0	0	0	0	0	0	0	-1	0	-2.0278	-17.891	16.968	0	0	0	1	0	0	17.47	2.0148	16.554	2
5912	59.12	0	0	0	0	0	0	0	0	0	0	0	0	0	0	0	0	0	0	0	0	0	1	0	0	17.755	2.1475	16.785	0	0	0	1	0	0	17.883	2.027	16.961	0	0	0	0	0	0	0	0	0	0	0	0	0	0	0	10.994	-10.994	19.042	0	0	0	1	0	0	17.47	2.0148	16.554	2
5913	59.13	0	0	0	0	0	0	0	0	0	0	0	0	0	0	0	0	0	0	0	0	0	0	0	0	10.989	-10.989	19.033	0	0	0	0	0	0	0	0	0	0	0	0	0	0	0	0	0	0	0	0	0	0	-1	0	-2.0278	-17.891	16.968	0	0	0	1	0	0	17.47	2.0148	16.554	2
5914	59.14	0	0	0	0	0	0	0	0	0	0	0	0	0	0	0	0	0	0	0	0	0	0	0	0	10.989	-10.989	19.033	0	0	0	1	0	0	17.883	2.027	16.961	0	0	0	0	0	0	0	0	0	0	0	0	0	0	0	0	0	0	0	0	0	1	0	0	17.47	2.0148	16.554	2
5915	59.15	0	0	0	0	0	0	0	0	0	0	0	0	0	0	0	0	0	0	0	0	0	0	0	0	10.989	-10.989	19.033	0	0	0	0	0	0	0	0	0	0	0	0	0	0	0	0	0	0	0	0	0	0	0	0	0	0	0	0	0	0	0	0	0	0	0	0	2
5916	59.16	0	0	0	0	0	0	0	0	0	0	0	0	0	0	0	0	0	0	0	0	0	0	0	0	10.989	-10.989	19.033	0	0	0	1	0	0	17.883	2.027	16.961	0	0	0	0	0	0	0	0	0	0	0	0	0	0	0	10.994	-10.994	19.042	0	0	0	0	0	0	0	0	0	2
5917	59.17	0	0	0	0	0	0	0	0	0	0	0	0	0	0	0	0	0	0	0	0	0	0	0	0	10.989	-10.989	19.033	0	0	0	1	0	0	17.883	2.027	16.961	0	0	0	0	0	0	0	0	0	0	0	0	0	0	0	0	0	0	0	0	0	0	0	0	0	0	0	2
5918	59.18	0	0	0	0	0	0	0	0	0	0	0	0	0	0	0	0	0	0	0	0	0	0	0	0	10.989	-10.989	19.033	0	0	0	0	0	0	0	0	0	0	0	0	0	0	0	0	0	0	0	0	0	0	0	0	0	0	0	0	0	0	0	0	0	0	0	0	0
5919	59.19	0	0	0	0	0	0	0	0	0	0	0	0	0	0	0	0	0	0	0	0	0	1	0	0	17.755	2.1475	16.785	0	0	0	1	0	0	17.883	2.027	16.961	0	0	0	0	0	0	0	0	0	0	0	0	0	-1	0	-2.0278	-17.891	16.968	0	0	0	1	0	0	17.47	2.0148	16.554	2
5920	59.2	0	0	0	0	0	0	10.917	-10.917	18.908	0	0	0	0	0	0	0	0	0	0	0	0	0	0	0	10.989	-10.989	19.033	0	0	0	1	0	0	17.883	2.027	16.961	0	0	0	0	0	0	0	0	0	0	0	0	0	-1	0	-2.0278	-17.891	16.968	0	0	0	0	0	0	0	0	0	2
5921	59.21	0	0	0	0	0	0	0	0	0	0	0	0	0	0	0	0	0	0	0	0	0	0	0	0	10.989	-10.989	19.033	0	0	0	1	0	0	17.883	2.027	16.961	0	0	0	0	0	0	0	0	0	0	0	0	0	0	0	0	0	0	0	0	0	1	0	0	17.47	2.0148	16.554	2
5922	59.22	0	0	0	0	0	0	0	0	0	0	0	0	0	0	0	0	0	0	0	0	0	0	0	0	10.989	-10.989	19.033	0	0	0	1	0	0	17.761	2.1499	16.789	0	0	0	0	0	0	0	0	0	0	0	0	0	0	0	0	0	0	0	0	0	0	0	0	0	0	0	2
5923	59.23	0	0	0	0	0	0	0	0	0	0	0	0	0	0	0	0	0	0	0	0	0	0	0	0	10.989	-10.989	19.033	0	0	0	0	0	0	0	0	0	0	0	0	0	0	0	0	0	0	0	0	0	0	-1	0	-2.0278	-17.891	16.968	0	0	0	0	0	0	0	0	0	2
5924	59.24	0	0	0	0	0	0	0	0	0	0	0	0	0	0	0	0	0	0	0	0	0	0	0	0	10.989	-10.989	19.033	0	0	0	1	0	0	17.883	2.027	16.961	0	0	0	0	0	0	0	0	0	0	0	0	0	-1	0	-2.0278	-17.891	16.968	0	0	0	1	0	0	17.47	2.0148	16.554	2
5925	59.25	0	0	0	0	0	0	0	0	0	0	0	0	0	0	0	0	0	0	0	0	0	0	0	0	10.989	-10.989	19.033	0	0	0	1	0	0	17.883	2.027	16.961	0	0	0	0	0	0	0	0	0	0	0	0	0	-1	0	-2.0278	-17.891	16.968	0	0	0	0	0	0	0	0	0	2
5926	59.26	0	0	0	0	0	0	0	0	0	0	0	0	0	0	0	0	0	0	0	0	0	0	0	0	10.989	-10.989	19.033	0	0	0	1	0	0	17.883	2.027	16.961	0	0	0	0	0	0	0	0	0	0	0	0	0	0	0	10.994	-10.994	19.042	0	0	0	0	0	0	0	0	0	2
5927	59.27	0	0	0	0	0	0	0	0	0	0	0	0	0	0	0	0	0	0	0	0	0	0	0	0	10.989	-10.989	19.033	0	0	0	1	0	0	17.883	2.027	16.961	0	0	0	0	0	0	0	0	0	0	0	0	0	0	0	0	0	0	0	0	0	1	0	0	17.47	2.0148	16.554	2
5928	59.28	0	0	0	0	0	0	10.917	-10.917	18.908	0	0	0	0	0	0	0	0	0	0	0	0	0	0	0	10.989	-10.989	19.033	0	0	0	0	0	0	0	0	0	0	0	0	0	0	0	0	0	0	0	0	0	0	-1	0	-2.0278	-17.891	16.968	0	0	0	0	0	0	0	0	0	2
5929	59.29	0	0	0	0	0	0	0	0	0	0	0	0	0	0	0	0	0	0	0	0	0	0	0	0	10.989	-10.989	19.033	0	0	0	1	0	0	17.883	2.027	16.961	0	0	0	0	0	0	0	0	0	0	0	0	0	-1	0	-2.0278	-17.891	16.968	0	0	0	0	0	0	0	0	0	2
5930	59.3	0	0	0	0	0	0	0	0	0	0	0	0	0	0	0	0	0	0	0	0	0	0	0	0	10.989	-10.989	19.033	0	0	0	1	0	0	17.883	2.027	16.961	0	0	0	0	0	0	0	0	0	0	0	0	1	-1	0	7.5503	-27.469	31.921	0	0	0	0	0	0	0	0	0	2
5931	59.31	0	0	0	0	0	0	0	0	0	0	0	0	0	0	0	0	0	0	0	0	0	0	0	0	10.989	-10.989	19.033	0	0	0	1	0	0	17.883	2.027	16.961	0	0	0	0	0	0	0	0	0	0	0	0	1	-1	0	7.5503	-27.469	31.921	0	0	0	1	0	0	17.47	2.0148	16.554	0
5932	59.32	0	0	0	0	0	0	0	0	0	0	0	0	0	0	0	0	0	0	0	0	0	0	0	0	10.989	-10.989	19.033	0	0	0	1	0	0	17.883	2.027	16.961	0	0	0	0	0	0	0	0	0	0	0	0	0	0	0	10.994	-10.994	19.042	0	0	0	1	0	0	17.47	2.0148	16.554	2
5933	59.33	0	0	0	0	0	0	10.917	-10.917	18.908	0	0	0	0	0	0	0	0	0	0	0	0	0	0	0	10.989	-10.989	19.033	0	0	0	0	0	0	0	0	0	0	0	0	0	0	0	0	0	0	0	0	0	0	-1	0	-2.0278	-17.891	16.968	0	0	0	0	0	0	0	0	0	2
5934	59.34	0	0	0	0	0	0	0	0	0	0	0	0	0	0	0	0	0	0	0	0	0	1	0	0	17.755	2.1475	16.785	0	0	0	1	0	0	17.883	2.027	16.961	0	0	0	0	0	0	0	0	0	0	0	0	0	0	0	0	0	0	0	0	0	1	0	0	17.47	2.0148	16.554	0
5935	59.35	0	0	0	0	0	0	0	0	0	0	0	0	0	0	0	0	0	0	0	0	0	0	0	0	10.989	-10.989	19.033	0	0	0	1	0	0	17.883	2.027	16.961	0	0	0	0	0	0	0	0	0	0	0	0	0	0	0	0	0	0	0	0	0	0	0	0	0	0	0	2
5936	59.36	0	0	0	0	0	0	0	0	0	0	0	0	0	0	0	0	0	0	0	0	0	0	0	0	10.989	-10.989	19.033	0	0	0	1	0	0	17.883	2.027	16.961	0	0	0	0	0	0	0	0	0	0	0	0	0	-1	0	-2.0278	-17.891	16.968	0	0	0	1	0	0	17.47	2.0148	16.554	2
5937	59.37	0	0	0	0	0	0	0	0	0	0	0	0	0	0	0	0	0	0	0	0	0	0	0	0	10.989	-10.989	19.033	0	0	0	0	0	0	10.991	-10.991	19.037	0	0	0	0	0	0	0	0	0	0	0	0	0	0	0	0	0	0	0	0	0	1	0	0	17.47	2.0148	16.554	2
5938	59.38	0	0	0	0	0	0	0	0	0	0	0	0	0	0	0	0	0	0	0	0	0	0	0	0	10.989	-10.989	19.033	0	0	0	1	0	0	17.883	2.027	16.961	0	0	0	0	0	0	0	0	0	0	0	0	0	-1	0	-2.0278	-17.891	16.968	0	0	0	0	0	0	0	0	0	0
5939	59.39	0	0	0	0	0	0	0	0	0	0	0	0	0	0	0	0	0	0	0	0	0	0	0	0	10.989	-10.989	19.033	0	0	0	1	0	0	17.883	2.027	16.961	0	0	0	0	0	0	0	0	0	0	0	0	0	-1	0	-2.0278	-17.891	16.968	0	0	0	1	0	0	17.482	2.0162	16.566	2
5940	59.4	0	0	0	0	0	0	0	0	0	0	0	0	0	0	0	0	0	0	0	0	0	0	0	0	10.989	-10.989	19.033	0	0	0	0	0	0	10.991	-10.991	19.037	0	0	0	0	0	0	0	0	0	0	0	0	0	0	0	0	0	0	0	0	0	0	0	0	0	0	0	2
5941	59.41	0	0	0	0	0	0	0	0	0	0	0	0	0	0	0	0	0	0	0	0	0	0	0	0	10.989	-10.989	19.033	0	0	0	1	0	0	17.883	2.027	16.961	0	0	0	0	0	0	0	0	0	0	0	0	0	-1	0	-2.0278	-17.891	16.968	0	0	0	0	0	0	0	0	0	2
5942	59.42	0	0	0	0	0	0	0	0	0	0	0	0	0	0	0	0	0	0	0	0	0	0	0	0	10.989	-10.989	19.033	0	0	0	1	0	0	17.883	2.027	16.961	0	0	0	0	0	0	0	0	0	0	0	0	0	0	0	0	0	0	0	0	0	1	0	0	17.47	2.0148	16.554	2
5943	59.43	0	0	0	0	0	0	0	0	0	0	0	0	0	0	0	0	0	0	0	0	0	0	0	0	10.989	-10.989	19.033	0	0	0	0	0	0	0	0	0	0	0	0	0	0	0	10.996	-10.996	19.046	0	0	0	1	-1	0	7.5503	-27.469	31.921	0	0	0	0	0	0	0	0	0	0
5944	59.44	0	0	0	0	0	0	0	0	0	0	0	0	0	0	0	0	0	0	0	0	0	1	0	0	17.755	2.1475	16.785	0	0	0	1	0	0	17.761	2.1499	16.789	0	0	0	0	0	0	0	0	0	0	0	0	0	0	0	0	0	0	0	0	0	1	0	0	17.47	2.0148	16.554	2
5945	59.45	0	0	0	0	0	0	0	0	0	0	0	0	0	0	0	0	0	0	0	0	0	0	0	0	10.989	-10.989	19.033	0	0	0	0	0	0	10.991	-10.991	19.037	0	0	0	0	0	0	0	0	0	0	0	0	0	-1	0	-2.0278	-17.891	16.968	0	0	0	0	0	0	0	0	0	2
5946	59.46	0	0	0	0	0	0	0	0	0	0	0	0	0	0	0	0	0	0	0	0	0	0	0	0	10.989	-10.989	19.033	0	0	0	1	0	0	17.761	2.1499	16.789	0	0	0	0	0	0	0	0	0	0	0	0	0	0	0	10.994	-10.994	19.042	0	0	0	0	0	0	0	0	0	2
5947	59.47	0	0	0	0	0	0	0	0	0	0	0	0	0	0	0	0	0	0	0	0	0	0	0	0	10.989	-10.989	19.033	0	0	0	1	0	0	17.761	2.1499	16.789	0	0	0	0	0	0	0	0	0	0	0	0	0	0	0	0	0	0	0	0	0	1	0	0	17.47	2.0148	16.554	0
5948	59.48	0	0	0	0	-1	0	-2.0364	-17.814	16.888	0	0	0	0	0	0	0	0	0	0	0	0	0	0	0	10.989	-10.989	19.033	0	0	0	0	0	0	0	0	0	0	0	0	0	0	0	0	0	0	0	0	0	0	0	0	0	0	0	0	0	0	0	0	0	0	0	0	2
5949	59.49	0	0	0	0	0	0	0	0	0	0	0	0	0	0	0	0	0	0	0	0	0	1	0	0	17.755	2.1475	16.785	0	0	0	1	0	0	17.761	2.1499	16.789	0	0	0	0	0	0	0	0	0	0	0	0	0	-1	0	-2.0278	-17.891	16.968	0	0	0	1	0	0	17.47	2.0148	16.554	0
5950	59.5	0	0	0	0	0	0	0	0	0	0	0	0	0	-1	0	-2.0366	-17.816	16.89	0	0	0	0	0	0	10.989	-10.989	19.033	0	0	0	0	0	0	0	0	0	0	0	0	0	0	0	0	0	0	0	0	0	0	0	0	0	0	0	0	0	0	0	0	0	0	0	0	2
5951	59.51	0	0	0	0	0	0	0	0	0	0	0	0	0	0	0	0	0	0	0	0	0	0	0	0	10.989	-10.989	19.033	0	0	0	1	0	0	17.883	2.027	16.961	0	0	0	0	0	0	0	0	0	0	0	0	0	0	0	0	0	0	0	0	0	1	0	0	17.47	2.0148	16.554	0
5952	59.52	0	0	0	0	0	0	0	0	0	0	0	0	0	0	0	0	0	0	0	0	0	1	0	0	17.755	2.1475	16.785	0	0	0	1	0	0	17.883	2.027	16.961	0	0	0	0	0	0	0	0	0	0	0	0	0	-1	0	-2.0278	-17.891	16.968	0	0	0	0	0	0	0	0	0	2
5953	59.53	0	0	0	0	0	0	0	0	0	0	0	0	0	0	0	0	0	0	0	0	0	0	0	0	10.989	-10.989	19.033	0	0	0	0	0	0	0	0	0	0	0	0	0	0	0	0	0	0	0	0	0	0	0	0	0	0	0	0	0	0	1	0	0	17.47	2.0148	16.554	2
5954	59.54	0	0	0	0	0	0	0	0	0	0	0	0	0	0	0	0	0	0	0	0	0	0	0	0	10.989	-10.989	19.033	0	0	0	1	0	0	17.883	2.027	16.961	0	0	0	0	0	0	0	0	0	0	0	0	0	0	0	0	0	0	0	0	0	1	0	0	17.47	2.0148	16.554	2
5955	59.55	0	0	0	0	0	0	0	0	0	0	0	0	0	0	0	0	0	0	0	0	0	0	0	0	10.989	-10.989	19.033	0	0	0	1	0	0	17.883	2.027	16.961	0	0	0	0	0	0	0	0	0	0	0	0	0	0	0	0	0	0	0	0	0	0	0	0	0	0	0	2
5956	59.56	0	0	0	0	0	0	0	0	0	0	0	0	0	0	0	0	0	0	0	0	0	0	0	0	10.989	-10.989	19.033	0	0	0	0	0	0	10.991	-10.991	19.037	0	0	0	0	0	0	0	0	0	0	0	0	0	-1	0	-2.0278	-17.891	16.968	0	0	0	1	0	0	17.47	2.0148	16.554	0
5957	59.57	0	0	0	0	0	0	0	0	0	0	0	0	0	0	0	0	0	0	0	0	0	0	0	0	10.989	-10.989	19.033	0	0	0	1	0	0	17.883	2.027	16.961	0	0	0	0	0	0	0	0	0	0	0	0	1	-1	0	7.5503	-27.469	31.921	0	0	0	1	0	0	17.47	2.0148	16.554	2
5958	59.58	0	0	0	0	0	0	0	0	0	0	0	0	0	0	0	0	0	0	0	0	0	0	0	0	10.989	-10.989	19.033	0	0	0	1	0	0	17.883	2.027	16.961	0	0	0	0	0	0	0	0	0	0	0	0	0	-1	0	-2.0278	-17.891	16.968	0	0	0	0	0	0	0	0	0	2
5959	59.59	0	0	0	0	0	0	0	0	0	0	0	0	0	0	0	0	0	0	0	0	0	0	0	0	10.989	-10.989	19.033	0	0	0	1	0	0	17.883	2.027	16.961	0	0	0	0	0	0	0	0	0	0	0	0	0	-1	0	-2.0278	-17.891	16.968	0	0	0	0	0	0	0	0	0	0
5960	59.6	0	0	0	0	0	0	0	0	0	0	0	0	0	0	0	0	0	0	0	0	0	0	0	0	10.989	-10.989	19.033	0	0	0	0	0	0	0	0	0	0	0	0	0	0	0	10.996	-10.996	19.046	0	0	0	0	0	0	0	0	0	0	0	0	0	0	0	0	0	0	2
5961	59.61	0	0	0	0	0	0	0	0	0	0	0	0	0	0	0	0	0	0	0	0	0	0	0	0	10.989	-10.989	19.033	0	0	0	1	0	0	17.883	2.027	16.961	0	0	0	0	0	0	0	0	0	0	0	0	0	-1	0	-2.0278	-17.891	16.968	0	0	0	1	0	0	17.47	2.0148	16.554	0
5962	59.62	0	0	0	0	0	0	10.917	-10.917	18.908	0	0	0	0	0	0	0	0	0	0	0	0	1	0	0	17.755	2.1475	16.785	0	0	0	1	0	0	17.761	2.1499	16.789	0	0	0	0	0	0	0	0	0	0	0	0	0	0	0	0	0	0	0	0	0	0	0	0	0	0	0	2
5963	59.63	0	0	0	0	0	0	0	0	0	0	0	0	0	0	0	0	0	0	0	0	0	0	0	0	0	0	0	0	0	0	0	0	0	0	0	0	0	0	0	0	0	0	0	0	0	0	0	0	0	0	0	0	0	0	0	0	0	0	0	0	0	0	0	0
5964	59.64	0	0	0	0	0	0	10.917	-10.917	18.908	0	0	0	0	0	0	0	0	0	0	0	0	0	0	0	10.989	-10.989	19.033	0	0	0	1	0	0	17.883	2.027	16.961	0	0	0	0	0	0	0	0	0	0	0	0	0	0	0	0	0	0	0	0	0	1	0	0	17.47	2.0148	16.554	2
5965	59.65	0	0	0	0	0	0	0	0	0	0	0	0	0	0	0	0	0	0	0	0	0	0	0	0	10.989	-10.989	19.033	0	0	0	1	0	0	17.761	2.1499	16.789	0	0	0	0	0	0	0	0	0	0	0	0	0	0	0	0	0	0	0	0	0	1	0	0	17.47	2.0148	16.554	2
5966	59.66	0	0	0	0	0	0	10.917	-10.917	18.908	0	0	0	0	0	0	0	0	0	0	0	0	0	0	0	10.989	-10.989	19.033	0	0	0	1	0	0	17.883	2.027	16.961	0	0	0	0	0	0	0	0	0	0	0	0	1	-1	0	7.5503	-27.469	31.921	0	0	0	0	0	0	0	0	0	2
5967	59.67	0	0	0	0	0	0	0	0	0	0	0	0	0	0	0	0	0	0	0	0	0	0	0	0	10.989	-10.989	19.033	0	0	0	1	0	0	17.761	2.1499	16.789	0	0	0	0	0	0	0	0	0	0	0	0	0	0	0	0	0	0	0	0	0	0	0	0	0	0	0	2
5968	59.68	0	0	0	0	0	0	0	0	0	0	0	0	0	0	0	0	0	0	0	0	0	0	0	0	10.989	-10.989	19.033	0	0	0	0	0	0	0	0	0	0	0	0	0	0	0	0	0	0	0	0	0	0	0	0	0	0	0	0	0	0	0	0	0	0	0	0	2
5969	59.69	0	0	0	0	0	0	10.917	-10.917	18.908	0	0	0	0	0	0	0	0	0	0	0	0	0	0	0	10.989	-10.989	19.033	0	0	0	1	0	0	17.883	2.027	16.961	0	0	0	0	0	0	0	0	0	0	0	0	0	0	0	0	0	0	0	0	0	1	0	0	17.47	2.0148	16.554	2
5970	59.7	0	0	0	0	0	0	0	0	0	0	0	0	0	0	0	0	0	0	0	0	0	0	0	0	10.989	-10.989	19.033	0	0	0	0	0	0	10.991	-10.991	19.037	0	0	0	0	0	0	0	0	0	0	0	0	0	0	0	0	0	0	0	0	0	0	0	0	0	0	0	2
5971	59.71	0	0	0	0	0	0	0	0	0	0	0	0	0	0	0	0	0	0	0	0	0	0	0	0	10.989	-10.989	19.033	0	0	0	1	0	0	17.883	2.027	16.961	0	0	0	0	0	0	0	0	0	0	0	0	0	-1	0	-2.0278	-17.891	16.968	0	0	0	0	0	0	0	0	0	2
5972	59.72	0	0	0	0	0	0	0	0	0	0	0	0	0	0	0	0	0	0	0	0	0	0	0	0	10.989	-10.989	19.033	0	0	0	1	0	0	17.761	2.1499	16.789	0	0	0	0	0	0	0	0	0	0	0	0	0	0	0	10.994	-10.994	19.042	0	0	0	1	0	0	17.47	2.0148	16.554	2
5973	59.73	0	0	0	0	0	0	0	0	0	0	0	0	0	0	0	0	0	0	0	0	0	0	0	0	10.989	-10.989	19.033	0	0	0	1	0	0	17.883	2.027	16.961	0	0	0	0	0	0	0	0	0	0	0	0	1	-1	0	7.5503	-27.469	31.921	0	0	0	0	0	0	0	0	0	0
5974	59.74	0	0	0	0	0	0	10.917	-10.917	18.908	0	0	0	0	0	0	0	0	0	0	0	0	1	0	0	17.755	2.1475	16.785	0	0	0	1	0	0	17.883	2.027	16.961	0	0	0	0	0	0	0	0	0	0	0	0	0	0	0	10.994	-10.994	19.042	0	0	0	1	0	0	17.47	2.0148	16.554	0
5975	59.75	0	0	0	0	0	0	0	0	0	0	0	0	0	0	0	0	0	0	0	0	0	0	0	0	10.989	-10.989	19.033	0	0	0	1	0	0	17.883	2.027	16.961	0	0	0	0	0	0	0	0	0	0	0	0	0	0	0	0	0	0	0	0	0	1	0	0	17.482	2.0162	16.566	2
5976	59.76	0	0	0	0	0	0	10.917	-10.917	18.908	0	0	0	0	0	0	0	0	0	0	0	0	0	0	0	10.989	-10.989	19.033	0	0	0	0	0	0	0	0	0	0	0	0	0	0	0	0	0	0	0	0	0	1	-1	0	7.5503	-27.469	31.921	0	0	0	0	0	0	0	0	0	0
5977	59.77	0	0	0	0	0	0	0	0	0	0	0	0	0	0	0	0	0	0	0	0	0	0	0	0	10.989	-10.989	19.033	0	0	0	1	0	0	17.761	2.1499	16.789	0	0	0	0	0	0	0	0	0	0	0	0	0	0	0	0	0	0	0	0	0	1	0	0	17.47	2.0148	16.554	0
5978	59.78	0	0	0	0	0	0	0	0	0	0	0	0	0	0	0	0	0	0	0	0	0	0	0	0	10.989	-10.989	19.033	0	0	0	1	0	0	17.883	2.027	16.961	0	0	0	0	0	0	0	0	0	0	0	0	0	0	0	10.994	-10.994	19.042	0	0	0	0	0	0	0	0	0	2
5979	59.79	0	0	0	0	0	0	0	0	0	0	0	0	0	0	0	0	0	0	0	0	0	0	0	0	10.989	-10.989	19.033	0	0	0	1	0	0	17.883	2.027	16.961	0	0	0	0	0	0	0	0	0	0	0	0	0	-1	0	-2.0278	-17.891	16.968	0	0	0	1	0	0	17.47	2.0148	16.554	2
5980	59.8	0	0	0	0	-1	0	-2.0364	-17.814	16.888	0	0	0	0	0	0	0	0	0	0	0	0	0	0	0	10.989	-10.989	19.033	0	0	0	1	0	0	17.883	2.027	16.961	0	0	0	0	0	0	0	0	0	0	0	0	1	-1	0	7.5503	-27.469	31.921	0	0	0	0	0	0	0	0	0	0
5981	59.81	0	0	0	0	0	0	10.917	-10.917	18.908	0	0	0	0	0	0	0	0	0	0	0	0	1	0	0	17.755	2.1475	16.785	0	0	0	1	0	0	17.883	2.027	16.961	0	0	0	0	0	0	0	0	0	0	0	0	0	-1	0	-2.0278	-17.891	16.968	0	0	0	1	0	0	17.47	2.0148	16.554	2
5982	59.82	0	0	0	0	0	0	0	0	0	0	0	0	0	0	0	0	0	0	0	0	0	1	0	0	17.755	2.1475	16.785	0	0	0	0	0	0	10.991	-10.991	19.037	0	0	0	0	0	0	0	0	0	0	0	0	0	-1	0	-2.0278	-17.891	16.968	0	0	0	0	0	0	0	0	0	2
5983	59.83	0	0	0	0	0	0	0	0	0	0	0	0	0	0	0	0	0	0	0	0	0	0	0	0	10.989	-10.989	19.033	0	0	0	1	0	0	17.883	2.027	16.961	0	0	0	0	0	0	0	0	0	0	0	0	0	-1	0	-2.0278	-17.891	16.968	0	0	0	0	0	0	0	0	0	2
5984	59.84	0	0	0	0	0	0	0	0	0	0	0	0	0	0	0	0	0	0	0	0	0	1	0	0	17.755	2.1475	16.785	0	0	0	0	0	0	0	0	0	0	0	0	0	0	0	0	0	0	0	0	0	0	0	0	10.994	-10.994	19.042	0	0	0	1	0	0	17.482	2.0162	16.566	2
5985	59.85	0	0	0	0	0	0	0	0	0	0	0	0	0	0	0	0	0	0	0	0	0	0	0	0	10.989	-10.989	19.033	0	0	0	0	0	0	0	0	0	0	0	0	0	0	0	0	0	0	0	0	0	0	-1	0	-2.0278	-17.891	16.968	0	0	0	0	0	0	0	0	0	0
5986	59.86	0	0	0	0	0	0	0	0	0	0	0	0	0	0	0	0	0	0	0	0	0	0	0	0	10.989	-10.989	19.033	0	0	0	1	0	0	17.883	2.027	16.961	0	0	0	0	0	0	0	0	0	0	0	0	0	0	0	0	0	0	0	0	0	0	0	0	0	0	0	0
5987	59.87	0	0	0	0	0	0	0	0	0	0	0	0	0	0	0	0	0	0	0	0	0	0	0	0	10.989	-10.989	19.033	0	0	0	0	0	0	0	0	0	0	0	0	0	0	0	0	0	0	0	0	0	0	0	0	0	0	0	0	0	0	0	0	0	0	0	0	2
5988	59.88	0	0	0	0	0	0	0	0	0	0	0	0	0	0	0	0	0	0	0	0	0	0	0	0	10.989	-10.989	19.033	0	0	0	0	0	0	0	0	0	0	0	0	0	0	0	0	0	0	0	0	0	0	-1	0	-2.0278	-17.891	16.968	0	0	0	0	0	0	0	0	0	2
5989	59.89	0	0	0	0	0	0	0	0	0	0	0	0	0	0	0	0	0	0	0	0	0	1	0	0	17.755	2.1475	16.785	0	0	0	1	0	0	17.761	2.1499	16.789	0	0	0	0	0	0	0	0	0	0	0	0	0	-1	0	-2.0278	-17.891	16.968	0	0	0	0	0	0	0	0	0	2
5990	59.9	0	0	0	0	0	0	0	0	0	0	0	0	0	0	0	0	0	0	0	0	0	0	0	0	0	0	0	0	0	0	0	0	0	0	0	0	0	0	0	0	0	0	0	0	0	0	0	0	1	-1	0	7.5503	-27.469	31.921	0	0	0	0	0	0	0	0	0	0
5991	59.91	0	0	0	0	0	0	0	0	0	0	0	0	0	0	0	0	0	0	0	0	0	0	0	0	10.989	-10.989	19.033	0	0	0	1	0	0	17.883	2.027	16.961	0	0	0	0	0	0	0	0	0	0	0	0	0	0	0	10.994	-10.994	19.042	0	0	0	0	0	0	0	0	0	2
5992	59.92	0	0	0	0	0	0	0	0	0	0	0	0	0	0	0	0	0	0	0	0	0	0	0	0	10.989	-10.989	19.033	0	0	0	0	0	0	0	0	0	0	0	0	0	0	0	0	0	0	0	0	0	1	-1	0	7.5503	-27.469	31.921	0	0	0	1	0	0	17.482	2.0162	16.566	2
5993	59.93	0	0	0	0	0	0	0	0	0	0	0	0	0	0	0	0	0	0	0	0	0	0	0	0	10.989	-10.989	19.033	0	0	0	1	0	0	17.883	2.027	16.961	0	0	0	0	0	0	0	0	0	0	0	0	0	-1	0	-2.0278	-17.891	16.968	0	0	0	0	0	0	0	0	0	2
5994	59.94	0	0	0	0	0	0	0	0	0	0	0	0	0	0	0	0	0	0	0	0	0	0	0	0	10.989	-10.989	19.033	0	0	0	0	0	0	0	0	0	0	0	0	0	0	0	0	0	0	0	0	0	0	0	0	0	0	0	0	0	0	0	0	0	0	0	0	0
5995	59.95	0	0	0	0	0	0	0	0	0	0	0	0	0	0	0	0	0	0	0	0	0	0	0	0	10.989	-10.989	19.033	0	0	0	1	0	0	17.883	2.027	16.961	0	0	0	0	0	0	0	0	0	0	0	0	1	-1	0	7.5503	-27.469	31.921	0	0	0	0	0	0	0	0	0	2
5996	59.96	0	0	0	0	0	0	0	0	0	0	0	0	0	0	0	0	0	0	0	0	0	0	0	0	10.989	-10.989	19.033	0	0	0	0	0	0	10.991	-10.991	19.037	0	0	0	0	0	0	0	0	0	0	0	0	0	-1	0	-2.0278	-17.891	16.968	0	0	0	0	0	0	0	0	0	0
5997	59.97	0	0	0	0	0	0	0	0	0	0	0	0	0	0	0	0	0	0	0	0	0	0	0	0	10.989	-10.989	19.033	0	0	0	1	0	0	17.883	2.027	16.961	0	0	0	0	0	0	0	0	0	0	0	0	0	-1	0	-2.0278	-17.891	16.968	0	0	0	0	0	0	0	0	0	2
5998	59.98	0	0	0	0	0	0	0	0	0	0	0	0	0	0	0	0	0	0	0	0	0	0	0	0	10.989	-10.989	19.033	0	0	0	0	0	0	0	0	0	0	0	0	0	0	0	0	0	0	0	0	0	0	-1	0	-2.0278	-17.891	16.968	0	0	0	0	0	0	0	0	0	2
5999	59.99	0	0	0	0	0	0	0	0	0	0	0	0	0	0	0	0	0	0	0	0	0	0	0	0	10.989	-10.989	19.033	0	0	0	0	0	0	10.991	-10.991	19.037	0	0	0	0	0	0	0	0	0	0	0	0	0	0	0	10.994	-10.994	19.042	0	0	0	1	0	0	17.47	2.0148	16.554	2
6000	60	0	0	0	0	0	0	0	0	0	0	0	0	0	0	0	0	0	0	0	0	0	0	0	0	10.989	-10.989	19.033	0	0	0	1	0	0	17.883	2.027	16.961	0	0	0	0	0	0	0	0	0	0	0	0	0	0	0	0	0	0	0	0	0	0	0	0	0	0	0	2
6001	60.01	0	0	0	0	0	0	10.917	-10.917	18.908	0	0	0	0	0	0	0	0	0	0	0	0	0	0	0	10.989	-10.989	19.033	0	0	0	0	0	0	0	0	0	0	0	0	0	0	0	0	0	0	0	0	0	1	-1	0	7.5503	-27.469	31.921	0	0	0	0	0	0	0	0	0	2
6002	60.02	0	0	0	0	0	0	0	0	0	0	0	0	0	0	0	0	0	0	0	0	0	0	0	0	10.989	-10.989	19.033	0	0	0	1	0	0	17.761	2.1499	16.789	0	0	0	0	0	0	0	0	0	0	0	0	0	0	0	0	0	0	0	0	0	1	0	0	17.47	2.0148	16.554	2
6003	60.03	0	0	0	0	0	0	0	0	0	0	0	0	0	0	0	0	0	0	0	0	0	0	0	0	10.989	-10.989	19.033	0	0	0	0	0	0	0	0	0	0	0	0	0	0	0	0	0	0	0	0	0	0	-1	0	-2.0278	-17.891	16.968	0	0	0	0	0	0	0	0	0	2
6004	60.04	0	0	0	0	0	0	0	0	0	0	0	0	0	0	0	0	0	0	0	0	0	1	0	0	17.755	2.1475	16.785	0	0	0	1	0	0	17.761	2.1499	16.789	0	0	0	0	0	0	0	0	0	0	0	0	0	0	0	10.994	-10.994	19.042	0	0	0	0	0	0	0	0	0	0
6005	60.05	0	0	0	0	0	0	0	0	0	0	0	0	0	0	0	0	0	0	0	0	0	0	0	0	10.989	-10.989	19.033	0	0	0	0	0	0	0	0	0	0	0	0	0	0	0	0	0	0	0	0	0	0	-1	0	-2.0278	-17.891	16.968	0	0	0	0	0	0	0	0	0	2
6006	60.06	0	0	0	0	0	0	0	0	0	0	0	0	0	0	0	0	0	0	0	0	0	1	0	0	17.876	2.0262	16.954	0	0	0	0	0	0	0	0	0	0	0	0	0	0	0	0	0	0	0	0	0	0	-1	0	-2.0278	-17.891	16.968	0	0	0	0	0	0	0	0	0	2
6007	60.07	0	0	0	0	0	0	0	0	0	0	0	0	0	0	0	0	0	0	0	0	0	0	0	0	10.989	-10.989	19.033	0	0	0	1	0	0	17.883	2.027	16.961	0	0	0	0	0	0	0	0	0	0	0	0	0	0	0	0	0	0	0	0	0	0	0	0	0	0	0	2
6008	60.08	0	0	0	0	0	0	0	0	0	0	0	0	0	0	0	0	0	0	0	0	0	0	0	0	10.989	-10.989	19.033	0	0	0	1	0	0	17.883	2.027	16.961	0	0	0	0	0	0	0	0	0	0	0	0	0	-1	0	-2.0278	-17.891	16.968	0	0	0	0	0	0	0	0	0	2
6009	60.09	0	0	0	0	0	0	0	0	0	0	0	0	0	0	0	0	0	0	0	0	0	0	0	0	10.989	-10.989	19.033	0	0	0	0	0	0	0	0	0	0	0	0	0	0	0	0	0	0	0	0	0	1	-1	0	7.5503	-27.469	31.921	0	0	0	1	0	0	17.47	2.0148	16.554	2
6010	60.1	0	0	0	0	0	0	0	0	0	0	0	0	0	0	0	0	0	0	0	0	0	0	0	0	10.989	-10.989	19.033	0	0	0	0	0	0	0	0	0	0	0	0	0	0	0	10.996	-10.996	19.046	0	0	0	0	0	0	0	0	0	0	0	0	0	0	0	0	0	0	2
6011	60.11	0	0	0	0	0	0	0	0	0	0	0	0	0	0	0	0	0	0	0	0	0	0	0	0	10.989	-10.989	19.033	0	0	0	0	0	0	10.991	-10.991	19.037	0	0	0	0	0	0	0	0	0	0	0	0	0	0	0	10.994	-10.994	19.042	0	0	0	1	0	0	17.47	2.0148	16.554	2
6012	60.12	0	0	0	0	0	0	0	0	0	0	0	0	0	0	0	0	0	0	0	0	0	0	0	0	10.989	-10.989	19.033	0	0	0	1	0	0	17.883	2.027	16.961	0	0	0	0	0	0	0	0	0	0	0	0	0	-1	0	-2.0278	-17.891	16.968	0	0	0	1	0	0	17.47	2.0148	16.554	2
6013	60.13	0	0	0	0	0	0	0	0	0	0	0	0	0	0	0	0	0	0	0	0	0	0	0	0	10.989	-10.989	19.033	0	0	0	0	0	0	0	0	0	0	0	0	0	0	0	0	0	0	0	0	0	0	-1	0	-2.0278	-17.891	16.968	0	0	0	0	0	0	0	0	0	2
6014	60.14	0	0	0	0	0	0	0	0	0	0	0	0	0	0	0	0	0	0	0	0	0	1	0	0	17.755	2.1475	16.785	0	0	0	1	0	0	17.883	2.027	16.961	0	0	0	0	0	0	0	0	0	0	0	0	0	-1	0	-2.0278	-17.891	16.968	0	0	0	1	0	0	17.47	2.0148	16.554	2
6015	60.15	0	0	0	0	0	0	0	0	0	0	0	0	0	0	0	0	0	0	0	0	0	0	0	0	10.989	-10.989	19.033	0	0	0	1	0	0	17.883	2.027	16.961	0	0	0	0	0	0	0	0	0	0	0	0	0	-1	0	-2.0278	-17.891	16.968	0	0	0	0	0	0	0	0	0	2
6016	60.16	0	0	0	0	0	0	0	0	0	0	0	0	0	0	0	0	0	0	0	0	0	0	0	0	10.989	-10.989	19.033	0	0	0	1	0	0	17.761	2.1499	16.789	0	0	0	0	0	0	0	0	0	0	0	0	1	-1	0	7.5503	-27.469	31.921	0	0	0	0	0	0	0	0	0	2
6017	60.17	0	0	0	0	0	0	0	0	0	0	0	0	0	0	0	0	0	0	0	0	0	1	0	0	17.755	2.1475	16.785	0	0	0	1	0	0	17.761	2.1499	16.789	0	0	0	0	0	0	0	0	0	0	0	0	0	0	0	10.994	-10.994	19.042	0	0	0	0	0	0	0	0	0	2
6018	60.18	0	0	0	0	0	0	10.917	-10.917	18.908	0	0	0	0	0	0	0	0	0	0	0	0	0	0	0	10.989	-10.989	19.033	0	0	0	0	0	0	0	0	0	0	0	0	0	0	0	0	0	0	0	0	0	0	0	0	0	0	0	0	0	0	0	0	0	0	0	0	2
6019	60.19	0	0	0	0	0	0	0	0	0	0	0	0	0	0	0	0	0	0	0	0	0	1	0	0	17.755	2.1475	16.785	0	0	0	1	0	0	17.883	2.027	16.961	0	0	0	0	0	0	0	0	0	0	0	0	0	0	0	10.994	-10.994	19.042	0	0	0	0	0	0	0	0	0	2
6020	60.2	0	0	0	0	0	0	0	0	0	0	0	0	0	0	0	0	0	0	0	0	0	0	0	0	10.989	-10.989	19.033	0	0	0	0	0	0	0	0	0	0	0	0	0	0	0	0	0	0	0	0	0	0	-1	0	-2.0278	-17.891	16.968	0	0	0	0	0	0	0	0	0	2
6021	60.21	0	0	0	0	0	0	0	0	0	0	0	0	0	0	0	0	0	0	0	0	0	1	0	0	17.755	2.1475	16.785	0	0	0	1	0	0	17.761	2.1499	16.789	0	0	0	0	0	0	0	0	0	0	0	0	0	0	0	10.994	-10.994	19.042	0	0	0	0	0	0	0	0	0	0
6022	60.22	0	0	0	0	0	0	0	0	0	0	0	0	0	0	0	0	0	0	0	0	0	0	0	0	10.989	-10.989	19.033	0	0	0	1	0	0	17.883	2.027	16.961	0	0	0	0	0	0	0	0	0	0	0	0	1	-1	0	7.5503	-27.469	31.921	0	0	0	1	0	0	17.482	2.0162	16.566	2
6023	60.23	0	0	0	0	0	0	0	0	0	0	0	0	0	0	0	0	0	0	0	0	0	0	0	0	10.989	-10.989	19.033	0	0	0	0	0	0	0	0	0	0	0	0	0	0	0	10.996	-10.996	19.046	0	0	0	0	-1	0	-2.0278	-17.891	16.968	0	0	0	0	0	0	0	0	0	2
6024	60.24	0	0	0	0	0	0	0	0	0	0	0	0	0	0	0	0	0	0	0	0	0	1	0	0	17.755	2.1475	16.785	0	0	0	1	0	0	17.883	2.027	16.961	0	0	0	0	0	0	0	0	0	0	0	0	0	0	0	0	0	0	0	0	0	1	0	0	17.471	2.0135	16.556	2
6025	60.25	0	0	0	0	0	0	0	0	0	0	0	0	0	0	0	0	0	0	0	0	0	0	0	0	10.989	-10.989	19.033	0	0	0	1	0	0	17.883	2.027	16.961	0	0	0	0	0	0	0	0	0	0	0	0	0	0	0	10.994	-10.994	19.042	0	0	0	0	0	0	0	0	0	0
6026	60.26	0	0	0	0	0	0	0	0	0	0	0	0	0	0	0	0	0	0	0	0	0	1	0	0	17.755	2.1475	16.785	0	0	0	0	0	0	0	0	0	0	0	0	0	0	0	0	0	0	0	0	0	0	0	0	10.994	-10.994	19.042	0	0	0	1	0	0	17.47	2.0148	16.554	2
6027	60.27	0	0	0	0	0	0	0	0	0	0	0	0	0	0	0	0	0	0	0	0	0	0	0	0	10.989	-10.989	19.033	0	0	0	1	0	0	17.761	2.1499	16.789	0	0	0	0	0	0	0	0	0	0	0	0	0	0	0	0	0	0	0	0	0	1	0	0	17.47	2.0148	16.554	2
6028	60.28	0	0	0	0	0	0	0	0	0	0	0	0	0	0	0	0	0	0	0	0	0	0	0	0	10.989	-10.989	19.033	0	0	0	0	0	0	0	0	0	0	0	0	0	0	0	0	0	0	0	0	0	0	0	0	0	0	0	0	0	0	0	0	0	0	0	0	2
6029	60.29	0	0	0	0	0	0	10.917	-10.917	18.908	0	0	0	0	0	0	0	0	0	0	0	0	0	0	0	10.989	-10.989	19.033	0	0	0	1	0	0	17.883	2.027	16.961	0	0	0	0	0	0	0	0	0	0	0	0	0	0	0	10.994	-10.994	19.042	0	0	0	1	0	0	17.471	2.0135	16.556	0
6030	60.3	0	0	0	0	0	0	0	0	0	0	0	0	0	0	0	0	0	0	0	0	0	0	0	0	10.989	-10.989	19.033	0	0	0	0	0	0	0	0	0	0	0	0	0	0	0	0	0	0	0	0	0	1	-1	0	7.5503	-27.469	31.921	0	0	0	0	0	0	0	0	0	2
6031	60.31	0	0	0	0	0	0	10.917	-10.917	18.908	0	0	0	0	0	0	0	0	0	0	0	0	0	0	0	10.989	-10.989	19.033	0	0	0	1	0	0	17.883	2.027	16.961	0	0	0	0	0	0	0	0	0	0	0	0	0	0	0	10.994	-10.994	19.042	0	0	0	1	0	0	17.47	2.0148	16.554	2
6032	60.32	0	0	0	0	0	0	0	0	0	0	0	0	0	0	0	0	0	0	0	0	0	1	0	0	17.755	2.1475	16.785	0	0	0	1	0	0	17.761	2.1499	16.789	0	0	0	0	0	0	0	0	0	0	0	0	0	0	0	10.994	-10.994	19.042	0	0	0	1	0	0	30.423	8.5595	27.174	2
6033	60.33	0	0	0	0	0	0	0	0	0	0	0	0	0	0	0	0	0	0	0	0	0	0	0	0	10.989	-10.989	19.033	0	0	0	0	0	0	0	0	0	0	0	0	0	0	0	0	0	0	0	0	0	0	0	0	10.994	-10.994	19.042	0	0	0	0	0	0	0	0	0	2
6034	60.34	0	0	0	0	0	0	10.917	-10.917	18.908	0	0	0	0	0	0	0	0	0	0	0	0	0	0	0	10.989	-10.989	19.033	0	0	0	1	0	0	17.761	2.1499	16.789	0	0	0	0	0	0	0	0	0	0	0	0	0	0	0	0	0	0	0	0	0	1	0	0	17.47	2.0148	16.554	2
6035	60.35	0	0	0	0	0	0	0	0	0	0	0	0	0	0	0	0	0	0	0	0	0	0	0	0	10.989	-10.989	19.033	0	0	0	0	0	0	0	0	0	0	0	0	0	0	0	0	0	0	0	0	0	0	0	0	0	0	0	0	0	0	0	0	0	0	0	0	2
6036	60.36	0	0	0	0	0	0	0	0	0	0	0	0	0	0	0	0	0	0	0	0	0	1	0	0	17.755	2.1475	16.785	0	0	0	1	0	0	17.883	2.027	16.961	0	0	0	0	0	0	0	0	0	0	0	0	0	0	0	10.994	-10.994	19.042	0	0	0	0	0	0	0	0	0	0
6037	60.37	0	0	0	0	0	0	0	0	0	0	0	0	0	0	0	0	0	0	0	0	0	0	0	0	10.989	-10.989	19.033	0	0	0	1	0	0	17.883	2.027	16.961	0	0	0	0	0	0	0	0	0	0	0	0	0	0	0	0	0	0	0	0	0	0	0	0	0	0	0	2
6038	60.38	0	0	0	0	0	0	0	0	0	0	0	0	0	0	0	0	0	0	0	0	0	0	0	0	10.989	-10.989	19.033	0	0	0	1	0	0	17.883	2.027	16.961	0	0	0	0	0	0	0	0	0	0	0	0	0	0	0	10.994	-10.994	19.042	0	0	0	0	0	0	10.93	-10.93	18.931	2
6039	60.39	0	0	0	0	0	0	0	0	0	0	0	0	0	0	0	0	0	0	0	0	0	1	0	0	17.755	2.1475	16.785	0	0	0	1	0	0	17.761	2.1499	16.789	0	0	0	0	0	0	0	0	0	0	0	0	0	0	0	10.994	-10.994	19.042	0	0	0	1	0	0	17.47	2.0148	16.554	2
6040	60.4	0	0	0	0	0	0	0	0	0	0	0	0	0	0	0	0	0	0	0	0	0	0	0	0	10.989	-10.989	19.033	0	0	0	0	0	0	0	0	0	0	0	0	0	0	0	10.996	-10.996	19.046	0	0	0	0	0	0	0	0	0	0	0	0	1	0	0	17.482	2.0162	16.566	2
6041	60.41	0	0	0	0	0	0	10.917	-10.917	18.908	0	0	0	0	0	0	0	0	0	0	0	0	0	0	0	10.989	-10.989	19.033	0	0	0	0	0	0	10.991	-10.991	19.037	0	0	0	0	0	0	0	0	0	0	0	0	0	0	0	10.994	-10.994	19.042	0	0	0	0	0	0	0	0	0	2
6042	60.42	0	0	0	0	0	0	0	0	0	0	0	0	0	0	0	0	0	0	0	0	0	0	0	0	10.989	-10.989	19.033	0	0	0	1	0	0	17.883	2.027	16.961	0	0	0	0	0	0	0	0	0	0	0	0	1	-1	0	7.5503	-27.469	31.921	0	0	0	0	0	0	0	0	0	0
6043	60.43	0	0	0	0	0	0	0	0	0	0	0	0	0	0	0	0	0	0	0	0	0	0	0	0	10.989	-10.989	19.033	0	0	0	1	0	0	17.883	2.027	16.961	0	0	0	0	0	0	0	0	0	0	0	0	0	0	0	10.994	-10.994	19.042	0	0	0	0	0	0	0	0	0	2
6044	60.44	0	0	0	0	0	0	0	0	0	0	0	0	0	0	0	0	0	0	0	0	0	0	0	0	10.989	-10.989	19.033	0	0	0	1	0	0	17.883	2.027	16.961	0	0	0	0	0	0	0	0	0	0	0	0	0	0	0	0	0	0	0	0	0	1	0	0	17.47	2.0148	16.554	2
6045	60.45	0	0	0	0	0	0	0	0	0	0	0	0	0	0	0	0	0	0	0	0	0	0	0	0	0	0	0	0	0	0	0	0	0	10.991	-10.991	19.037	0	0	0	0	0	0	0	0	0	0	0	0	0	0	0	0	0	0	0	0	0	0	0	0	0	0	0	2
6046	60.46	0	0	0	0	0	0	0	0	0	0	0	0	0	0	0	0	0	0	0	0	0	0	0	0	10.989	-10.989	19.033	0	0	0	1	0	0	17.883	2.027	16.961	0	0	0	0	0	0	0	0	0	0	0	0	0	0	0	0	0	0	0	0	0	0	0	0	0	0	0	0
6047	60.47	0	0	0	0	0	0	0	0	0	0	0	0	0	0	0	0	0	0	0	0	0	0	0	0	10.989	-10.989	19.033	0	0	0	1	0	0	17.761	2.1499	16.789	0	0	0	0	0	0	0	0	0	0	0	0	0	0	0	10.994	-10.994	19.042	0	0	0	0	0	0	0	0	0	2
6048	60.48	0	0	0	0	0	0	0	0	0	0	0	0	0	0	0	0	0	0	0	0	0	0	0	0	10.989	-10.989	19.033	0	0	0	0	0	0	0	0	0	0	0	0	0	0	0	0	0	0	0	0	0	0	0	0	0	0	0	0	0	0	0	0	0	0	0	0	2
6049	60.49	0	0	0	0	0	0	0	0	0	0	0	0	0	0	0	0	0	0	0	0	0	1	0	0	17.755	2.1475	16.785	0	0	0	1	0	0	17.883	2.027	16.961	0	0	0	0	0	0	0	0	0	0	0	0	0	-1	0	-2.0278	-17.891	16.968	0	0	0	0	0	0	0	0	0	0
6050	60.5	0	0	0	0	0	0	0	0	0	0	0	0	0	0	0	0	0	0	0	0	0	1	0	0	17.755	2.1475	16.785	0	0	0	0	0	0	0	0	0	0	0	0	0	0	0	0	0	0	0	0	0	0	0	0	0	0	0	0	0	0	0	0	0	0	0	0	2
6051	60.51	0	0	0	0	0	0	0	0	0	0	0	0	0	0	0	0	0	0	0	0	0	0	0	0	10.989	-10.989	19.033	0	0	0	1	0	0	17.883	2.027	16.961	0	0	0	0	0	0	0	0	0	0	0	0	0	0	0	0	0	0	0	0	0	1	0	0	17.47	2.0148	16.554	2
6052	60.52	0	0	0	0	0	0	10.917	-10.917	18.908	0	0	0	0	0	0	0	0	0	0	0	0	1	0	0	17.755	2.1475	16.785	0	0	0	1	0	0	17.761	2.1499	16.789	0	0	0	0	0	0	0	0	0	0	0	0	0	0	0	0	0	0	0	0	0	1	0	0	17.482	2.0162	16.566	2
6053	60.53	0	0	0	0	0	0	0	0	0	0	0	0	0	0	0	0	0	0	0	0	0	0	0	0	10.989	-10.989	19.033	0	0	0	1	0	0	17.883	2.027	16.961	0	0	0	0	0	0	0	0	0	0	0	0	0	0	0	0	0	0	0	0	0	0	0	0	0	0	0	0
6054	60.54	0	0	0	0	0	0	10.917	-10.917	18.908	0	0	0	0	0	0	0	0	0	0	0	0	1	0	0	17.755	2.1475	16.785	0	0	0	1	0	0	17.883	2.027	16.961	0	0	0	0	0	0	0	0	0	0	0	0	0	0	0	10.994	-10.994	19.042	0	0	0	1	0	0	17.47	2.0148	16.554	2
6055	60.55	0	0	0	0	-1	0	-2.0364	-17.814	16.888	0	0	0	0	0	0	0	0	0	0	0	0	0	0	0	10.989	-10.989	19.033	0	0	0	1	0	0	17.883	2.027	16.961	0	0	0	0	0	0	0	0	0	0	0	0	0	0	0	0	0	0	0	0	0	0	0	0	0	0	0	2
6056	60.56	0	0	0	0	0	0	0	0	0	0	0	0	0	0	0	0	0	0	0	0	0	1	0	0	17.755	2.1475	16.785	0	0	0	1	0	0	17.883	2.027	16.961	0	0	0	0	-1	0	-2.0279	-17.891	16.969	0	0	0	0	0	0	10.994	-10.994	19.042	0	0	0	1	0	0	17.47	2.0148	16.554	2
6057	60.57	0	0	0	0	0	0	0	0	0	0	0	0	0	0	0	0	0	0	0	0	0	0	0	0	10.989	-10.989	19.033	0	0	0	0	0	0	0	0	0	0	0	0	0	0	0	0	0	0	0	0	0	0	0	0	0	0	0	0	0	0	1	0	0	17.482	2.0162	16.566	2
6058	60.58	0	0	0	0	0	0	0	0	0	0	0	0	0	0	0	0	0	0	0	0	0	0	0	0	10.989	-10.989	19.033	0	0	0	1	0	0	17.883	2.027	16.961	0	0	0	0	0	0	0	0	0	0	0	0	0	0	0	0	0	0	0	0	0	0	0	0	0	0	0	2
6059	60.59	0	0	0	0	0	0	0	0	0	0	0	0	0	0	0	0	0	0	0	0	0	1	0	0	17.755	2.1475	16.785	0	0	0	1	0	0	17.883	2.027	16.961	0	0	0	0	0	0	0	0	0	0	0	0	0	0	0	10.994	-10.994	19.042	0	0	0	0	0	0	0	0	0	2
6060	60.6	0	0	0	0	0	0	0	0	0	0	0	0	0	0	0	0	0	0	0	0	0	1	0	0	17.755	2.1475	16.785	0	0	0	1	0	0	17.883	2.027	16.961	0	0	0	0	0	0	0	0	0	0	0	0	0	0	0	10.994	-10.994	19.042	0	0	0	1	0	0	17.47	2.0148	16.554	0
6061	60.61	0	0	0	0	0	0	0	0	0	0	0	0	0	0	0	0	0	0	0	0	0	0	0	0	10.989	-10.989	19.033	0	0	0	1	0	0	17.883	2.027	16.961	0	0	0	0	0	0	0	0	0	0	0	0	0	-1	0	-2.0278	-17.891	16.968	0	0	0	0	0	0	0	0	0	2
6062	60.62	0	0	0	0	0	0	0	0	0	0	0	0	0	0	0	0	0	0	0	0	0	0	0	0	10.989	-10.989	19.033	0	0	0	1	0	0	17.883	2.027	16.961	0	0	0	0	0	0	0	0	0	0	0	0	0	0	0	10.994	-10.994	19.042	0	0	0	1	0	0	17.47	2.0148	16.554	2
6063	60.63	0	0	0	0	0	0	0	0	0	0	0	0	0	0	0	0	0	0	0	0	0	0	0	0	10.989	-10.989	19.033	0	0	0	1	0	0	17.883	2.027	16.961	0	0	0	0	0	0	0	0	0	0	0	0	0	0	0	0	0	0	0	0	0	0	0	0	0	0	0	2
6064	60.64	0	0	0	0	0	0	0	0	0	0	0	0	0	0	0	0	0	0	0	0	0	1	0	0	17.755	2.1475	16.785	0	0	0	1	0	0	17.883	2.027	16.961	0	0	0	0	0	0	0	0	0	0	0	0	0	0	0	0	0	0	0	0	0	1	0	0	17.47	2.0148	16.554	2
6065	60.65	0	0	0	0	0	0	0	0	0	0	0	0	0	0	0	0	0	0	0	0	0	0	0	0	10.989	-10.989	19.033	0	0	0	1	0	0	17.883	2.027	16.961	0	0	0	0	0	0	0	0	0	0	0	0	0	0	0	0	0	0	0	0	0	0	0	0	0	0	0	2
6066	60.66	0	0	0	0	0	0	0	0	0	0	0	0	0	0	0	0	0	0	0	0	0	0	0	0	10.989	-10.989	19.033	0	0	0	0	0	0	0	0	0	0	0	0	0	0	0	0	0	0	0	0	0	0	0	0	0	0	0	0	0	0	0	0	0	0	0	0	2
6067	60.67	0	0	0	0	0	0	0	0	0	0	0	0	0	0	0	0	0	0	0	0	0	1	0	0	17.755	2.1475	16.785	0	0	0	1	0	0	17.761	2.1499	16.789	0	0	0	0	0	0	0	0	0	0	0	0	0	0	0	10.994	-10.994	19.042	0	0	0	1	0	0	17.47	2.0148	16.554	2
6068	60.68	0	0	0	0	0	0	0	0	0	0	0	0	0	0	0	0	0	0	0	0	0	0	0	0	10.989	-10.989	19.033	0	0	0	0	0	0	0	0	0	0	0	0	0	0	0	0	0	0	0	0	0	0	0	0	10.994	-10.994	19.042	0	0	0	1	0	0	17.47	2.0148	16.554	2
6069	60.69	0	0	0	0	0	0	10.917	-10.917	18.908	0	0	0	0	0	0	0	0	0	0	0	0	1	0	0	17.755	2.1475	16.785	0	0	0	1	0	0	17.761	2.1499	16.789	0	0	0	0	0	0	0	0	0	0	0	0	0	0	0	0	0	0	0	0	0	0	0	0	0	0	0	0
6070	60.7	0	0	0	0	0	0	0	0	0	0	0	0	0	0	0	0	0	0	0	0	0	0	0	0	10.989	-10.989	19.033	0	0	0	1	0	0	17.883	2.027	16.961	0	0	0	0	0	0	0	0	0	0	0	0	0	0	0	10.994	-10.994	19.042	0	0	0	0	0	0	0	0	0	2
6071	60.71	0	0	0	0	0	0	0	0	0	0	0	0	0	0	0	0	0	0	0	0	0	0	0	0	10.989	-10.989	19.033	0	0	0	1	0	0	17.883	2.027	16.961	0	0	0	0	0	0	0	0	0	0	0	0	0	0	0	10.994	-10.994	19.042	0	0	0	1	0	0	17.47	2.0148	16.554	0
6072	60.72	0	0	0	0	0	0	0	0	0	0	0	0	0	0	0	0	0	0	0	0	0	1	0	0	17.755	2.1475	16.785	0	0	0	1	0	0	17.761	2.1499	16.789	0	0	0	0	0	0	0	0	0	0	0	0	0	0	0	0	0	0	0	0	0	0	0	0	0	0	0	0
6073	60.73	0	0	0	0	0	0	0	0	0	0	0	0	0	0	0	0	0	0	0	0	0	0	0	0	10.989	-10.989	19.033	0	0	0	1	0	0	17.883	2.027	16.961	0	0	0	0	0	0	0	0	0	0	0	0	0	-1	0	-2.0278	-17.891	16.968	0	0	0	0	0	0	0	0	0	2
6074	60.74	0	0	0	0	0	0	10.917	-10.917	18.908	0	0	0	0	0	0	0	0	0	0	0	0	0	0	0	10.989	-10.989	19.033	0	0	0	0	0	0	10.991	-10.991	19.037	0	0	0	0	0	0	0	0	0	0	0	0	0	0	0	0	0	0	0	0	0	1	0	0	17.47	2.0148	16.554	2
6075	60.75	0	0	0	0	0	0	0	0	0	0	0	0	0	0	0	0	0	0	0	0	0	0	0	0	10.989	-10.989	19.033	0	0	0	1	0	0	17.761	2.1499	16.789	0	0	0	0	0	0	0	0	0	0	0	0	0	0	0	0	0	0	0	0	0	0	0	0	0	0	0	2
6076	60.76	0	0	0	0	0	0	0	0	0	0	0	0	0	0	0	0	0	0	0	0	0	0	0	0	10.989	-10.989	19.033	0	0	0	0	0	0	0	0	0	0	0	0	0	0	0	0	0	0	0	0	0	0	0	0	0	0	0	0	0	0	1	0	0	17.47	2.0148	16.554	2
6077	60.77	0	0	0	0	0	0	0	0	0	0	0	0	0	0	0	0	0	0	0	0	0	1	0	0	17.755	2.1475	16.785	0	0	0	1	0	0	17.761	2.1499	16.789	0	0	0	0	0	0	0	0	0	0	0	0	0	0	0	0	0	0	0	0	0	1	0	0	17.47	2.0148	16.554	2
6078	60.78	0	0	0	0	0	0	0	0	0	0	0	0	0	0	0	0	0	0	0	0	0	0	0	0	10.989	-10.989	19.033	0	0	0	1	0	0	17.883	2.027	16.961	0	0	0	0	0	0	0	0	0	0	0	0	1	-1	0	7.5503	-27.469	31.921	0	0	0	0	0	0	0	0	0	2
6079	60.79	0	0	0	0	0	0	0	0	0	0	0	0	0	0	0	0	0	0	0	0	0	0	0	0	10.989	-10.989	19.033	0	0	0	1	0	0	17.761	2.1499	16.789	0	0	0	0	0	0	10.996	-10.996	19.046	0	0	0	0	0	0	10.994	-10.994	19.042	0	0	0	1	0	0	17.47	2.0148	16.554	2
6080	60.8	0	0	0	0	0	0	0	0	0	0	0	0	0	0	0	0	0	0	0	0	0	0	0	0	10.989	-10.989	19.033	0	0	0	0	0	0	0	0	0	0	0	0	0	0	0	10.996	-10.996	19.046	0	0	0	0	-1	0	-2.0278	-17.891	16.968	0	0	0	1	0	0	17.47	2.0148	16.554	2
6081	60.81	0	0	0	0	0	0	0	0	0	0	0	0	0	0	0	0	0	0	0	0	0	1	0	0	17.755	2.1475	16.785	0	0	0	0	0	0	0	0	0	0	0	0	0	0	0	10.996	-10.996	19.046	0	0	0	0	0	0	0	0	0	0	0	0	1	0	0	17.47	2.0148	16.554	2
6082	60.82	0	0	0	0	0	0	0	0	0	0	0	0	0	0	0	0	0	0	0	0	0	0	0	0	10.989	-10.989	19.033	0	0	0	0	0	0	0	0	0	0	0	0	0	0	0	0	0	0	0	0	0	0	0	0	10.994	-10.994	19.042	0	0	0	1	0	0	17.47	2.0148	16.554	2
6083	60.83	0	0	0	0	0	0	0	0	0	0	0	0	0	0	0	0	0	0	0	0	0	0	0	0	10.989	-10.989	19.033	0	0	0	0	0	0	0	0	0	0	0	0	0	0	0	0	0	0	0	0	0	0	0	0	10.994	-10.994	19.042	0	0	0	0	0	0	0	0	0	2
6084	60.84	0	0	0	0	0	0	0	0	0	0	0	0	0	0	0	0	0	0	0	0	0	0	0	0	10.989	-10.989	19.033	0	0	0	1	0	0	17.883	2.027	16.961	0	0	0	0	0	0	0	0	0	0	0	0	0	0	0	10.994	-10.994	19.042	0	0	0	1	0	0	17.47	2.0148	16.554	2
6085	60.85	0	0	0	0	0	0	10.917	-10.917	18.908	0	0	0	0	0	0	0	0	0	0	0	0	0	0	0	10.989	-10.989	19.033	0	0	0	1	0	0	17.883	2.027	16.961	0	0	0	0	0	0	10.996	-10.996	19.046	0	0	0	0	0	0	0	0	0	0	0	0	0	0	0	0	0	0	2
6086	60.86	0	0	0	0	0	0	0	0	0	0	0	0	0	0	0	0	0	0	0	0	0	1	0	0	17.755	2.1475	16.785	0	0	0	1	0	0	17.883	2.027	16.961	0	0	0	0	0	0	0	0	0	0	0	0	0	0	0	10.994	-10.994	19.042	0	0	0	1	0	0	17.47	2.0148	16.554	2
6087	60.87	0	0	0	0	0	0	0	0	0	0	0	0	0	0	0	0	0	0	0	0	0	0	0	0	10.989	-10.989	19.033	0	0	0	0	0	0	10.991	-10.991	19.037	0	0	0	0	0	0	0	0	0	0	0	0	0	0	0	0	0	0	0	0	0	1	0	0	17.47	2.0148	16.554	2
6088	60.88	0	0	0	0	-1	0	-2.0364	-17.814	16.888	0	0	0	0	0	0	0	0	0	0	0	0	0	0	0	10.989	-10.989	19.033	0	0	0	0	0	0	0	0	0	0	0	0	0	0	0	0	0	0	0	0	0	1	-1	0	7.5503	-27.469	31.921	0	0	0	0	0	0	0	0	0	2
6089	60.89	0	0	0	0	0	0	0	0	0	0	0	0	0	0	0	0	0	0	0	0	0	0	0	0	10.989	-10.989	19.033	0	0	0	1	0	0	17.761	2.1499	16.789	0	0	0	0	0	0	0	0	0	0	0	0	0	-1	0	-2.0278	-17.891	16.968	0	0	0	0	0	0	0	0	0	2
6090	60.9	0	0	0	0	0	0	0	0	0	0	0	0	0	0	0	0	0	0	0	0	0	0	0	0	10.989	-10.989	19.033	0	0	0	0	0	0	0	0	0	0	0	0	0	0	0	0	0	0	0	0	0	0	0	0	0	0	0	0	0	0	0	0	0	0	0	0	2
6091	60.91	0	0	0	0	0	0	0	0	0	0	0	0	0	-1	0	-2.0366	-17.816	16.89	0	0	0	0	0	0	10.989	-10.989	19.033	0	0	0	1	0	0	17.761	2.1499	16.789	0	0	0	0	0	0	0	0	0	0	0	0	1	-1	0	7.5503	-27.469	31.921	0	0	0	0	0	0	0	0	0	2
6092	60.92	0	0	0	0	0	0	0	0	0	0	0	0	0	0	0	0	0	0	0	0	0	0	0	0	10.989	-10.989	19.033	0	0	0	1	0	0	17.883	2.027	16.961	0	0	0	0	0	0	0	0	0	0	0	0	1	-1	0	7.5503	-27.469	31.921	0	0	0	0	0	0	0	0	0	2
6093	60.93	0	0	0	0	0	0	0	0	0	0	0	0	0	0	0	0	0	0	0	0	0	0	0	0	10.989	-10.989	19.033	0	0	0	0	0	0	0	0	0	0	0	0	0	0	0	10.996	-10.996	19.046	0	0	0	0	0	0	0	0	0	0	0	0	0	0	0	0	0	0	2
6094	60.94	0	0	0	0	0	0	0	0	0	0	0	0	0	0	0	0	0	0	0	0	0	0	0	0	10.989	-10.989	19.033	0	0	0	1	0	0	17.761	2.1499	16.789	0	0	0	0	0	0	0	0	0	0	0	0	0	0	0	0	0	0	0	0	0	1	0	0	17.47	2.0148	16.554	2
6095	60.95	0	0	0	0	0	0	0	0	0	0	0	0	0	0	0	0	0	0	0	0	0	0	0	0	10.989	-10.989	19.033	0	0	0	1	0	0	17.883	2.027	16.961	0	0	0	0	0	0	10.996	-10.996	19.046	0	0	0	0	0	0	10.994	-10.994	19.042	0	0	0	0	0	0	0	0	0	2
6096	60.96	0	0	0	0	0	0	0	0	0	0	0	0	0	0	0	0	0	0	0	0	0	0	0	0	10.989	-10.989	19.033	0	0	0	1	0	0	17.883	2.027	16.961	0	0	0	0	0	0	0	0	0	0	0	0	1	-1	0	7.5503	-27.469	31.921	0	0	0	0	0	0	0	0	0	2
6097	60.97	0	0	0	0	0	0	10.917	-10.917	18.908	0	0	0	0	0	0	0	0	0	0	0	0	0	0	0	10.989	-10.989	19.033	0	0	0	1	0	0	17.761	2.1499	16.789	0	0	0	0	-1	0	-2.0279	-17.891	16.969	0	0	0	0	0	0	0	0	0	0	0	0	1	0	0	17.471	2.0135	16.556	2
6098	60.98	0	0	0	0	0	0	0	0	0	0	0	0	0	0	0	0	0	0	0	0	0	0	0	0	10.989	-10.989	19.033	0	0	0	0	0	0	0	0	0	0	0	0	0	0	0	0	0	0	0	0	0	0	0	0	0	0	0	0	0	0	0	0	0	0	0	0	2
6099	60.99	0	0	0	0	0	0	0	0	0	0	0	0	0	0	0	0	0	0	0	0	0	0	0	0	10.989	-10.989	19.033	0	0	0	1	0	0	17.761	2.1499	16.789	0	0	0	0	0	0	0	0	0	0	0	0	0	0	0	10.994	-10.994	19.042	0	0	0	1	0	0	17.47	2.0148	16.554	2
6100	61	0	0	0	0	0	0	0	0	0	0	0	0	0	0	0	0	0	0	0	0	0	0	0	0	10.989	-10.989	19.033	0	0	0	1	0	0	17.883	2.027	16.961	0	0	0	0	0	0	10.996	-10.996	19.046	0	0	0	0	0	0	10.994	-10.994	19.042	0	0	0	0	0	0	0	0	0	2
6101	61.01	0	0	0	0	0	0	0	0	0	0	0	0	0	0	0	0	0	0	0	0	0	0	0	0	10.989	-10.989	19.033	0	0	0	1	0	0	17.883	2.027	16.961	0	0	0	0	0	0	0	0	0	0	0	0	0	0	0	0	0	0	0	0	0	1	0	0	17.47	2.0148	16.554	0
6102	61.02	0	0	0	0	0	0	0	0	0	0	0	0	0	0	0	0	0	0	0	0	0	1	0	0	17.755	2.1475	16.785	0	0	0	1	0	0	17.761	2.1499	16.789	0	0	0	0	0	0	0	0	0	0	0	0	0	-1	0	-2.0278	-17.891	16.968	0	0	0	0	0	0	0	0	0	2
6103	61.03	0	0	0	0	0	0	0	0	0	0	0	0	0	0	0	0	0	0	0	0	0	0	0	0	10.989	-10.989	19.033	0	0	0	1	0	0	17.883	2.027	16.961	0	0	0	0	0	0	0	0	0	0	0	0	0	0	0	10.994	-10.994	19.042	0	0	0	0	0	0	0	0	0	0
6104	61.04	0	0	0	0	0	0	0	0	0	0	0	0	0	0	0	0	0	0	0	0	0	0	0	0	10.989	-10.989	19.033	0	0	0	1	0	0	17.883	2.027	16.961	0	0	0	0	0	0	0	0	0	0	0	0	0	-1	0	-2.0278	-17.891	16.968	0	0	0	0	0	0	0	0	0	2
6105	61.05	0	0	0	0	0	0	0	0	0	0	0	0	0	0	0	0	0	0	0	0	0	0	0	0	10.989	-10.989	19.033	0	0	0	1	0	0	17.883	2.027	16.961	0	0	0	0	0	0	0	0	0	0	0	0	0	0	0	0	0	0	0	0	0	0	0	0	0	0	0	0
6106	61.06	0	0	0	0	0	0	10.917	-10.917	18.908	0	0	0	0	0	0	0	0	0	0	0	0	0	0	0	10.989	-10.989	19.033	0	0	0	1	0	0	17.761	2.1499	16.789	0	0	0	0	0	0	0	0	0	0	0	0	0	0	0	0	0	0	0	0	0	0	0	0	0	0	0	2
6107	61.07	0	0	0	0	0	0	0	0	0	0	0	0	0	0	0	0	0	0	0	0	0	1	0	0	17.755	2.1475	16.785	0	0	0	1	0	0	17.761	2.1499	16.789	0	0	0	0	0	0	0	0	0	0	0	0	0	-1	0	-2.0278	-17.891	16.968	0	0	0	1	0	0	17.47	2.0148	16.554	2
6108	61.08	0	0	0	0	0	0	0	0	0	0	0	0	0	0	0	0	0	0	0	0	0	0	0	0	10.989	-10.989	19.033	0	0	0	1	0	0	17.883	2.027	16.961	0	0	0	0	0	0	0	0	0	0	0	0	0	0	0	0	0	0	0	0	0	0	0	0	0	0	0	2
6109	61.09	0	0	0	0	0	0	0	0	0	0	0	0	0	0	0	0	0	0	0	0	0	0	0	0	10.989	-10.989	19.033	0	0	0	0	0	0	0	0	0	0	0	0	0	0	0	0	0	0	0	0	0	0	0	0	0	0	0	0	0	0	1	0	0	17.47	2.0148	16.554	0
6110	61.1	0	0	0	0	0	0	0	0	0	0	0	0	0	0	0	0	0	0	0	0	0	0	0	0	10.989	-10.989	19.033	0	0	0	1	0	0	17.761	2.1499	16.789	0	0	0	0	0	0	0	0	0	0	0	0	0	0	0	10.994	-10.994	19.042	0	0	0	0	0	0	0	0	0	2
6111	61.11	0	0	0	0	0	0	0	0	0	0	0	0	0	0	0	0	0	0	0	0	0	0	0	0	10.989	-10.989	19.033	0	0	0	1	0	0	17.883	2.027	16.961	0	0	0	0	0	0	10.996	-10.996	19.046	0	0	0	0	0	0	10.994	-10.994	19.042	0	0	0	0	0	0	0	0	0	2
6112	61.12	0	0	0	0	0	0	0	0	0	0	0	0	0	0	0	0	0	0	0	0	0	1	0	0	17.755	2.1475	16.785	0	0	0	1	0	0	17.761	2.1499	16.789	0	0	0	0	0	0	0	0	0	0	0	0	0	0	0	10.994	-10.994	19.042	0	0	0	1	0	0	17.47	2.0148	16.554	2
6113	61.13	0	0	0	0	0	0	0	0	0	0	0	0	0	0	0	0	0	0	0	0	0	0	0	0	10.989	-10.989	19.033	0	0	0	0	0	0	0	0	0	0	0	0	0	0	0	0	0	0	0	0	0	0	0	0	0	0	0	0	0	0	0	0	0	0	0	0	0
6114	61.14	0	0	0	0	0	0	0	0	0	0	0	0	0	0	0	0	0	0	0	0	0	1	0	0	17.755	2.1475	16.785	0	0	0	1	0	0	17.883	2.027	16.961	0	0	0	0	0	0	0	0	0	0	0	0	0	0	0	0	0	0	0	0	0	1	0	0	17.47	2.0148	16.554	2
6115	61.15	0	0	0	0	0	0	0	0	0	0	0	0	0	0	0	0	0	0	0	0	0	0	0	0	10.989	-10.989	19.033	0	0	0	1	0	0	17.761	2.1499	16.789	0	0	0	0	0	0	0	0	0	0	0	0	0	0	0	0	0	0	0	0	0	0	0	0	0	0	0	2
6116	61.16	0	0	0	0	-1	0	-2.0364	-17.814	16.888	0	0	0	0	0	0	0	0	0	0	0	0	0	0	0	10.989	-10.989	19.033	0	0	0	1	0	0	17.883	2.027	16.961	0	0	0	0	0	0	0	0	0	0	0	0	0	0	0	10.994	-10.994	19.042	0	0	0	0	0	0	0	0	0	2
6117	61.17	0	0	0	0	0	0	0	0	0	0	0	0	0	0	0	0	0	0	0	0	0	0	0	0	10.989	-10.989	19.033	0	0	0	1	0	0	17.883	2.027	16.961	0	0	0	0	0	0	0	0	0	0	0	0	0	-1	0	-2.0278	-17.891	16.968	0	0	0	0	0	0	0	0	0	2
6118	61.18	0	0	0	0	0	0	0	0	0	0	0	0	0	0	0	0	0	0	0	0	0	0	0	0	10.989	-10.989	19.033	0	0	0	1	0	0	17.883	2.027	16.961	0	0	0	0	0	0	0	0	0	0	0	0	0	0	0	0	0	0	0	0	0	0	0	0	0	0	0	0
6119	61.19	0	0	0	0	0	0	0	0	0	0	0	0	0	0	0	0	0	0	0	0	0	0	0	0	10.989	-10.989	19.033	0	0	0	1	0	0	17.883	2.027	16.961	0	0	0	0	0	0	0	0	0	0	0	0	0	0	0	10.994	-10.994	19.042	0	0	0	1	0	0	17.47	2.0148	16.554	2
6120	61.2	0	0	0	0	0	0	0	0	0	0	0	0	0	0	0	0	0	0	0	0	0	1	0	0	17.755	2.1475	16.785	0	0	0	1	0	0	17.761	2.1499	16.789	0	0	0	0	0	0	0	0	0	0	0	0	0	0	0	0	0	0	0	0	0	0	0	0	0	0	0	2
6121	61.21	0	0	0	0	0	0	0	0	0	0	0	0	0	-1	0	-2.0366	-17.816	16.89	0	0	0	0	0	0	10.989	-10.989	19.033	0	0	0	1	0	0	17.761	2.1499	16.789	0	0	0	0	0	0	0	0	0	0	0	0	0	0	0	0	0	0	0	0	0	0	0	0	0	0	0	2
6122	61.22	0	0	0	0	0	0	0	0	0	0	0	0	0	0	0	0	0	0	0	0	0	1	0	0	17.755	2.1475	16.785	0	0	0	1	0	0	17.761	2.1499	16.789	0	0	0	0	-1	0	-2.0279	-17.891	16.969	0	0	0	0	-1	0	-2.0278	-17.891	16.968	0	0	0	0	0	0	0	0	0	0
6123	61.23	0	0	0	0	0	0	0	0	0	0	0	0	0	0	0	0	0	0	0	0	0	0	0	0	10.989	-10.989	19.033	0	0	0	0	0	0	0	0	0	0	0	0	0	0	0	0	0	0	0	0	0	0	0	0	10.994	-10.994	19.042	0	0	0	0	0	0	0	0	0	2
6124	61.24	0	0	0	0	0	0	0	0	0	0	0	0	0	0	0	0	0	0	0	0	0	1	0	0	17.755	2.1475	16.785	0	0	0	1	0	0	17.883	2.027	16.961	0	0	0	1	0	0	17.883	2.027	16.961	0	0	0	0	0	0	0	0	0	0	0	0	0	0	0	0	0	0	2
6125	61.25	0	0	0	0	0	0	0	0	0	0	0	0	0	0	0	0	0	0	0	0	0	0	0	0	10.989	-10.989	19.033	0	0	0	1	0	0	17.761	2.1499	16.789	0	0	0	0	0	0	0	0	0	0	0	0	0	0	0	10.994	-10.994	19.042	0	0	0	0	0	0	0	0	0	0
6126	61.26	0	0	0	0	0	0	0	0	0	0	0	0	0	0	0	0	0	0	0	0	0	0	0	0	10.989	-10.989	19.033	0	0	0	1	0	0	17.761	2.1499	16.789	0	0	0	0	0	0	0	0	0	0	0	0	0	0	0	10.994	-10.994	19.042	0	0	0	0	0	0	0	0	0	2
6127	61.27	0	0	0	0	0	0	0	0	0	0	0	0	0	0	0	0	0	0	0	0	0	1	0	0	17.755	2.1475	16.785	0	0	0	1	0	0	17.761	2.1499	16.789	0	0	0	0	0	0	0	0	0	0	0	0	0	0	0	0	0	0	0	0	0	0	0	0	0	0	0	2
6128	61.28	0	0	0	0	0	0	10.917	-10.917	18.908	0	0	0	0	0	0	0	0	0	0	0	0	0	0	0	10.989	-10.989	19.033	0	0	0	1	0	0	17.883	2.027	16.961	0	0	0	0	0	0	0	0	0	0	0	0	0	-1	0	-2.0278	-17.891	16.968	0	0	0	0	0	0	0	0	0	2
6129	61.29	0	0	0	0	0	0	0	0	0	0	0	0	0	0	0	0	0	0	0	0	0	1	0	0	17.755	2.1475	16.785	0	0	0	1	0	0	17.761	2.1499	16.789	0	0	0	0	0	0	0	0	0	0	0	0	0	0	0	0	0	0	0	0	0	0	0	0	0	0	0	2
6130	61.3	0	0	0	0	0	0	10.917	-10.917	18.908	0	0	0	0	0	0	0	0	0	0	0	0	0	0	0	10.989	-10.989	19.033	0	0	0	1	0	0	17.761	2.1499	16.789	0	0	0	0	0	0	0	0	0	0	0	0	0	0	0	0	0	0	0	0	0	0	0	0	0	0	0	0
6131	61.31	0	0	0	0	0	0	0	0	0	0	0	0	0	0	0	0	0	0	0	0	0	0	0	0	10.989	-10.989	19.033	0	0	0	1	0	0	17.883	2.027	16.961	0	0	0	0	0	0	0	0	0	0	0	0	0	0	0	0	0	0	0	0	0	0	0	0	0	0	0	2
6132	61.32	0	0	0	0	0	0	0	0	0	0	0	0	0	0	0	0	0	0	0	0	0	1	0	0	17.755	2.1475	16.785	0	0	0	1	0	0	17.761	2.1499	16.789	0	0	0	0	0	0	0	0	0	0	0	0	0	0	0	10.994	-10.994	19.042	0	0	0	0	0	0	0	0	0	0
6133	61.33	0	0	0	0	0	0	0	0	0	0	0	0	0	0	0	0	0	0	0	0	0	0	0	0	10.989	-10.989	19.033	0	0	0	1	0	0	17.883	2.027	16.961	0	0	0	0	0	0	0	0	0	0	0	0	0	0	0	0	0	0	0	0	0	0	0	0	0	0	0	2
6134	61.34	0	0	0	0	0	0	0	0	0	0	0	0	0	0	0	0	0	0	0	0	0	1	0	0	17.755	2.1475	16.785	0	0	0	1	0	0	17.883	2.027	16.961	0	0	0	0	0	0	0	0	0	0	0	0	0	0	0	0	0	0	0	0	0	0	0	0	0	0	0	0
6135	61.35	0	0	0	0	0	0	0	0	0	0	0	0	0	0	0	0	0	0	0	0	0	0	0	0	10.989	-10.989	19.033	0	0	0	0	0	0	0	0	0	0	0	0	0	0	0	0	0	0	0	0	0	0	0	0	0	0	0	0	0	0	0	0	0	0	0	0	2
6136	61.36	0	0	0	0	0	0	0	0	0	0	0	0	0	0	0	0	0	0	0	0	0	0	0	0	10.989	-10.989	19.033	0	0	0	1	0	0	17.883	2.027	16.961	0	0	0	0	0	0	0	0	0	0	0	0	0	0	0	0	0	0	0	0	0	0	0	0	0	0	0	2
6137	61.37	0	0	0	0	0	0	0	0	0	0	0	0	0	0	0	0	0	0	0	0	0	0	0	0	10.989	-10.989	19.033	0	0	0	1	0	0	17.883	2.027	16.961	0	0	0	0	0	0	0	0	0	0	0	0	0	0	0	10.994	-10.994	19.042	0	0	0	0	0	0	0	0	0	2
6138	61.38	0	0	0	0	0	0	0	0	0	0	0	0	0	0	0	0	0	0	0	0	0	0	0	0	10.989	-10.989	19.033	0	0	0	1	0	0	17.883	2.027	16.961	0	0	0	0	0	0	10.996	-10.996	19.046	0	0	0	0	0	0	0	0	0	0	0	0	0	0	0	0	0	0	0
6139	61.39	0	0	0	0	-1	0	-2.0364	-17.814	16.888	0	0	0	0	0	0	0	0	0	0	0	0	1	0	0	17.755	2.1475	16.785	0	0	0	1	0	0	17.883	2.027	16.961	0	0	0	0	0	0	0	0	0	0	0	0	0	0	0	0	0	0	0	0	0	0	0	0	0	0	0	2
6140	61.4	0	0	0	0	0	0	0	0	0	0	0	0	0	0	0	0	0	0	0	0	0	0	0	0	10.989	-10.989	19.033	0	0	0	1	0	0	17.883	2.027	16.961	0	0	0	0	0	0	0	0	0	0	0	0	0	0	0	0	0	0	0	0	0	0	0	0	0	0	0	2
6141	61.41	0	0	0	0	0	0	0	0	0	0	0	0	0	0	0	0	0	0	0	0	0	0	0	0	10.989	-10.989	19.033	0	0	0	0	0	0	0	0	0	0	0	0	0	0	0	0	0	0	0	0	0	0	0	0	10.994	-10.994	19.042	0	0	0	0	0	0	0	0	0	2
6142	61.42	0	0	0	0	0	0	10.917	-10.917	18.908	0	0	0	0	0	0	0	0	0	0	0	0	1	0	0	17.755	2.1475	16.785	0	0	0	1	0	0	17.883	2.027	16.961	0	0	0	0	0	0	0	0	0	0	0	0	0	0	0	0	0	0	0	0	0	0	0	0	0	0	0	2
6143	61.43	0	0	0	0	0	0	0	0	0	0	0	0	0	0	0	0	0	0	0	0	0	0	0	0	0	0	0	0	0	0	1	0	0	17.883	2.027	16.961	0	0	0	0	0	0	0	0	0	0	0	0	0	0	0	0	0	0	0	0	0	0	0	0	0	0	0	2
6144	61.44	0	0	0	0	0	0	10.917	-10.917	18.908	0	0	0	0	0	0	0	0	0	0	0	0	1	0	0	17.755	2.1475	16.785	0	0	0	1	0	0	17.883	2.027	16.961	0	0	0	0	0	0	0	0	0	0	0	0	0	0	0	0	0	0	0	0	0	0	0	0	0	0	0	0
6145	61.45	0	0	0	0	0	0	0	0	0	0	0	0	0	0	0	0	0	0	0	0	0	0	0	0	10.989	-10.989	19.033	0	0	0	1	0	0	17.883	2.027	16.961	0	0	0	0	0	0	0	0	0	0	0	0	0	0	0	10.994	-10.994	19.042	0	0	0	0	0	0	0	0	0	2
6146	61.46	0	0	0	0	0	0	0	0	0	0	0	0	0	0	0	0	0	0	0	0	0	0	0	0	10.989	-10.989	19.033	0	0	0	1	0	0	17.883	2.027	16.961	0	0	0	0	0	0	0	0	0	0	0	0	1	-1	0	7.5503	-27.469	31.921	0	0	0	0	0	0	0	0	0	2
6147	61.47	0	0	0	0	0	0	0	0	0	0	0	0	0	0	0	0	0	0	0	0	0	0	0	0	10.989	-10.989	19.033	0	0	0	1	0	0	17.761	2.1499	16.789	0	0	0	0	0	0	0	0	0	0	0	0	0	0	0	0	0	0	0	0	0	1	0	0	17.47	2.0148	16.554	2
6148	61.48	0	0	0	0	0	0	0	0	0	0	0	0	0	0	0	0	0	0	0	0	0	0	0	0	10.989	-10.989	19.033	0	0	0	0	0	0	0	0	0	0	0	0	0	0	0	0	0	0	0	0	0	1	-1	0	7.5503	-27.469	31.921	0	0	0	0	0	0	0	0	0	2
6149	61.49	0	0	0	0	0	0	0	0	0	0	0	0	0	0	0	0	0	0	0	0	0	1	0	0	17.755	2.1475	16.785	0	0	0	1	0	0	17.761	2.1499	16.789	0	0	0	0	0	0	0	0	0	0	0	0	0	0	0	0	0	0	0	0	0	1	0	0	17.47	2.0148	16.554	2
6150	61.5	0	0	0	0	0	0	0	0	0	0	0	0	0	0	0	0	0	0	0	0	0	0	0	0	10.989	-10.989	19.033	0	0	0	1	0	0	17.883	2.027	16.961	0	0	0	0	0	0	0	0	0	0	0	0	0	0	0	0	0	0	0	0	0	0	0	0	0	0	0	2
6151	61.51	0	0	0	0	0	0	0	0	0	0	0	0	0	0	0	0	0	0	0	0	0	0	0	0	10.989	-10.989	19.033	0	0	0	1	0	0	17.883	2.027	16.961	0	0	0	0	0	0	0	0	0	0	0	0	0	0	0	0	0	0	0	0	0	0	0	0	0	0	0	0
6152	61.52	0	0	0	0	0	0	0	0	0	0	0	0	0	0	0	0	0	0	0	0	0	0	0	0	10.989	-10.989	19.033	0	0	0	1	0	0	17.883	2.027	16.961	0	0	0	0	0	0	0	0	0	0	0	0	0	0	0	0	0	0	0	0	0	0	0	0	0	0	0	2
6153	61.53	0	0	0	0	0	0	0	0	0	0	0	0	0	-1	0	-2.0366	-17.816	16.89	0	0	0	0	0	0	10.989	-10.989	19.033	0	0	0	1	0	0	17.883	2.027	16.961	0	0	0	0	0	0	0	0	0	0	0	0	0	0	0	0	0	0	0	0	0	0	0	0	0	0	0	2
6154	61.54	0	0	0	0	0	0	0	0	0	0	0	0	0	0	0	0	0	0	0	0	0	0	0	0	10.989	-10.989	19.033	0	0	0	1	0	0	17.883	2.027	16.961	0	0	0	0	0	0	0	0	0	0	0	0	0	-1	0	-2.0278	-17.891	16.968	0	0	0	0	0	0	0	0	0	0
6155	61.55	0	0	0	0	0	0	0	0	0	0	0	0	0	0	0	0	0	0	0	0	0	0	0	0	10.989	-10.989	19.033	0	0	0	1	0	0	17.761	2.1499	16.789	0	0	0	0	0	0	0	0	0	0	0	0	0	0	0	10.994	-10.994	19.042	0	0	0	1	0	0	17.47	2.0148	16.554	2
6156	61.56	0	0	0	0	0	0	10.917	-10.917	18.908	0	0	0	0	0	0	0	0	0	0	0	0	0	0	0	10.989	-10.989	19.033	0	0	0	1	0	0	17.883	2.027	16.961	0	0	0	0	0	0	0	0	0	0	0	0	0	0	0	0	0	0	0	0	0	0	0	0	0	0	0	0
6157	61.57	0	0	0	0	0	0	0	0	0	0	0	0	0	0	0	0	0	0	0	0	0	0	0	0	10.989	-10.989	19.033	0	0	0	1	0	0	17.883	2.027	16.961	0	0	0	0	0	0	0	0	0	0	0	0	0	0	0	10.994	-10.994	19.042	0	0	0	1	0	0	17.47	2.0148	16.554	2
6158	61.58	0	0	0	0	0	0	0	0	0	0	0	0	0	0	0	0	0	0	0	0	0	0	0	0	10.989	-10.989	19.033	0	0	0	0	0	0	10.991	-10.991	19.037	0	0	0	0	0	0	10.996	-10.996	19.046	0	0	0	0	0	0	0	0	0	0	0	0	0	0	0	0	0	0	2
6159	61.59	0	0	0	0	0	0	0	0	0	0	0	0	0	0	0	0	0	0	0	0	0	0	0	0	10.989	-10.989	19.033	0	0	0	1	0	0	17.761	2.1499	16.789	0	0	0	0	0	0	0	0	0	0	0	0	0	0	0	0	0	0	0	0	0	0	0	0	0	0	0	2
6160	61.6	0	0	0	0	0	0	10.917	-10.917	18.908	0	0	0	0	0	0	0	0	0	0	0	0	0	0	0	10.989	-10.989	19.033	0	0	0	0	0	0	0	0	0	0	0	0	0	0	0	0	0	0	0	0	0	1	-1	0	7.5503	-27.469	31.921	0	0	0	0	0	0	0	0	0	0
6161	61.61	0	0	0	0	0	0	0	0	0	0	0	0	0	0	0	0	0	0	0	0	0	0	0	0	10.989	-10.989	19.033	0	0	0	1	0	0	17.761	2.1499	16.789	0	0	0	0	0	0	0	0	0	0	0	0	1	-1	0	7.5503	-27.469	31.921	0	0	0	0	0	0	0	0	0	2
6162	61.62	0	0	0	0	0	0	10.917	-10.917	18.908	0	0	0	0	0	0	0	0	0	0	0	0	1	0	0	17.755	2.1475	16.785	0	0	0	1	0	0	17.761	2.1499	16.789	0	0	0	0	0	0	0	0	0	0	0	0	0	0	0	10.994	-10.994	19.042	0	0	0	1	0	0	17.47	2.0148	16.554	2
6163	61.63	0	0	0	0	0	0	0	0	0	0	0	0	0	0	0	0	0	0	0	0	0	0	0	0	10.989	-10.989	19.033	0	0	0	1	0	0	17.883	2.027	16.961	0	0	0	0	0	0	0	0	0	0	0	0	0	0	0	0	0	0	0	0	0	0	0	0	0	0	0	2
6164	61.64	0	0	0	0	0	0	0	0	0	0	0	0	0	0	0	0	0	0	0	0	0	1	0	0	17.755	2.1475	16.785	0	0	0	0	0	0	0	0	0	0	0	0	0	0	0	0	0	0	0	0	0	0	0	0	10.994	-10.994	19.042	0	0	0	1	0	0	17.482	2.0162	16.566	2
6165	61.65	0	0	0	0	0	0	0	0	0	0	0	0	0	0	0	0	0	0	0	0	0	0	0	0	10.989	-10.989	19.033	0	0	0	0	0	0	0	0	0	0	0	0	0	0	0	0	0	0	0	0	0	0	-1	0	-2.0278	-17.891	16.968	0	0	0	0	0	0	0	0	0	2
6166	61.66	0	0	0	0	0	0	0	0	0	0	0	0	0	0	0	0	0	0	0	0	0	0	0	0	10.989	-10.989	19.033	0	0	0	1	0	0	17.761	2.1499	16.789	0	0	0	0	0	0	0	0	0	0	0	0	0	0	0	10.994	-10.994	19.042	0	0	0	0	0	0	0	0	0	0
6167	61.67	0	0	0	0	0	0	0	0	0	0	0	0	0	0	0	0	0	0	0	0	0	0	0	0	10.989	-10.989	19.033	0	0	0	1	0	0	17.883	2.027	16.961	0	0	0	0	0	0	0	0	0	0	0	0	0	0	0	0	0	0	0	0	0	0	0	0	0	0	0	2
6168	61.68	0	0	0	0	0	0	0	0	0	0	0	0	0	0	0	0	0	0	0	0	0	0	0	0	10.989	-10.989	19.033	0	0	0	0	0	0	10.991	-10.991	19.037	0	0	0	0	0	0	0	0	0	0	0	0	0	0	0	0	0	0	0	0	0	0	0	0	0	0	0	2
6169	61.69	0	0	0	0	0	0	10.917	-10.917	18.908	0	0	0	0	0	0	0	0	0	0	0	0	1	0	0	17.755	2.1475	16.785	0	0	0	1	0	0	17.883	2.027	16.961	0	0	0	0	0	0	0	0	0	0	0	0	0	0	0	10.994	-10.994	19.042	0	0	0	0	0	0	0	0	0	0
6170	61.7	0	0	0	0	0	0	0	0	0	0	0	0	0	0	0	0	0	0	0	0	0	0	0	0	10.989	-10.989	19.033	0	0	0	1	0	0	17.761	2.1499	16.789	0	0	0	0	0	0	0	0	0	0	0	0	0	0	0	0	0	0	0	0	0	0	0	0	0	0	0	2
6171	61.71	0	0	0	0	-1	0	-2.0364	-17.814	16.888	0	0	0	0	0	0	0	0	0	0	0	0	0	0	0	10.989	-10.989	19.033	0	0	0	1	0	0	17.883	2.027	16.961	0	0	0	0	0	0	0	0	0	0	0	0	1	-1	0	7.5503	-27.469	31.921	0	0	0	0	0	0	0	0	0	0
6172	61.72	0	0	0	0	0	0	0	0	0	0	0	0	0	0	0	0	0	0	0	0	0	0	0	0	10.989	-10.989	19.033	0	0	0	1	0	0	17.883	2.027	16.961	0	0	0	0	0	0	0	0	0	0	0	0	0	0	0	10.994	-10.994	19.042	0	0	0	0	0	0	0	0	0	2
6173	61.73	0	0	0	0	0	0	0	0	0	0	0	0	0	0	0	0	0	0	0	0	0	0	0	0	10.989	-10.989	19.033	0	0	0	1	0	0	17.883	2.027	16.961	0	0	0	0	0	0	0	0	0	0	0	0	0	0	0	0	0	0	0	0	0	0	0	0	0	0	0	2
6174	61.74	0	0	0	0	0	0	0	0	0	0	0	0	0	0	0	0	0	0	0	0	0	1	0	0	17.755	2.1475	16.785	0	0	0	1	0	0	17.883	2.027	16.961	0	0	0	0	0	0	0	0	0	0	0	0	1	-1	0	7.5503	-27.469	31.921	0	0	0	0	0	0	0	0	0	2
6175	61.75	0	0	0	0	0	0	0	0	0	0	0	0	0	0	0	0	0	0	0	0	0	0	0	0	10.989	-10.989	19.033	0	0	0	1	0	0	17.883	2.027	16.961	0	0	0	0	0	0	0	0	0	0	0	0	0	-1	0	-2.0278	-17.891	16.968	0	0	0	0	0	0	0	0	0	2
6176	61.76	0	0	0	0	0	0	0	0	0	0	0	0	0	0	0	0	0	0	0	0	0	0	0	0	10.989	-10.989	19.033	0	0	0	1	0	0	17.883	2.027	16.961	0	0	0	0	0	0	0	0	0	0	0	0	1	-1	0	7.5503	-27.469	31.921	0	0	0	0	0	0	0	0	0	0
6177	61.77	0	0	0	0	0	0	0	0	0	0	0	0	0	0	0	0	0	0	0	0	0	1	0	0	17.755	2.1475	16.785	0	0	0	1	0	0	17.883	2.027	16.961	0	0	0	0	0	0	0	0	0	0	0	0	0	0	0	10.994	-10.994	19.042	0	0	0	1	0	0	17.47	2.0148	16.554	0
6178	61.78	0	0	0	0	0	0	0	0	0	0	0	0	0	0	0	0	0	0	0	0	0	0	0	0	10.989	-10.989	19.033	0	0	0	1	0	0	17.883	2.027	16.961	0	0	0	0	0	0	0	0	0	0	0	0	1	-1	0	7.5503	-27.469	31.921	0	0	0	0	0	0	0	0	0	2
6179	61.79	0	0	0	0	0	0	0	0	0	0	0	0	0	0	0	0	0	0	0	0	0	1	0	0	17.755	2.1475	16.785	0	0	0	1	0	0	17.883	2.027	16.961	0	0	0	0	0	0	0	0	0	0	0	0	0	0	0	10.994	-10.994	19.042	0	0	0	1	0	0	17.47	2.0148	16.554	2
6180	61.8	0	0	0	0	0	0	0	0	0	0	0	0	0	0	0	0	0	0	0	0	0	0	0	0	10.989	-10.989	19.033	0	0	0	1	0	0	17.883	2.027	16.961	0	0	0	0	0	0	0	0	0	0	0	0	0	0	0	10.994	-10.994	19.042	0	0	0	0	0	0	0	0	0	2
6181	61.81	0	0	0	0	0	0	0	0	0	0	0	0	0	0	0	0	0	0	0	0	0	0	0	0	10.989	-10.989	19.033	0	0	0	1	0	0	17.761	2.1499	16.789	0	0	0	0	0	0	0	0	0	0	0	0	0	0	0	0	0	0	0	0	0	0	0	0	0	0	0	2
6182	61.82	0	0	0	0	0	0	0	0	0	0	0	0	0	0	0	0	0	0	0	0	0	0	0	0	10.989	-10.989	19.033	0	0	0	1	0	0	17.761	2.1499	16.789	0	0	0	0	0	0	0	0	0	0	0	0	0	0	0	10.994	-10.994	19.042	0	0	0	0	0	0	0	0	0	2
6183	61.83	0	0	0	0	0	0	0	0	0	0	0	0	0	0	0	0	0	0	0	0	0	0	0	0	10.989	-10.989	19.033	0	0	0	1	0	0	17.883	2.027	16.961	0	0	0	0	0	0	0	0	0	0	0	0	0	0	0	0	0	0	0	0	0	0	0	0	0	0	0	2
6184	61.84	0	0	0	0	0	0	0	0	0	0	0	0	0	0	0	0	0	0	0	0	0	1	0	0	17.755	2.1475	16.785	0	0	0	1	0	0	17.883	2.027	16.961	0	0	0	0	0	0	0	0	0	0	0	0	0	0	0	0	0	0	0	0	0	0	0	0	0	0	0	2
6185	61.85	0	0	0	0	0	0	0	0	0	0	0	0	0	0	0	0	0	0	0	0	0	0	0	0	10.989	-10.989	19.033	0	0	0	1	0	0	17.883	2.027	16.961	0	0	0	0	0	0	0	0	0	0	0	0	0	0	0	0	0	0	0	0	0	0	0	0	0	0	0	2
6186	61.86	0	0	0	0	0	0	0	0	0	0	0	0	0	0	0	0	0	0	0	0	0	1	0	0	17.755	2.1475	16.785	0	0	0	1	0	0	17.761	2.1499	16.789	0	0	0	0	0	0	0	0	0	0	0	0	0	0	0	10.994	-10.994	19.042	0	0	0	0	0	0	0	0	0	2
6187	61.87	0	0	0	0	0	0	0	0	0	0	0	0	0	0	0	0	0	0	0	0	0	1	0	0	17.755	2.1475	16.785	0	0	0	1	0	0	17.761	2.1499	16.789	0	0	0	0	0	0	0	0	0	0	0	0	0	0	0	0	0	0	0	0	0	1	0	0	17.47	2.0148	16.554	2
6188	61.88	0	0	0	0	0	0	0	0	0	0	0	0	0	0	0	0	0	0	0	0	0	0	0	0	10.989	-10.989	19.033	0	0	0	1	0	0	17.761	2.1499	16.789	0	0	0	0	0	0	0	0	0	0	0	0	0	0	0	10.994	-10.994	19.042	0	0	0	0	0	0	0	0	0	2
6189	61.89	0	0	0	0	0	0	0	0	0	0	0	0	0	0	0	0	0	0	0	0	0	1	0	0	17.755	2.1475	16.785	0	0	0	1	0	0	17.761	2.1499	16.789	0	0	0	0	0	0	0	0	0	0	0	0	0	0	0	0	0	0	0	0	0	0	0	0	0	0	0	2
6190	61.9	0	0	0	0	0	0	0	0	0	0	0	0	0	0	0	0	0	0	0	0	0	0	0	0	10.989	-10.989	19.033	0	0	0	1	0	0	17.883	2.027	16.961	0	0	0	0	0	0	0	0	0	0	0	0	0	0	0	0	0	0	0	0	0	0	0	0	0	0	0	2
6191	61.91	0	0	0	0	0	0	0	0	0	0	0	0	0	0	0	0	0	0	0	0	0	1	0	0	17.755	2.1475	16.785	0	0	0	1	0	0	17.883	2.027	16.961	0	0	0	0	0	0	0	0	0	0	0	0	0	0	0	0	0	0	0	0	0	0	0	0	0	0	0	2
6192	61.92	0	0	0	0	0	0	0	0	0	0	0	0	0	0	0	0	0	0	0	0	0	1	0	0	17.755	2.1475	16.785	0	0	0	1	0	0	17.761	2.1499	16.789	0	0	0	0	0	0	0	0	0	0	0	0	0	-1	0	-2.0278	-17.891	16.968	0	0	0	0	0	0	0	0	0	2
6193	61.93	0	0	0	0	0	0	0	0	0	0	0	0	0	0	0	0	0	0	0	0	0	1	0	0	17.755	2.1475	16.785	0	0	0	0	0	0	0	0	0	0	0	0	0	0	0	0	0	0	0	0	0	0	0	0	10.994	-10.994	19.042	0	0	0	0	0	0	0	0	0	0
6194	61.94	0	0	0	0	0	0	10.917	-10.917	18.908	0	0	0	0	0	0	0	0	0	0	0	0	0	0	0	10.989	-10.989	19.033	0	0	0	1	0	0	17.761	2.1499	16.789	0	0	0	0	0	0	0	0	0	0	0	0	0	0	0	10.994	-10.994	19.042	0	0	0	0	0	0	0	0	0	2
6195	61.95	0	0	0	0	0	0	0	0	0	0	0	0	0	0	0	0	0	0	0	0	0	0	0	0	10.989	-10.989	19.033	0	0	0	1	0	0	17.883	2.027	16.961	0	0	0	0	0	0	10.996	-10.996	19.046	0	0	0	0	0	0	0	0	0	0	0	0	0	0	0	0	0	0	0
6196	61.96	0	0	0	0	0	0	0	0	0	0	0	0	0	0	0	0	0	0	0	0	0	1	0	0	17.755	2.1475	16.785	0	0	0	1	0	0	17.761	2.1499	16.789	0	0	0	0	0	0	0	0	0	0	0	0	0	0	0	10.994	-10.994	19.042	0	0	0	0	0	0	0	0	0	2
6197	61.97	0	0	0	0	0	0	0	0	0	0	0	0	0	0	0	0	0	0	0	0	0	0	0	0	10.989	-10.989	19.033	0	0	0	1	0	0	17.761	2.1499	16.789	0	0	0	0	0	0	0	0	0	0	0	0	0	0	0	10.994	-10.994	19.042	0	0	0	0	0	0	0	0	0	2
6198	61.98	0	0	0	0	0	0	0	0	0	0	0	0	0	0	0	0	0	0	0	0	0	0	0	0	10.989	-10.989	19.033	0	0	0	0	0	0	0	0	0	0	0	0	0	0	0	0	0	0	0	0	0	0	0	0	0	0	0	0	0	0	0	0	0	0	0	0	2
6199	61.99	0	0	0	0	0	0	10.917	-10.917	18.908	0	0	0	0	0	0	0	0	0	0	0	0	1	0	0	17.755	2.1475	16.785	0	0	0	0	0	0	10.991	-10.991	19.037	0	0	0	0	0	0	0	0	0	0	0	0	0	0	0	0	0	0	0	0	0	0	0	0	0	0	0	2
6200	62	0	0	0	0	0	0	10.917	-10.917	18.908	0	0	0	0	0	0	0	0	0	0	0	0	1	0	0	17.755	2.1475	16.785	0	0	0	1	0	0	17.883	2.027	16.961	0	0	0	0	0	0	0	0	0	0	0	0	0	-1	0	-2.0278	-17.891	16.968	0	0	0	1	0	0	17.482	2.0162	16.566	0
6201	62.01	0	0	0	0	0	0	0	0	0	0	0	0	0	0	0	0	0	0	0	0	0	0	0	0	10.989	-10.989	19.033	0	0	0	0	0	0	0	0	0	0	0	0	0	0	0	0	0	0	0	0	0	0	0	0	0	0	0	0	0	0	1	0	0	17.47	2.0148	16.554	0
6202	62.02	0	0	0	0	0	0	0	0	0	0	0	0	0	0	0	0	0	0	0	0	0	0	0	0	10.989	-10.989	19.033	0	0	0	1	0	0	17.883	2.027	16.961	0	0	0	0	0	0	0	0	0	0	0	0	0	0	0	10.994	-10.994	19.042	0	0	0	0	0	0	0	0	0	2
6203	62.03	0	0	0	0	0	0	0	0	0	0	0	0	0	0	0	0	0	0	0	0	0	0	0	0	10.989	-10.989	19.033	0	0	0	1	0	0	17.883	2.027	16.961	0	0	0	0	0	0	0	0	0	0	0	0	0	0	0	0	0	0	0	0	0	0	0	0	0	0	0	2
6204	62.04	0	0	0	0	0	0	0	0	0	0	0	0	0	0	0	0	0	0	0	0	0	1	0	0	17.755	2.1475	16.785	0	0	0	1	0	0	17.761	2.1499	16.789	0	0	0	0	0	0	0	0	0	0	0	0	0	0	0	0	0	0	0	0	0	1	0	0	17.47	2.0148	16.554	2
6205	62.05	0	0	0	0	0	0	0	0	0	0	0	0	0	0	0	0	0	0	0	0	0	0	0	0	10.989	-10.989	19.033	0	0	0	0	0	0	0	0	0	0	0	0	0	0	0	0	0	0	0	0	0	0	-1	0	-2.0278	-17.891	16.968	0	0	0	0	0	0	0	0	0	2
6206	62.06	0	0	0	0	0	0	0	0	0	0	0	0	0	0	0	0	0	0	0	0	0	0	0	0	10.989	-10.989	19.033	0	0	0	1	0	0	17.761	2.1499	16.789	0	0	0	0	0	0	0	0	0	0	0	0	0	0	0	10.994	-10.994	19.042	0	0	0	0	0	0	0	0	0	2
6207	62.07	0	0	0	0	0	0	10.917	-10.917	18.908	0	0	0	0	0	0	0	0	0	0	0	0	0	0	0	10.989	-10.989	19.033	0	0	0	1	0	0	17.761	2.1499	16.789	0	0	0	0	0	0	0	0	0	0	0	0	0	0	0	0	0	0	0	0	0	0	0	0	0	0	0	2
6208	62.08	0	0	0	0	0	0	0	0	0	0	0	0	0	0	0	0	0	0	0	0	0	0	0	0	10.989	-10.989	19.033	0	0	0	0	0	0	0	0	0	0	0	0	0	0	0	0	0	0	0	0	0	0	0	0	0	0	0	0	0	0	0	0	0	0	0	0	2
6209	62.09	0	0	0	0	0	0	0	0	0	0	0	0	0	0	0	0	0	0	0	0	0	1	0	0	17.755	2.1475	16.785	0	0	0	1	0	0	17.761	2.1499	16.789	0	0	0	0	0	0	0	0	0	0	0	0	0	0	0	0	0	0	0	0	0	0	0	0	0	0	0	0
6210	62.1	0	0	0	0	0	0	0	0	0	0	0	0	0	0	0	0	0	0	0	0	0	0	0	0	10.989	-10.989	19.033	0	0	0	1	0	0	17.883	2.027	16.961	0	0	0	0	0	0	0	0	0	0	0	0	0	0	0	0	0	0	0	0	0	0	0	0	0	0	0	2
6211	62.11	0	0	0	0	0	0	0	0	0	0	0	0	0	0	0	0	0	0	0	0	0	0	0	0	10.989	-10.989	19.033	0	0	0	1	0	0	17.761	2.1499	16.789	0	0	0	0	0	0	0	0	0	0	0	0	0	0	0	0	0	0	0	0	0	0	0	0	0	0	0	0
6212	62.12	0	0	0	0	0	0	0	0	0	0	0	0	0	0	0	0	0	0	0	0	0	1	0	0	17.755	2.1475	16.785	0	0	0	0	0	0	0	0	0	0	0	0	0	0	0	0	0	0	0	0	0	0	0	0	0	0	0	0	0	0	0	0	0	0	0	0	2
6213	62.13	0	0	0	0	0	0	0	0	0	0	0	0	0	0	0	0	0	0	0	0	0	0	0	0	10.989	-10.989	19.033	0	0	0	1	0	0	17.761	2.1499	16.789	0	0	0	0	0	0	0	0	0	0	0	0	0	0	0	10.994	-10.994	19.042	0	0	0	0	0	0	0	0	0	0
6214	62.14	0	0	0	0	0	0	0	0	0	0	0	0	0	0	0	0	0	0	0	0	0	1	0	0	17.755	2.1475	16.785	0	0	0	1	0	0	17.761	2.1499	16.789	0	0	0	0	0	0	0	0	0	0	0	0	0	0	0	0	0	0	0	0	0	0	0	0	0	0	0	2
6215	62.15	0	0	0	0	0	0	0	0	0	0	0	0	0	0	0	0	0	0	0	0	0	0	0	0	10.989	-10.989	19.033	0	0	0	0	0	0	0	0	0	0	0	0	0	0	0	10.996	-10.996	19.046	0	0	0	0	-1	0	-2.0278	-17.891	16.968	0	0	0	0	0	0	0	0	0	2
6216	62.16	0	0	0	0	0	0	0	0	0	0	0	0	0	0	0	0	0	0	0	0	0	0	0	0	10.989	-10.989	19.033	0	0	0	1	0	0	17.883	2.027	16.961	0	0	0	0	0	0	0	0	0	0	0	0	0	0	0	10.994	-10.994	19.042	0	0	0	1	0	0	17.47	2.0148	16.554	2
6217	62.17	0	0	0	0	0	0	0	0	0	0	0	0	0	0	0	0	0	0	0	0	0	1	0	0	17.755	2.1475	16.785	0	0	0	1	0	0	17.883	2.027	16.961	0	0	0	0	0	0	0	0	0	0	0	0	0	0	0	10.994	-10.994	19.042	0	0	0	0	0	0	0	0	0	2
6218	62.18	0	0	0	0	-1	0	-2.0364	-17.814	16.888	0	0	0	0	0	0	0	0	0	0	0	0	0	0	0	10.989	-10.989	19.033	0	0	0	1	0	0	17.883	2.027	16.961	0	0	0	0	0	0	0	0	0	0	0	0	0	0	0	10.994	-10.994	19.042	0	0	0	1	0	0	17.47	2.0148	16.554	2
6219	62.19	0	0	0	0	0	0	0	0	0	0	0	0	0	0	0	0	0	0	0	0	0	0	0	0	10.989	-10.989	19.033	0	0	0	1	0	0	17.883	2.027	16.961	0	0	0	0	0	0	0	0	0	0	0	0	0	-1	0	-2.0278	-17.891	16.968	0	0	0	1	0	0	17.47	2.0148	16.554	2
6220	62.2	0	0	0	0	0	0	0	0	0	0	0	0	0	0	0	0	0	0	0	0	0	0	0	0	10.989	-10.989	19.033	0	0	0	1	0	0	17.883	2.027	16.961	0	0	0	0	0	0	0	0	0	0	0	0	0	0	0	0	0	0	0	0	0	0	0	0	0	0	0	2
6221	62.21	0	0	0	0	0	0	0	0	0	0	0	0	0	0	0	0	0	0	0	0	0	0	0	0	10.989	-10.989	19.033	0	0	0	0	0	0	0	0	0	0	0	0	0	0	0	0	0	0	0	0	0	0	0	0	0	0	0	0	0	0	0	0	0	0	0	0	2
6222	62.22	0	0	0	0	0	0	0	0	0	0	0	0	0	0	0	0	0	0	0	0	0	1	0	0	17.755	2.1475	16.785	0	0	0	1	0	0	17.761	2.1499	16.789	0	0	0	0	0	0	0	0	0	0	0	0	0	0	0	0	0	0	0	0	0	0	0	0	0	0	0	2
6223	62.23	0	0	0	0	0	0	0	0	0	0	0	0	0	0	0	0	0	0	0	0	0	0	0	0	10.989	-10.989	19.033	0	0	0	1	0	0	17.883	2.027	16.961	0	0	0	0	0	0	0	0	0	0	0	0	1	-1	0	7.5503	-27.469	31.921	0	0	0	0	0	0	0	0	0	2
6224	62.24	0	0	0	0	0	0	0	0	0	0	0	0	0	0	0	0	0	0	0	0	0	1	0	0	17.755	2.1475	16.785	0	0	0	1	0	0	17.761	2.1499	16.789	0	0	0	0	0	0	0	0	0	0	0	0	0	0	0	0	0	0	0	0	0	1	0	0	17.47	2.0148	16.554	2
6225	62.25	0	0	0	0	0	0	0	0	0	0	0	0	0	0	0	0	0	0	0	0	0	0	0	0	10.989	-10.989	19.033	0	0	0	1	0	0	17.883	2.027	16.961	0	0	0	0	0	0	0	0	0	0	0	0	0	0	0	10.994	-10.994	19.042	0	0	0	0	0	0	0	0	0	2
6226	62.26	0	0	0	0	0	0	10.917	-10.917	18.908	0	0	0	0	0	0	0	0	0	0	0	0	0	0	0	10.989	-10.989	19.033	0	0	0	1	0	0	17.761	2.1499	16.789	0	0	0	0	0	0	0	0	0	0	0	0	0	0	0	10.994	-10.994	19.042	0	0	0	0	0	0	0	0	0	0
6227	62.27	0	0	0	0	0	0	0	0	0	0	0	0	0	0	0	0	0	0	0	0	0	1	0	0	17.755	2.1475	16.785	0	0	0	1	0	0	17.761	2.1499	16.789	0	0	0	0	0	0	0	0	0	0	0	0	1	-1	0	7.5503	-27.469	31.921	0	0	0	1	0	0	17.47	2.0148	16.554	2
6228	62.28	0	0	0	0	0	0	10.917	-10.917	18.908	0	0	0	0	0	0	0	0	0	0	0	0	0	0	0	10.989	-10.989	19.033	0	0	0	1	0	0	17.883	2.027	16.961	0	0	0	0	0	0	0	0	0	0	0	0	0	0	0	0	0	0	0	0	0	0	0	0	0	0	0	2
6229	62.29	0	0	0	0	0	0	0	0	0	0	0	0	0	0	0	0	0	0	0	0	0	1	0	0	17.755	2.1475	16.785	0	0	0	0	0	0	10.991	-10.991	19.037	0	0	0	0	0	0	0	0	0	0	0	0	0	0	0	0	0	0	0	0	0	1	0	0	17.47	2.0148	16.554	2
6230	62.3	0	0	0	0	-1	0	-2.0364	-17.814	16.888	0	0	0	0	0	0	0	0	0	0	0	0	0	0	0	10.989	-10.989	19.033	0	0	0	1	0	0	17.883	2.027	16.961	0	0	0	0	0	0	0	0	0	0	0	0	0	0	0	10.994	-10.994	19.042	0	0	0	0	0	0	0	0	0	2
6231	62.31	0	0	0	0	0	0	0	0	0	0	0	0	0	0	0	0	0	0	0	0	0	1	0	0	17.755	2.1475	16.785	0	0	0	1	0	0	17.761	2.1499	16.789	0	0	0	0	0	0	0	0	0	0	0	0	0	0	0	10.994	-10.994	19.042	0	0	0	0	0	0	0	0	0	2
6232	62.32	0	0	0	0	0	0	0	0	0	0	0	0	0	0	0	0	0	0	0	0	0	1	0	0	17.755	2.1475	16.785	0	0	0	0	0	0	10.991	-10.991	19.037	0	0	0	0	0	0	0	0	0	0	0	0	0	0	0	0	0	0	0	0	0	0	0	0	0	0	0	2
6233	62.33	0	0	0	0	-1	0	-2.0364	-17.814	16.888	0	0	0	0	0	0	0	0	0	0	0	0	0	0	0	10.989	-10.989	19.033	0	0	0	0	0	0	0	0	0	0	0	0	0	0	0	0	0	0	0	0	0	0	-1	0	-2.0278	-17.891	16.968	0	0	0	1	0	0	17.47	2.0148	16.554	2
6234	62.34	0	0	0	0	0	0	10.917	-10.917	18.908	0	0	0	0	0	0	0	0	0	0	0	0	0	0	0	10.989	-10.989	19.033	0	0	0	1	0	0	17.761	2.1499	16.789	0	0	0	0	0	0	0	0	0	0	0	0	0	0	0	0	0	0	0	0	0	0	0	0	0	0	0	0
6235	62.35	0	0	0	0	0	0	0	0	0	0	0	0	0	0	0	0	0	0	0	0	0	0	0	0	10.989	-10.989	19.033	0	0	0	1	0	0	17.761	2.1499	16.789	0	0	0	0	0	0	0	0	0	0	0	0	0	0	0	0	0	0	0	0	0	0	0	0	0	0	0	2
6236	62.36	0	0	0	0	0	0	0	0	0	0	0	0	0	0	0	0	0	0	0	0	0	0	0	0	10.989	-10.989	19.033	0	0	0	1	0	0	17.883	2.027	16.961	0	0	0	0	0	0	0	0	0	0	0	0	0	0	0	10.994	-10.994	19.042	0	0	0	0	0	0	0	0	0	0
6237	62.37	0	0	0	0	0	0	0	0	0	0	0	0	0	0	0	0	0	0	0	0	0	0	0	0	10.989	-10.989	19.033	0	0	0	1	0	0	17.761	2.1499	16.789	0	0	0	0	0	0	0	0	0	0	0	0	0	0	0	0	0	0	0	0	0	0	0	0	0	0	0	2
6238	62.38	0	0	0	0	0	0	0	0	0	0	0	0	0	0	0	0	0	0	0	0	0	0	0	0	10.989	-10.989	19.033	0	0	0	1	0	0	17.883	2.027	16.961	0	0	0	0	0	0	0	0	0	0	0	0	0	0	0	0	0	0	0	0	0	0	0	0	0	0	0	2
6239	62.39	0	0	0	0	0	0	0	0	0	0	0	0	0	0	0	0	0	0	0	0	0	1	0	0	17.755	2.1475	16.785	0	0	0	0	0	0	0	0	0	0	0	0	0	0	0	0	0	0	0	0	0	0	0	0	10.994	-10.994	19.042	0	0	0	0	0	0	0	0	0	2
6240	62.4	0	0	0	0	0	0	0	0	0	0	0	0	0	0	0	0	0	0	0	0	0	0	0	0	10.989	-10.989	19.033	0	0	0	1	0	0	17.883	2.027	16.961	0	0	0	0	0	0	0	0	0	0	0	0	0	0	0	0	0	0	0	0	0	0	0	0	0	0	0	2
6241	62.41	0	0	0	0	0	0	0	0	0	0	0	0	0	0	0	0	0	0	0	0	0	0	0	0	10.989	-10.989	19.033	0	0	0	1	0	0	17.761	2.1499	16.789	0	0	0	0	0	0	0	0	0	0	0	0	0	0	0	0	0	0	0	0	0	0	0	0	0	0	0	0
6242	62.42	0	0	0	0	0	0	0	0	0	0	0	0	0	0	0	0	0	0	0	0	0	1	0	0	17.755	2.1475	16.785	0	0	0	1	0	0	17.883	2.027	16.961	0	0	0	0	0	0	0	0	0	0	0	0	0	0	0	0	0	0	0	0	0	1	0	0	17.47	2.0148	16.554	2
6243	62.43	0	0	0	0	0	0	0	0	0	0	0	0	0	0	0	0	0	0	0	0	0	0	0	0	10.989	-10.989	19.033	0	0	0	1	0	0	17.761	2.1499	16.789	0	0	0	0	0	0	0	0	0	0	0	0	0	0	0	10.994	-10.994	19.042	0	0	0	0	0	0	0	0	0	2
6244	62.44	0	0	0	0	0	0	0	0	0	0	0	0	0	0	0	0	0	0	0	0	0	1	0	0	17.755	2.1475	16.785	0	0	0	0	0	0	0	0	0	0	0	0	0	0	0	0	0	0	0	0	0	0	0	0	0	0	0	0	0	0	1	0	0	17.47	2.0148	16.554	2
6245	62.45	0	0	0	0	0	0	0	0	0	0	0	0	0	0	0	0	0	0	0	0	0	0	0	0	10.989	-10.989	19.033	0	0	0	0	0	0	0	0	0	0	0	0	0	0	0	0	0	0	0	0	0	0	0	0	10.994	-10.994	19.042	0	0	0	0	0	0	0	0	0	2
6246	62.46	0	0	0	0	0	0	10.917	-10.917	18.908	0	0	0	0	0	0	0	0	0	0	0	0	0	0	0	10.989	-10.989	19.033	0	0	0	1	0	0	17.761	2.1499	16.789	0	0	0	0	0	0	0	0	0	0	0	0	0	0	0	10.994	-10.994	19.042	0	0	0	0	0	0	0	0	0	2
6247	62.47	0	0	0	0	0	0	0	0	0	0	0	0	0	0	0	0	0	0	0	0	0	0	0	0	10.989	-10.989	19.033	0	0	0	0	0	0	10.991	-10.991	19.037	0	0	0	0	0	0	0	0	0	0	0	0	0	0	0	10.994	-10.994	19.042	0	0	0	1	0	0	17.47	2.0148	16.554	0
6248	62.48	0	0	0	0	0	0	0	0	0	0	0	0	0	0	0	0	0	0	0	0	0	0	0	0	10.989	-10.989	19.033	0	0	0	1	0	0	17.883	2.027	16.961	0	0	0	0	0	0	0	0	0	0	0	0	0	0	0	0	0	0	0	0	0	0	0	0	0	0	0	2
6249	62.49	0	0	0	0	0	0	0	0	0	0	0	0	0	0	0	0	0	0	0	0	0	1	0	0	17.755	2.1475	16.785	0	0	0	0	0	0	10.991	-10.991	19.037	0	0	0	0	0	0	0	0	0	0	0	0	0	0	0	0	0	0	0	0	0	1	0	0	17.47	2.0148	16.554	2
6250	62.5	0	0	0	0	0	0	0	0	0	0	0	0	0	0	0	0	0	0	0	0	0	0	0	0	10.989	-10.989	19.033	0	0	0	0	0	0	0	0	0	0	0	0	0	0	0	0	0	0	0	0	0	0	0	0	0	0	0	0	0	0	0	0	0	0	0	0	2
6251	62.51	0	0	0	0	0	0	0	0	0	0	0	0	0	0	0	0	0	0	0	0	0	0	0	0	10.989	-10.989	19.033	0	0	0	1	0	0	17.761	2.1499	16.789	0	0	0	0	0	0	0	0	0	0	0	0	0	0	0	0	0	0	0	0	0	0	0	0	0	0	0	2
6252	62.52	0	0	0	0	0	0	0	0	0	0	0	0	0	0	0	0	0	0	0	0	0	0	0	0	10.989	-10.989	19.033	0	0	0	1	0	0	17.761	2.1499	16.789	0	0	0	0	0	0	0	0	0	0	0	0	0	0	0	0	0	0	0	0	0	0	0	0	0	0	0	2
6253	62.53	0	0	0	0	0	0	0	0	0	0	0	0	0	0	0	0	0	0	0	0	0	0	0	0	10.989	-10.989	19.033	0	0	0	1	0	0	17.883	2.027	16.961	0	0	0	0	0	0	0	0	0	0	0	0	0	0	0	0	0	0	0	0	0	0	0	0	0	0	0	2
6254	62.54	0	0	0	0	0	0	10.917	-10.917	18.908	0	0	0	0	0	0	0	0	0	0	0	0	0	0	0	10.989	-10.989	19.033	0	0	0	1	0	0	17.761	2.1499	16.789	0	0	0	0	0	0	0	0	0	0	0	0	1	-1	0	7.5503	-27.469	31.921	0	0	0	0	0	0	0	0	0	0
6255	62.55	0	0	0	0	0	0	0	0	0	0	0	0	0	0	0	0	0	0	0	0	0	0	0	0	10.989	-10.989	19.033	0	0	0	1	0	0	17.761	2.1499	16.789	0	0	0	0	0	0	10.996	-10.996	19.046	0	0	0	0	0	0	0	0	0	0	0	0	0	0	0	0	0	0	2
6256	62.56	0	0	0	0	0	0	0	0	0	0	0	0	0	0	0	0	0	0	0	0	0	0	0	0	10.989	-10.989	19.033	0	0	0	1	0	0	17.883	2.027	16.961	0	0	0	0	0	0	0	0	0	0	0	0	0	0	0	10.994	-10.994	19.042	0	0	0	1	0	0	17.47	2.0148	16.554	0
6257	62.57	0	0	0	0	0	0	0	0	0	0	0	0	0	0	0	0	0	0	0	0	0	1	0	0	17.755	2.1475	16.785	0	0	0	1	0	0	17.883	2.027	16.961	0	0	0	0	0	0	0	0	0	0	0	0	0	0	0	10.994	-10.994	19.042	0	0	0	0	0	0	0	0	0	2
6258	62.58	0	0	0	0	0	0	0	0	0	0	0	0	0	0	0	0	0	0	0	0	0	0	0	0	10.989	-10.989	19.033	0	0	0	1	0	0	17.761	2.1499	16.789	0	0	0	0	0	0	0	0	0	0	0	0	0	0	0	0	0	0	0	0	0	0	0	0	0	0	0	2
6259	62.59	0	0	0	0	0	0	0	0	0	0	0	0	0	0	0	0	0	0	0	0	0	0	0	0	10.989	-10.989	19.033	0	0	0	1	0	0	17.883	2.027	16.961	0	0	0	0	0	0	0	0	0	0	0	0	0	0	0	10.994	-10.994	19.042	0	0	0	0	0	0	0	0	0	0
6260	62.6	0	0	0	0	0	0	0	0	0	0	0	0	0	0	0	0	0	0	0	0	0	0	0	0	10.989	-10.989	19.033	0	0	0	1	0	0	17.883	2.027	16.961	0	0	0	0	0	0	0	0	0	0	0	0	0	-1	0	-2.0278	-17.891	16.968	0	0	0	0	0	0	0	0	0	2
6261	62.61	0	0	0	0	0	0	0	0	0	0	0	0	0	0	0	0	0	0	0	0	0	0	0	0	10.989	-10.989	19.033	0	0	0	1	0	0	17.883	2.027	16.961	0	0	0	0	0	0	0	0	0	0	0	0	0	-1	0	-2.0278	-17.891	16.968	0	0	0	0	0	0	0	0	0	2
6262	62.62	0	0	0	0	0	0	0	0	0	0	0	0	0	0	0	0	0	0	0	0	0	1	0	0	17.755	2.1475	16.785	0	0	0	1	0	0	17.883	2.027	16.961	0	0	0	0	0	0	0	0	0	0	0	0	0	0	0	0	0	0	0	0	0	1	0	0	17.47	2.0148	16.554	2
6263	62.63	0	0	0	0	-1	0	-2.0364	-17.814	16.888	0	0	0	0	0	0	0	0	0	0	0	0	0	0	0	10.989	-10.989	19.033	0	0	0	1	0	0	17.883	2.027	16.961	0	0	0	0	0	0	0	0	0	0	0	0	0	0	0	0	0	0	0	0	0	0	0	0	0	0	0	2
6264	62.64	0	0	0	0	0	0	0	0	0	0	0	0	0	0	0	0	0	0	0	0	0	0	0	0	10.989	-10.989	19.033	0	0	0	1	0	0	17.883	2.027	16.961	0	0	0	0	0	0	0	0	0	0	0	0	0	-1	0	-2.0278	-17.891	16.968	0	0	0	1	0	0	17.47	2.0148	16.554	2
6265	62.65	0	0	0	0	0	0	0	0	0	0	0	0	0	0	0	0	0	0	0	0	0	0	0	0	10.989	-10.989	19.033	0	0	0	1	0	0	17.883	2.027	16.961	0	0	0	0	0	0	0	0	0	0	0	0	0	0	0	0	0	0	0	0	0	0	0	0	0	0	0	2
6266	62.66	0	0	0	0	-1	0	-2.0364	-17.814	16.888	0	0	0	0	0	0	0	0	0	0	0	0	1	0	0	17.755	2.1475	16.785	0	0	0	1	0	0	17.761	2.1499	16.789	0	0	0	0	0	0	0	0	0	0	0	0	0	0	0	10.994	-10.994	19.042	0	0	0	0	0	0	0	0	0	2
6267	62.67	0	0	0	0	0	0	0	0	0	0	0	0	0	0	0	0	0	0	0	0	0	0	0	0	10.989	-10.989	19.033	0	0	0	1	0	0	17.761	2.1499	16.789	0	0	0	0	0	0	10.996	-10.996	19.046	0	0	0	0	0	0	0	0	0	0	0	0	0	0	0	0	0	0	2
6268	62.68	0	0	0	0	0	0	10.917	-10.917	18.908	0	0	0	0	0	0	0	0	0	0	0	0	0	0	0	10.989	-10.989	19.033	0	0	0	1	0	0	17.883	2.027	16.961	0	0	0	0	0	0	10.996	-10.996	19.046	0	0	0	0	0	0	0	0	0	0	0	0	0	0	0	0	0	0	2
6269	62.69	0	0	0	0	0	0	10.917	-10.917	18.908	0	0	0	0	0	0	0	0	0	0	0	0	0	0	0	10.989	-10.989	19.033	0	0	0	1	0	0	17.883	2.027	16.961	0	0	0	0	0	0	0	0	0	0	0	0	0	0	0	10.994	-10.994	19.042	0	0	0	0	0	0	0	0	0	2
6270	62.7	0	0	0	0	0	0	0	0	0	0	0	0	0	0	0	0	0	0	0	0	0	0	0	0	10.989	-10.989	19.033	0	0	0	1	0	0	17.883	2.027	16.961	0	0	0	0	0	0	0	0	0	0	0	0	0	0	0	0	0	0	0	0	0	0	0	0	0	0	0	2
6271	62.71	0	0	0	0	0	0	0	0	0	0	0	0	0	0	0	0	0	0	0	0	0	0	0	0	10.989	-10.989	19.033	0	0	0	1	0	0	17.761	2.1499	16.789	0	0	0	0	0	0	0	0	0	0	0	0	0	0	0	0	0	0	0	0	0	0	0	0	0	0	0	0
6272	62.72	0	0	0	0	0	0	10.917	-10.917	18.908	0	0	0	0	0	0	0	0	0	0	0	0	1	0	0	17.755	2.1475	16.785	0	0	0	1	0	0	17.761	2.1499	16.789	0	0	0	0	0	0	0	0	0	0	0	0	0	-1	0	-2.0278	-17.891	16.968	0	0	0	0	0	0	0	0	0	2
6273	62.73	0	0	0	0	0	0	0	0	0	0	0	0	0	0	0	0	0	0	0	0	0	0	0	0	10.989	-10.989	19.033	0	0	0	1	0	0	17.883	2.027	16.961	0	0	0	0	0	0	0	0	0	0	0	0	0	0	0	0	0	0	0	0	0	0	0	0	0	0	0	2
6274	62.74	0	0	0	0	0	0	0	0	0	0	0	0	0	0	0	0	0	0	0	0	0	0	0	0	10.989	-10.989	19.033	0	0	0	1	0	0	17.761	2.1499	16.789	0	0	0	0	0	0	0	0	0	0	0	0	0	0	0	10.994	-10.994	19.042	0	0	0	0	0	0	0	0	0	2
6275	62.75	0	0	0	0	0	0	10.917	-10.917	18.908	0	0	0	0	0	0	0	0	0	0	0	0	0	0	0	10.989	-10.989	19.033	0	0	0	1	0	0	17.883	2.027	16.961	0	0	0	0	0	0	0	0	0	0	0	0	0	0	0	0	0	0	0	0	0	0	0	0	0	0	0	2
6276	62.76	0	0	0	0	0	0	0	0	0	0	0	0	0	0	0	0	0	0	0	0	0	0	0	0	10.989	-10.989	19.033	0	0	0	0	0	0	0	0	0	0	0	0	0	0	0	0	0	0	0	0	0	0	0	0	10.994	-10.994	19.042	0	0	0	1	0	0	17.47	2.0148	16.554	2
6277	62.77	0	0	0	0	0	0	0	0	0	0	0	0	0	0	0	0	0	0	0	0	0	0	0	0	10.989	-10.989	19.033	0	0	0	1	0	0	17.761	2.1499	16.789	0	0	0	0	0	0	0	0	0	0	0	0	0	0	0	10.994	-10.994	19.042	0	0	0	1	0	0	17.47	2.0148	16.554	2
6278	62.78	0	0	0	0	0	0	0	0	0	0	0	0	0	0	0	0	0	0	0	0	0	0	0	0	10.989	-10.989	19.033	0	0	0	1	0	0	17.883	2.027	16.961	0	0	0	0	0	0	0	0	0	0	0	0	0	0	0	0	0	0	0	0	0	0	0	0	0	0	0	2
6279	62.79	0	0	0	0	0	0	0	0	0	0	0	0	0	0	0	0	0	0	0	0	0	0	0	0	10.989	-10.989	19.033	0	0	0	1	0	0	17.761	2.1499	16.789	0	0	0	0	0	0	0	0	0	0	0	0	0	0	0	10.994	-10.994	19.042	0	0	0	0	0	0	0	0	0	2
6280	62.8	0	0	0	0	0	0	10.917	-10.917	18.908	0	0	0	0	0	0	0	0	0	0	0	0	0	0	0	10.989	-10.989	19.033	0	0	0	1	0	0	17.883	2.027	16.961	0	0	0	0	0	0	0	0	0	0	0	0	0	0	0	10.994	-10.994	19.042	0	0	0	0	0	0	0	0	0	2
6281	62.81	0	0	0	0	0	0	0	0	0	0	0	0	0	0	0	0	0	0	0	0	0	0	0	0	10.989	-10.989	19.033	0	0	0	1	0	0	17.761	2.1499	16.789	0	0	0	0	0	0	0	0	0	0	0	0	0	0	0	10.994	-10.994	19.042	0	0	0	1	0	0	17.47	2.0148	16.554	2
6282	62.82	0	0	0	1	-1	0	7.4664	-27.317	31.716	0	0	0	0	0	0	0	0	0	0	0	0	1	0	0	17.755	2.1475	16.785	0	0	0	1	0	0	17.883	2.027	16.961	0	0	0	0	0	0	0	0	0	0	0	0	0	0	0	0	0	0	0	0	0	0	0	0	0	0	0	2
6283	62.83	0	0	0	0	0	0	0	0	0	0	0	0	0	0	0	0	0	0	0	0	0	0	0	0	10.989	-10.989	19.033	0	0	0	1	0	0	17.883	2.027	16.961	0	0	0	0	0	0	0	0	0	0	0	0	0	0	0	0	0	0	0	0	0	0	0	0	0	0	0	2
6284	62.84	0	0	0	0	0	0	10.917	-10.917	18.908	0	0	0	0	0	0	0	0	0	0	0	0	0	0	0	10.989	-10.989	19.033	0	0	0	1	0	0	17.761	2.1499	16.789	0	0	0	1	0	0	17.883	2.027	16.961	0	0	0	0	0	0	0	0	0	0	0	0	1	0	0	17.47	2.0148	16.554	2
6285	62.85	0	0	0	0	0	0	0	0	0	0	0	0	0	0	0	0	0	0	0	0	0	0	0	0	10.989	-10.989	19.033	0	0	0	1	0	0	17.883	2.027	16.961	0	0	0	0	0	0	0	0	0	0	0	0	0	-1	0	-2.0278	-17.891	16.968	0	0	0	0	0	0	0	0	0	0
6286	62.86	0	0	0	0	0	0	10.917	-10.917	18.908	0	0	0	0	0	0	0	0	0	0	0	0	1	0	0	17.755	2.1475	16.785	0	0	0	1	0	0	17.761	2.1499	16.789	0	0	0	0	0	0	0	0	0	0	0	0	0	-1	0	-2.0278	-17.891	16.968	0	0	0	0	0	0	0	0	0	2
6287	62.87	0	0	0	0	0	0	10.917	-10.917	18.908	0	0	0	0	0	0	0	0	0	0	0	0	0	0	0	10.989	-10.989	19.033	0	0	0	1	0	0	17.883	2.027	16.961	0	0	0	0	0	0	0	0	0	0	0	0	0	0	0	10.994	-10.994	19.042	0	0	0	0	0	0	0	0	0	2
6288	62.88	0	0	0	0	0	0	0	0	0	0	0	0	0	0	0	0	0	0	0	0	0	0	0	0	10.989	-10.989	19.033	0	0	0	1	0	0	17.761	2.1499	16.789	0	0	0	0	0	0	0	0	0	0	0	0	0	0	0	0	0	0	0	0	0	0	0	0	0	0	0	2
6289	62.89	0	0	0	0	0	0	0	0	0	0	0	0	0	0	0	0	0	0	0	0	0	1	0	0	17.755	2.1475	16.785	0	0	0	1	0	0	17.761	2.1499	16.789	0	0	0	0	0	0	0	0	0	0	0	0	0	0	0	0	0	0	0	0	0	1	0	0	17.47	2.0148	16.554	2
6290	62.9	0	0	0	0	0	0	0	0	0	0	0	0	0	0	0	0	0	0	0	0	0	0	0	0	10.989	-10.989	19.033	0	0	0	1	0	0	17.883	2.027	16.961	0	0	0	0	0	0	0	0	0	0	0	0	0	0	0	0	0	0	0	0	0	0	0	0	0	0	0	2
6291	62.91	0	0	0	0	0	0	0	0	0	0	0	0	0	0	0	0	0	0	0	0	0	0	0	0	10.989	-10.989	19.033	0	0	0	1	0	0	17.761	2.1499	16.789	0	0	0	0	0	0	0	0	0	0	0	0	0	0	0	10.994	-10.994	19.042	0	0	0	1	0	0	17.47	2.0148	16.554	2
6292	62.92	0	0	0	0	0	0	10.917	-10.917	18.908	0	0	0	0	0	0	0	0	0	0	0	0	1	0	0	17.755	2.1475	16.785	0	0	0	1	0	0	17.761	2.1499	16.789	0	0	0	0	0	0	0	0	0	0	0	0	0	0	0	0	0	0	0	0	0	0	0	0	0	0	0	2
6293	62.93	0	0	0	0	0	0	0	0	0	0	0	0	0	0	0	0	0	0	0	0	0	0	0	0	10.989	-10.989	19.033	0	0	0	0	0	0	0	0	0	0	0	0	0	0	0	0	0	0	0	0	0	0	0	0	0	0	0	0	0	0	0	0	0	0	0	0	2
6294	62.94	0	0	0	0	0	0	0	0	0	0	0	0	0	0	0	0	0	0	0	0	0	1	0	0	17.755	2.1475	16.785	0	0	0	1	0	0	17.761	2.1499	16.789	0	0	0	0	0	0	0	0	0	0	0	0	0	0	0	10.994	-10.994	19.042	0	0	0	1	0	0	17.47	2.0148	16.554	2
6295	62.95	0	0	0	0	0	0	10.917	-10.917	18.908	0	0	0	0	0	0	0	0	0	0	0	0	1	0	0	17.755	2.1475	16.785	0	0	0	1	0	0	17.883	2.027	16.961	0	0	0	0	0	0	0	0	0	0	0	0	0	0	0	10.994	-10.994	19.042	0	0	0	0	0	0	0	0	0	2
6296	62.96	0	0	0	0	0	0	0	0	0	0	0	0	0	0	0	0	0	0	0	0	0	0	0	0	10.989	-10.989	19.033	0	0	0	1	0	0	17.883	2.027	16.961	0	0	0	0	0	0	0	0	0	0	0	0	0	0	0	0	0	0	0	0	0	1	0	0	17.47	2.0148	16.554	2
6297	62.97	0	0	0	0	0	0	10.917	-10.917	18.908	0	0	0	0	0	0	0	0	0	0	0	0	1	0	0	17.755	2.1475	16.785	0	0	0	1	0	0	17.761	2.1499	16.789	0	0	0	0	0	0	0	0	0	0	0	0	0	0	0	10.994	-10.994	19.042	0	0	0	0	0	0	0	0	0	0
6298	62.98	0	0	0	0	0	0	0	0	0	0	0	0	0	0	0	0	0	0	0	0	0	0	0	0	10.989	-10.989	19.033	0	0	0	1	0	0	17.761	2.1499	16.789	0	0	0	0	0	0	0	0	0	0	0	0	0	-1	0	-2.0278	-17.891	16.968	0	0	0	0	0	0	0	0	0	2
6299	62.99	0	0	0	0	0	0	0	0	0	0	0	0	0	0	0	0	0	0	0	0	0	0	0	0	10.989	-10.989	19.033	0	0	0	1	0	0	17.761	2.1499	16.789	0	0	0	0	0	0	0	0	0	0	0	0	1	-1	0	7.5503	-27.469	31.921	0	0	0	0	0	0	0	0	0	2
6300	63	0	0	0	0	0	0	10.917	-10.917	18.908	0	0	0	0	0	0	0	0	0	0	0	0	0	0	0	10.989	-10.989	19.033	0	0	0	0	0	0	10.991	-10.991	19.037	0	0	0	0	0	0	0	0	0	0	0	0	0	0	0	0	0	0	0	0	0	0	0	0	0	0	0	2
6301	63.01	0	0	0	0	0	0	0	0	0	0	0	0	0	0	0	0	0	0	0	0	0	1	0	0	17.755	2.1475	16.785	0	0	0	1	0	0	17.883	2.027	16.961	0	0	0	0	0	0	0	0	0	0	0	0	1	-1	0	7.5503	-27.469	31.921	0	0	0	0	0	0	0	0	0	2
6302	63.02	0	0	0	0	0	0	0	0	0	0	0	0	0	0	0	0	0	0	0	0	0	0	0	0	10.989	-10.989	19.033	0	0	0	1	0	0	17.883	2.027	16.961	0	0	0	0	0	0	0	0	0	0	0	0	0	0	0	0	0	0	0	0	0	0	0	0	0	0	0	2
6303	63.03	0	0	0	0	0	0	0	0	0	0	0	0	0	0	0	0	0	0	0	0	0	0	0	0	10.989	-10.989	19.033	0	0	0	0	0	0	0	0	0	0	0	0	0	0	0	0	0	0	0	0	0	0	-1	0	-2.0278	-17.891	16.968	0	0	0	0	0	0	0	0	0	2
6304	63.04	0	0	0	0	0	0	0	0	0	0	0	0	0	0	0	0	0	0	0	0	0	1	0	0	17.755	2.1475	16.785	0	0	0	1	0	0	17.883	2.027	16.961	0	0	0	0	0	0	0	0	0	0	0	0	0	0	0	0	0	0	0	0	0	1	0	0	17.47	2.0148	16.554	2
6305	63.05	0	0	0	0	0	0	0	0	0	0	0	0	0	0	0	0	0	0	0	0	0	0	0	0	10.989	-10.989	19.033	0	0	0	1	0	0	17.883	2.027	16.961	0	0	0	0	0	0	0	0	0	0	0	0	1	-1	0	7.5503	-27.469	31.921	0	0	0	0	0	0	0	0	0	0
6306	63.06	0	0	0	0	0	0	0	0	0	0	0	0	0	0	0	0	0	0	0	0	0	1	0	0	17.755	2.1475	16.785	0	0	0	1	0	0	17.883	2.027	16.961	0	0	0	0	0	0	0	0	0	0	0	0	0	0	0	10.994	-10.994	19.042	0	0	0	0	0	0	0	0	0	2
6307	63.07	0	0	0	0	0	0	10.917	-10.917	18.908	0	0	0	0	0	0	0	0	0	0	0	0	0	0	0	10.989	-10.989	19.033	0	0	0	1	0	0	17.761	2.1499	16.789	0	0	0	0	0	0	0	0	0	0	0	0	0	-1	0	-2.0278	-17.891	16.968	0	0	0	1	0	0	17.47	2.0148	16.554	2
6308	63.08	0	0	0	0	0	0	10.917	-10.917	18.908	0	0	0	0	0	0	0	0	0	0	0	0	0	0	0	10.989	-10.989	19.033	0	0	0	0	0	0	0	0	0	0	0	0	0	0	0	0	0	0	0	0	0	1	-1	0	7.5503	-27.469	31.921	0	0	0	0	0	0	0	0	0	2
6309	63.09	0	0	0	0	0	0	10.917	-10.917	18.908	0	0	0	0	0	0	0	0	0	0	0	0	1	0	0	17.755	2.1475	16.785	0	0	0	1	0	0	17.883	2.027	16.961	0	0	0	0	0	0	0	0	0	0	0	0	0	0	0	10.994	-10.994	19.042	0	0	0	0	0	0	0	0	0	2
6310	63.1	0	0	0	0	0	0	0	0	0	0	0	0	0	0	0	0	0	0	0	0	0	0	0	0	10.989	-10.989	19.033	0	0	0	1	0	0	17.883	2.027	16.961	0	0	0	0	0	0	0	0	0	0	0	0	0	-1	0	-2.0278	-17.891	16.968	0	0	0	1	0	0	17.47	2.0148	16.554	2
6311	63.11	0	0	0	0	0	0	0	0	0	0	0	0	0	0	0	0	0	0	0	0	0	0	0	0	10.989	-10.989	19.033	0	0	0	1	0	0	17.883	2.027	16.961	0	0	0	0	0	0	0	0	0	0	0	0	0	0	0	0	0	0	0	0	0	1	0	0	17.47	2.0148	16.554	0
6312	63.12	0	0	0	0	0	0	0	0	0	0	0	0	0	0	0	0	0	0	0	0	0	1	0	0	17.755	2.1475	16.785	0	0	0	1	0	0	17.883	2.027	16.961	0	0	0	0	0	0	0	0	0	0	0	0	0	-1	0	-2.0278	-17.891	16.968	0	0	0	0	0	0	0	0	0	2
6313	63.13	0	0	0	0	0	0	0	0	0	0	0	0	0	0	0	0	0	0	0	0	0	0	0	0	10.989	-10.989	19.033	0	0	0	1	0	0	17.883	2.027	16.961	0	0	0	0	0	0	0	0	0	0	0	0	0	0	0	0	0	0	0	0	0	0	0	0	0	0	0	2
6314	63.14	0	0	0	0	0	0	10.917	-10.917	18.908	0	0	0	0	0	0	0	0	0	0	0	0	1	0	0	17.755	2.1475	16.785	0	0	0	1	0	0	17.761	2.1499	16.789	0	0	0	0	0	0	0	0	0	0	0	0	0	0	0	10.994	-10.994	19.042	0	0	0	0	0	0	0	0	0	2
6315	63.15	0	0	0	0	0	0	0	0	0	0	0	0	0	0	0	0	0	0	0	0	0	0	0	0	10.989	-10.989	19.033	0	0	0	1	0	0	17.883	2.027	16.961	0	0	0	0	0	0	0	0	0	0	0	0	0	0	0	0	0	0	0	0	0	0	0	0	0	0	0	2
6316	63.16	0	0	0	0	0	0	0	0	0	0	0	0	0	0	0	0	0	0	0	0	0	1	0	0	17.755	2.1475	16.785	0	0	0	1	0	0	17.883	2.027	16.961	0	0	0	0	0	0	0	0	0	0	0	0	0	0	0	10.994	-10.994	19.042	0	0	0	0	0	0	0	0	0	2
6317	63.17	0	0	0	0	0	0	0	0	0	0	0	0	0	0	0	0	0	0	0	0	0	1	0	0	17.755	2.1475	16.785	0	0	0	1	0	0	17.761	2.1499	16.789	0	0	0	0	0	0	0	0	0	0	0	0	0	0	0	10.994	-10.994	19.042	0	0	0	0	0	0	0	0	0	2
6318	63.18	0	0	0	0	0	0	0	0	0	0	0	0	0	0	0	0	0	0	0	0	0	0	0	0	10.989	-10.989	19.033	0	0	0	0	0	0	0	0	0	0	0	0	0	0	0	0	0	0	0	0	0	0	0	0	10.994	-10.994	19.042	0	0	0	0	0	0	0	0	0	2
6319	63.19	0	0	0	0	0	0	0	0	0	0	0	0	0	0	0	0	0	0	0	0	0	1	0	0	17.755	2.1475	16.785	0	0	0	1	0	0	17.761	2.1499	16.789	0	0	0	0	0	0	0	0	0	0	0	0	0	0	0	0	0	0	0	0	0	1	0	0	17.47	2.0148	16.554	2
6320	63.2	0	0	0	0	0	0	0	0	0	0	0	0	0	0	0	0	0	0	0	0	0	0	0	0	10.989	-10.989	19.033	0	0	0	1	0	0	17.883	2.027	16.961	0	0	0	0	0	0	0	0	0	0	0	0	0	-1	0	-2.0278	-17.891	16.968	0	0	0	0	0	0	0	0	0	2
6321	63.21	0	0	0	0	0	0	0	0	0	0	0	0	0	0	0	0	0	0	0	0	0	1	0	0	17.755	2.1475	16.785	0	0	0	1	0	0	17.883	2.027	16.961	0	0	0	0	0	0	0	0	0	0	0	0	0	0	0	0	0	0	0	0	0	0	0	0	0	0	0	0
6322	63.22	0	0	0	0	0	0	10.917	-10.917	18.908	0	0	0	0	0	0	0	0	0	0	0	0	1	0	0	17.755	2.1475	16.785	0	0	0	1	0	0	17.883	2.027	16.961	0	0	0	0	0	0	0	0	0	0	0	0	0	0	0	0	0	0	0	0	0	0	0	0	0	0	0	2
6323	63.23	0	0	0	0	0	0	0	0	0	0	0	0	0	0	0	0	0	0	0	0	0	0	0	0	10.989	-10.989	19.033	0	0	0	0	0	0	0	0	0	0	0	0	0	0	0	0	0	0	0	0	0	0	0	0	0	0	0	0	0	0	0	0	0	0	0	0	2
6324	63.24	0	0	0	0	0	0	0	0	0	0	0	0	0	0	0	0	0	0	0	0	0	1	0	0	17.755	2.1475	16.785	0	0	0	1	0	0	17.883	2.027	16.961	0	0	0	0	0	0	0	0	0	0	0	0	0	0	0	10.994	-10.994	19.042	0	0	0	0	0	0	0	0	0	2
6325	63.25	0	0	0	0	0	0	0	0	0	0	0	0	0	0	0	0	0	0	0	0	0	1	0	0	17.755	2.1475	16.785	0	0	0	1	0	0	17.883	2.027	16.961	0	0	0	0	0	0	0	0	0	0	0	0	0	0	0	0	0	0	0	0	0	0	0	0	0	0	0	2
6326	63.26	0	0	0	0	0	0	0	0	0	0	0	0	0	0	0	0	0	0	0	0	0	0	0	0	10.989	-10.989	19.033	0	0	0	1	0	0	17.883	2.027	16.961	0	0	0	0	0	0	0	0	0	0	0	0	0	0	0	10.994	-10.994	19.042	0	0	0	0	0	0	0	0	0	2
6327	63.27	0	0	0	0	0	0	0	0	0	0	0	0	0	0	0	0	0	0	0	0	0	0	0	0	10.989	-10.989	19.033	0	0	0	1	0	0	17.883	2.027	16.961	0	0	0	0	0	0	0	0	0	0	0	0	0	0	0	0	0	0	0	0	0	0	0	0	0	0	0	2
6328	63.28	0	0	0	0	0	0	0	0	0	0	0	0	0	0	0	0	0	0	0	0	0	0	0	0	10.989	-10.989	19.033	0	0	0	1	0	0	17.883	2.027	16.961	0	0	0	0	0	0	0	0	0	0	0	0	0	0	0	0	0	0	0	0	0	0	0	0	0	0	0	2
6329	63.29	0	0	0	0	0	0	10.917	-10.917	18.908	0	0	0	0	0	0	0	0	0	0	0	0	0	0	0	10.989	-10.989	19.033	0	0	0	1	0	0	17.761	2.1499	16.789	0	0	0	0	0	0	0	0	0	0	0	0	0	0	0	10.994	-10.994	19.042	0	0	0	0	0	0	0	0	0	2
6330	63.3	0	0	0	0	0	0	0	0	0	0	0	0	0	0	0	0	0	0	0	0	0	0	0	0	10.989	-10.989	19.033	0	0	0	0	0	0	0	0	0	0	0	0	0	0	0	0	0	0	0	0	0	0	-1	0	-2.0278	-17.891	16.968	0	0	0	0	0	0	0	0	0	2
6331	63.31	0	0	0	0	0	0	10.917	-10.917	18.908	0	0	0	0	0	0	0	0	0	0	0	0	1	0	0	17.755	2.1475	16.785	0	0	0	1	0	0	17.883	2.027	16.961	0	0	0	0	0	0	0	0	0	0	0	0	0	0	0	10.994	-10.994	19.042	0	0	0	0	0	0	0	0	0	2
6332	63.32	0	0	0	0	0	0	10.917	-10.917	18.908	0	0	0	0	0	0	0	0	0	0	0	0	1	0	0	17.755	2.1475	16.785	0	0	0	1	0	0	17.761	2.1499	16.789	0	0	0	0	0	0	0	0	0	0	0	0	0	0	0	10.994	-10.994	19.042	0	0	0	0	0	0	0	0	0	2
6333	63.33	0	0	0	0	0	0	0	0	0	0	0	0	0	0	0	0	0	0	0	0	0	0	0	0	10.989	-10.989	19.033	0	0	0	1	0	0	17.883	2.027	16.961	0	0	0	0	0	0	0	0	0	0	0	0	0	0	0	0	0	0	0	0	0	0	0	0	0	0	0	2
6334	63.34	0	0	0	0	0	0	0	0	0	0	0	0	0	0	0	0	0	0	0	0	0	1	0	0	17.755	2.1475	16.785	0	0	0	1	0	0	17.761	2.1499	16.789	0	0	0	0	0	0	0	0	0	0	0	0	0	0	0	10.994	-10.994	19.042	0	0	0	0	0	0	0	0	0	2
6335	63.35	0	0	0	0	0	0	0	0	0	0	0	0	0	0	0	0	0	0	0	0	0	0	0	0	10.989	-10.989	19.033	0	0	0	1	0	0	17.883	2.027	16.961	0	0	0	0	0	0	0	0	0	0	0	0	0	0	0	0	0	0	0	0	0	0	0	0	0	0	0	2
6336	63.36	0	0	0	0	0	0	0	0	0	0	0	0	0	0	0	0	0	0	0	0	0	1	0	0	17.755	2.1475	16.785	0	0	0	1	0	0	17.883	2.027	16.961	0	0	0	0	0	0	0	0	0	0	0	0	0	0	0	0	0	0	0	0	0	0	0	0	0	0	0	2
6337	63.37	0	0	0	0	0	0	10.917	-10.917	18.908	0	0	0	0	0	0	0	0	0	0	0	0	0	0	0	10.989	-10.989	19.033	0	0	0	1	0	0	17.883	2.027	16.961	0	0	0	0	0	0	0	0	0	0	0	0	1	-1	0	7.5503	-27.469	31.921	0	0	0	0	0	0	0	0	0	2
6338	63.38	0	0	0	0	0	0	0	0	0	0	0	0	0	0	0	0	0	0	0	0	0	0	0	0	10.989	-10.989	19.033	0	0	0	1	0	0	17.883	2.027	16.961	0	0	0	0	0	0	0	0	0	0	0	0	0	0	0	0	0	0	0	0	0	0	0	0	0	0	0	2
6339	63.39	0	0	0	0	0	0	10.917	-10.917	18.908	0	0	0	0	0	0	0	0	0	0	0	0	1	0	0	17.755	2.1475	16.785	0	0	0	1	0	0	17.761	2.1499	16.789	0	0	0	0	0	0	0	0	0	0	0	0	0	0	0	10.994	-10.994	19.042	0	0	0	0	0	0	0	0	0	2
6340	63.4	0	0	0	0	0	0	10.917	-10.917	18.908	0	0	0	0	0	0	0	0	0	0	0	0	0	0	0	10.989	-10.989	19.033	0	0	0	1	0	0	17.883	2.027	16.961	0	0	0	0	0	0	0	0	0	0	0	0	1	-1	0	7.5503	-27.469	31.921	0	0	0	0	0	0	0	0	0	2
6341	63.41	0	0	0	0	0	0	0	0	0	0	0	0	0	0	0	0	0	0	0	0	0	1	0	0	17.755	2.1475	16.785	0	0	0	1	0	0	17.883	2.027	16.961	0	0	0	0	0	0	0	0	0	0	0	0	0	0	0	0	0	0	0	0	0	0	0	0	0	0	0	2
6342	63.42	0	0	0	0	0	0	0	0	0	0	0	0	0	0	0	0	0	0	0	0	0	1	0	0	17.755	2.1475	16.785	0	0	0	1	0	0	17.761	2.1499	16.789	0	0	0	0	0	0	0	0	0	0	0	0	1	-1	0	7.5503	-27.469	31.921	0	0	0	0	0	0	0	0	0	2
6343	63.43	0	0	0	0	0	0	0	0	0	0	0	0	0	0	0	0	0	0	0	0	0	0	0	0	10.989	-10.989	19.033	0	0	0	1	0	0	17.883	2.027	16.961	0	0	0	0	0	0	0	0	0	0	0	0	0	0	0	0	0	0	0	0	0	0	0	0	0	0	0	2
6344	63.44	0	0	0	0	0	0	0	0	0	0	0	0	0	0	0	0	0	0	0	0	0	1	0	0	17.755	2.1475	16.785	0	0	0	1	0	0	17.761	2.1499	16.789	0	0	0	0	0	0	0	0	0	0	0	0	0	0	0	0	0	0	0	0	0	0	0	0	0	0	0	2
6345	63.45	0	0	0	0	0	0	0	0	0	0	0	0	0	0	0	0	0	0	0	0	0	0	0	0	10.989	-10.989	19.033	0	0	0	1	0	0	17.761	2.1499	16.789	0	0	0	0	0	0	0	0	0	0	0	0	0	0	0	0	0	0	0	0	0	0	0	0	0	0	0	2
6346	63.46	0	0	0	0	0	0	0	0	0	0	0	0	0	0	0	0	0	0	0	0	0	0	0	0	10.989	-10.989	19.033	0	0	0	1	0	0	17.883	2.027	16.961	0	0	0	0	0	0	0	0	0	0	0	0	0	-1	0	-2.0278	-17.891	16.968	0	0	0	0	0	0	0	0	0	2
6347	63.47	0	0	0	0	0	0	0	0	0	0	0	0	0	0	0	0	0	0	0	0	0	1	0	0	17.755	2.1475	16.785	0	0	0	1	0	0	17.883	2.027	16.961	0	0	0	0	0	0	0	0	0	0	0	0	0	0	0	10.994	-10.994	19.042	0	0	0	0	0	0	0	0	0	2
6348	63.48	0	0	0	0	0	0	0	0	0	0	0	0	0	0	0	0	0	0	0	0	0	0	0	0	10.989	-10.989	19.033	0	0	0	1	0	0	17.883	2.027	16.961	0	0	0	0	0	0	0	0	0	0	0	0	0	0	0	10.994	-10.994	19.042	0	0	0	0	0	0	0	0	0	2
6349	63.49	0	0	0	0	0	0	10.917	-10.917	18.908	0	0	0	0	0	0	0	0	0	0	0	0	1	0	0	17.755	2.1475	16.785	0	0	0	0	0	0	10.991	-10.991	19.037	0	0	0	0	0	0	0	0	0	0	0	0	0	0	0	10.994	-10.994	19.042	0	0	0	0	0	0	0	0	0	2
6350	63.5	0	0	0	0	0	0	0	0	0	0	0	0	0	0	0	0	0	0	0	0	0	0	0	0	10.989	-10.989	19.033	0	0	0	1	0	0	17.883	2.027	16.961	0	0	0	0	0	0	0	0	0	0	0	0	0	0	0	0	0	0	0	0	0	0	0	0	0	0	0	2
6351	63.51	0	0	0	0	0	0	0	0	0	0	0	0	0	0	0	0	0	0	0	0	0	0	0	0	10.989	-10.989	19.033	0	0	0	1	0	0	17.761	2.1499	16.789	0	0	0	0	0	0	0	0	0	0	0	0	0	-1	0	-2.0278	-17.891	16.968	0	0	0	1	0	0	17.47	2.0148	16.554	2
6352	63.52	0	0	0	0	0	0	0	0	0	0	0	0	0	0	0	0	0	0	0	0	0	1	0	0	17.755	2.1475	16.785	0	0	0	1	0	0	17.761	2.1499	16.789	0	0	0	0	0	0	0	0	0	0	0	0	0	0	0	0	0	0	0	0	0	0	0	0	0	0	0	2
6353	63.53	0	0	0	0	0	0	0	0	0	0	0	0	0	0	0	0	0	0	0	0	0	0	0	0	10.989	-10.989	19.033	0	0	0	1	0	0	17.883	2.027	16.961	0	0	0	0	0	0	0	0	0	0	0	0	0	0	0	0	0	0	0	0	0	0	0	0	0	0	0	2
6354	63.54	0	0	0	0	0	0	0	0	0	0	0	0	0	0	0	0	0	0	0	0	0	1	0	0	17.755	2.1475	16.785	0	0	0	1	0	0	17.761	2.1499	16.789	0	0	0	0	0	0	0	0	0	0	0	0	0	0	0	10.994	-10.994	19.042	0	0	0	0	0	0	0	0	0	2
6355	63.55	0	0	0	0	0	0	0	0	0	0	0	0	0	0	0	0	0	0	0	0	0	0	0	0	10.989	-10.989	19.033	0	0	0	1	0	0	17.761	2.1499	16.789	0	0	0	0	0	0	0	0	0	0	0	0	0	0	0	0	0	0	0	0	0	0	0	0	0	0	0	2
6356	63.56	0	0	0	0	0	0	10.917	-10.917	18.908	0	0	0	0	0	0	0	0	0	0	0	0	0	0	0	10.989	-10.989	19.033	0	0	0	1	0	0	17.761	2.1499	16.789	0	0	0	0	0	0	0	0	0	0	0	0	0	-1	0	-2.0278	-17.891	16.968	0	0	0	0	0	0	0	0	0	2
6357	63.57	0	0	0	0	0	0	0	0	0	0	0	0	0	0	0	0	0	0	0	0	0	0	0	0	10.989	-10.989	19.033	0	0	0	1	0	0	17.883	2.027	16.961	0	0	0	0	0	0	0	0	0	0	0	0	0	0	0	10.994	-10.994	19.042	0	0	0	0	0	0	0	0	0	2
6358	63.58	0	0	0	0	0	0	0	0	0	0	0	0	0	0	0	0	0	0	0	0	0	0	0	0	10.989	-10.989	19.033	0	0	0	1	0	0	17.883	2.027	16.961	0	0	0	0	0	0	0	0	0	0	0	0	0	0	0	10.994	-10.994	19.042	0	0	0	0	0	0	0	0	0	2
6359	63.59	0	0	0	0	0	0	0	0	0	0	0	0	0	0	0	0	0	0	0	0	0	0	0	0	10.989	-10.989	19.033	0	0	0	1	0	0	17.883	2.027	16.961	0	0	0	0	0	0	0	0	0	0	0	0	1	-1	0	7.5503	-27.469	31.921	0	0	0	0	0	0	0	0	0	2
6360	63.6	0	0	0	0	0	0	0	0	0	0	0	0	0	0	0	0	0	0	0	0	0	0	0	0	10.989	-10.989	19.033	0	0	0	1	0	0	17.883	2.027	16.961	0	0	0	0	0	0	0	0	0	0	0	0	0	0	0	10.994	-10.994	19.042	0	0	0	0	0	0	0	0	0	2
6361	63.61	0	0	0	0	0	0	0	0	0	0	0	0	0	0	0	0	0	0	0	0	0	1	0	0	17.755	2.1475	16.785	0	0	0	1	0	0	17.883	2.027	16.961	0	0	0	0	0	0	0	0	0	0	0	0	0	-1	0	-2.0278	-17.891	16.968	0	0	0	0	0	0	0	0	0	0
6362	63.62	0	0	0	0	0	0	10.917	-10.917	18.908	0	0	0	0	0	0	0	0	0	0	0	0	1	0	0	17.755	2.1475	16.785	0	0	0	1	0	0	17.883	2.027	16.961	0	0	0	0	0	0	0	0	0	0	0	0	0	0	0	10.994	-10.994	19.042	0	0	0	1	0	0	17.47	2.0148	16.554	2
6363	63.63	0	0	0	0	0	0	0	0	0	0	0	0	0	0	0	0	0	0	0	0	0	0	0	0	10.989	-10.989	19.033	0	0	0	1	0	0	17.883	2.027	16.961	0	0	0	0	0	0	0	0	0	0	0	0	0	0	0	0	0	0	0	0	0	0	0	0	0	0	0	2
6364	63.64	0	0	0	0	0	0	0	0	0	0	0	0	0	0	0	0	0	0	0	0	0	0	0	0	10.989	-10.989	19.033	0	0	0	1	0	0	17.883	2.027	16.961	0	0	0	1	0	0	17.883	2.027	16.961	0	0	0	0	0	0	0	0	0	0	0	0	1	0	0	17.47	2.0148	16.554	2
6365	63.65	0	0	0	0	0	0	0	0	0	0	0	0	0	0	0	0	0	0	0	0	0	0	0	0	10.989	-10.989	19.033	0	0	0	1	0	0	17.883	2.027	16.961	0	0	0	0	0	0	0	0	0	0	0	0	0	0	0	0	0	0	0	0	0	0	0	0	0	0	0	2
6366	63.66	0	0	0	0	0	0	0	0	0	0	0	0	0	0	0	0	0	0	0	0	0	1	0	0	17.755	2.1475	16.785	0	0	0	1	0	0	17.761	2.1499	16.789	0	0	0	0	0	0	0	0	0	0	0	0	0	0	0	10.994	-10.994	19.042	0	0	0	0	0	0	0	0	0	2
6367	63.67	0	0	0	0	0	0	10.917	-10.917	18.908	0	0	0	0	0	0	0	0	0	0	0	0	1	0	0	17.755	2.1475	16.785	0	0	0	1	0	0	17.883	2.027	16.961	0	0	0	0	0	0	0	0	0	0	0	0	0	0	0	0	0	0	0	0	0	1	0	0	17.47	2.0148	16.554	2
6368	63.68	0	0	0	0	0	0	0	0	0	0	0	0	0	0	0	0	0	0	0	0	0	0	0	0	10.989	-10.989	19.033	0	0	0	1	0	0	17.883	2.027	16.961	0	0	0	0	0	0	0	0	0	0	0	0	0	0	0	0	0	0	0	0	0	0	0	0	0	0	0	2
6369	63.69	0	0	0	0	0	0	10.917	-10.917	18.908	0	0	0	0	0	0	0	0	0	0	0	0	1	0	0	17.755	2.1475	16.785	0	0	0	1	0	0	17.883	2.027	16.961	0	0	0	0	0	0	0	0	0	0	0	0	0	0	0	0	0	0	0	0	0	1	0	0	17.47	2.0148	16.554	0
6370	63.7	0	0	0	0	-1	0	-2.0364	-17.814	16.888	0	0	0	0	0	0	0	0	0	0	0	0	0	0	0	10.989	-10.989	19.033	0	0	0	1	0	0	17.883	2.027	16.961	0	0	0	0	0	0	0	0	0	0	0	0	0	-1	0	-2.0278	-17.891	16.968	0	0	0	0	0	0	0	0	0	2
6371	63.71	0	0	0	0	0	0	10.917	-10.917	18.908	0	0	0	0	0	0	0	0	0	0	0	0	1	0	0	17.755	2.1475	16.785	0	0	0	1	0	0	17.883	2.027	16.961	0	0	0	0	0	0	0	0	0	0	0	0	0	0	0	10.994	-10.994	19.042	0	0	0	0	0	0	0	0	0	2
6372	63.72	0	0	0	0	0	0	0	0	0	0	0	0	0	0	0	0	0	0	0	0	0	1	0	0	17.755	2.1475	16.785	0	0	0	1	0	0	17.883	2.027	16.961	0	0	0	0	0	0	0	0	0	0	0	0	0	0	0	0	0	0	0	0	0	1	0	0	17.47	2.0148	16.554	2
6373	63.73	0	0	0	0	0	0	0	0	0	0	0	0	0	0	0	0	0	0	0	0	0	0	0	0	10.989	-10.989	19.033	0	0	0	0	0	0	0	0	0	0	0	0	0	0	0	0	0	0	0	0	0	0	0	0	0	0	0	0	0	0	0	0	0	0	0	0	2
6374	63.74	0	0	0	0	0	0	0	0	0	0	0	0	0	0	0	0	0	0	0	0	0	1	0	0	17.755	2.1475	16.785	0	0	0	1	0	0	17.761	2.1499	16.789	0	0	0	0	0	0	0	0	0	0	0	0	0	0	0	10.994	-10.994	19.042	0	0	0	1	0	0	17.47	2.0148	16.554	0
6375	63.75	0	0	0	0	0	0	0	0	0	0	0	0	0	0	0	0	0	0	0	0	0	0	0	0	10.989	-10.989	19.033	0	0	0	1	0	0	17.883	2.027	16.961	0	0	0	0	0	0	0	0	0	0	0	0	0	0	0	0	0	0	0	0	0	0	0	0	0	0	0	2
6376	63.76	0	0	0	0	0	0	0	0	0	0	0	0	0	0	0	0	0	0	0	0	0	0	0	0	10.989	-10.989	19.033	0	0	0	0	0	0	0	0	0	0	0	0	0	0	0	0	0	0	0	0	0	0	0	0	10.994	-10.994	19.042	0	0	0	0	0	0	0	0	0	2
6377	63.77	0	0	0	0	0	0	0	0	0	0	0	0	0	0	0	0	0	0	0	0	0	0	0	0	10.989	-10.989	19.033	0	0	0	1	0	0	17.761	2.1499	16.789	0	0	0	0	0	0	0	0	0	0	0	0	0	0	0	10.994	-10.994	19.042	0	0	0	0	0	0	0	0	0	2
6378	63.78	0	0	0	0	0	0	0	0	0	0	0	0	0	0	0	0	0	0	0	0	0	0	0	0	10.989	-10.989	19.033	0	0	0	0	0	0	0	0	0	0	0	0	0	0	0	0	0	0	0	0	0	0	0	0	0	0	0	0	0	0	0	0	0	0	0	0	2
6379	63.79	0	0	0	0	0	0	0	0	0	0	0	0	0	0	0	0	0	0	0	0	0	1	0	0	17.755	2.1475	16.785	0	0	0	1	0	0	17.761	2.1499	16.789	0	0	0	0	0	0	0	0	0	0	0	0	0	0	0	10.994	-10.994	19.042	0	0	0	1	0	0	17.47	2.0148	16.554	2
6380	63.8	0	0	0	0	0	0	10.917	-10.917	18.908	0	0	0	0	0	0	0	0	0	0	0	0	0	0	0	10.989	-10.989	19.033	0	0	0	1	0	0	17.883	2.027	16.961	0	0	0	0	0	0	0	0	0	0	0	0	0	-1	0	-2.0278	-17.891	16.968	0	0	0	0	0	0	0	0	0	2
6381	63.81	0	0	0	0	0	0	0	0	0	0	0	0	0	0	0	0	0	0	0	0	0	0	0	0	10.989	-10.989	19.033	0	0	0	1	0	0	17.883	2.027	16.961	0	0	0	0	0	0	0	0	0	0	0	0	0	0	0	0	0	0	0	0	0	1	0	0	17.47	2.0148	16.554	2
6382	63.82	0	0	0	0	0	0	0	0	0	0	0	0	0	0	0	0	0	0	0	0	0	1	0	0	17.755	2.1475	16.785	0	0	0	1	0	0	17.883	2.027	16.961	0	0	0	0	0	0	0	0	0	0	0	0	0	0	0	0	0	0	0	0	0	0	0	0	0	0	0	2
6383	63.83	0	0	0	0	0	0	0	0	0	0	0	0	0	0	0	0	0	0	0	0	0	0	0	0	10.989	-10.989	19.033	0	0	0	0	0	0	0	0	0	0	0	0	0	0	0	0	0	0	0	0	0	0	-1	0	-2.0278	-17.891	16.968	0	0	0	0	0	0	0	0	0	2
6384	63.84	0	0	0	0	0	0	0	0	0	0	0	0	0	0	0	0	0	0	0	0	0	1	0	0	17.755	2.1475	16.785	0	0	0	1	0	0	17.883	2.027	16.961	0	0	0	0	0	0	0	0	0	0	0	0	0	0	0	10.994	-10.994	19.042	0	0	0	0	0	0	0	0	0	2
6385	63.85	0	0	0	0	0	0	0	0	0	0	0	0	0	0	0	0	0	0	0	0	0	0	0	0	10.989	-10.989	19.033	0	0	0	1	0	0	17.761	2.1499	16.789	0	0	0	0	0	0	0	0	0	0	0	0	0	0	0	0	0	0	0	0	0	1	0	0	17.47	2.0148	16.554	2
6386	63.86	0	0	0	0	0	0	0	0	0	0	0	0	0	0	0	0	0	0	0	0	0	0	0	0	10.989	-10.989	19.033	0	0	0	1	0	0	17.883	2.027	16.961	0	0	0	1	0	0	17.883	2.027	16.961	0	0	0	0	0	0	10.994	-10.994	19.042	0	0	0	0	0	0	0	0	0	2
6387	63.87	0	0	0	0	0	0	0	0	0	0	0	0	0	0	0	0	0	0	0	0	0	0	0	0	10.989	-10.989	19.033	0	0	0	1	0	0	17.761	2.1499	16.789	0	0	0	0	0	0	0	0	0	0	0	0	0	-1	0	-2.0278	-17.891	16.968	0	0	0	0	0	0	0	0	0	2
6388	63.88	0	0	0	0	0	0	0	0	0	0	0	0	0	0	0	0	0	0	0	0	0	0	0	0	10.989	-10.989	19.033	0	0	0	1	0	0	17.883	2.027	16.961	0	0	0	0	0	0	0	0	0	0	0	0	0	0	0	0	0	0	0	0	0	0	0	0	0	0	0	2
6389	63.89	0	0	0	0	0	0	0	0	0	0	0	0	0	0	0	0	0	0	0	0	0	1	0	0	17.755	2.1475	16.785	0	0	0	1	0	0	17.761	2.1499	16.789	0	0	0	0	0	0	0	0	0	0	0	0	0	0	0	0	0	0	0	0	0	0	0	0	0	0	0	2
6390	63.9	0	0	0	0	0	0	0	0	0	0	0	0	0	0	0	0	0	0	0	0	0	0	0	0	10.989	-10.989	19.033	0	0	0	0	0	0	0	0	0	0	0	0	0	0	0	0	0	0	0	0	0	0	-1	0	-2.0278	-17.891	16.968	0	0	0	0	0	0	0	0	0	2
6391	63.91	0	0	0	0	0	0	0	0	0	0	0	0	0	0	0	0	0	0	0	0	0	0	0	0	10.989	-10.989	19.033	0	0	0	1	0	0	17.761	2.1499	16.789	0	0	0	0	0	0	0	0	0	0	0	0	0	0	0	0	0	0	0	0	0	0	0	0	0	0	0	2
6392	63.92	0	0	0	0	0	0	0	0	0	0	0	0	0	0	0	0	0	0	0	0	0	1	0	0	17.755	2.1475	16.785	0	0	0	1	0	0	17.883	2.027	16.961	0	0	0	0	0	0	0	0	0	0	0	0	1	-1	0	7.5503	-27.469	31.921	0	0	0	0	0	0	0	0	0	2
6393	63.93	0	0	0	0	0	0	10.917	-10.917	18.908	0	0	0	0	0	0	0	0	0	0	0	0	0	0	0	10.989	-10.989	19.033	0	0	0	1	0	0	17.883	2.027	16.961	0	0	0	0	0	0	0	0	0	0	0	0	0	0	0	0	0	0	0	0	0	0	0	0	0	0	0	2
6394	63.94	0	0	0	0	0	0	0	0	0	0	0	0	0	0	0	0	0	0	0	0	0	0	0	0	10.989	-10.989	19.033	0	0	0	1	0	0	17.883	2.027	16.961	0	0	0	0	0	0	0	0	0	0	0	0	1	-1	0	7.5503	-27.469	31.921	0	0	0	0	0	0	0	0	0	2
6395	63.95	0	0	0	0	0	0	0	0	0	0	0	0	0	0	0	0	0	0	0	0	0	0	0	0	10.989	-10.989	19.033	0	0	0	1	0	0	17.883	2.027	16.961	0	0	0	0	0	0	0	0	0	0	0	0	0	0	0	0	0	0	0	0	0	0	0	0	0	0	0	2
6396	63.96	0	0	0	0	0	0	0	0	0	0	0	0	0	0	0	0	0	0	0	0	0	1	0	0	17.755	2.1475	16.785	0	0	0	1	0	0	17.883	2.027	16.961	0	0	0	1	0	0	17.883	2.027	16.961	0	0	0	0	-1	0	-2.0278	-17.891	16.968	0	0	0	0	0	0	0	0	0	2
6397	63.97	0	0	0	0	0	0	0	0	0	0	0	0	0	0	0	0	0	0	0	0	0	0	0	0	10.989	-10.989	19.033	0	0	0	1	0	0	17.761	2.1499	16.789	0	0	0	0	0	0	0	0	0	0	0	0	0	0	0	0	0	0	0	0	0	1	0	0	17.47	2.0148	16.554	2
6398	63.98	0	0	0	0	0	0	0	0	0	0	0	0	0	0	0	0	0	0	0	0	0	0	0	0	10.989	-10.989	19.033	0	0	0	1	0	0	17.883	2.027	16.961	0	0	0	0	0	0	0	0	0	0	0	0	0	0	0	10.994	-10.994	19.042	0	0	0	0	0	0	0	0	0	2
6399	63.99	0	0	0	0	0	0	10.917	-10.917	18.908	0	0	0	0	0	0	0	0	0	0	0	0	0	0	0	10.989	-10.989	19.033	0	0	0	1	0	0	17.883	2.027	16.961	0	0	0	0	0	0	0	0	0	0	0	0	1	-1	0	7.5503	-27.469	31.921	0	0	0	0	0	0	0	0	0	2
6400	64	0	0	0	0	0	0	0	0	0	0	0	0	0	0	0	0	0	0	0	0	0	0	0	0	10.989	-10.989	19.033	0	0	0	0	0	0	0	0	0	0	0	0	0	0	0	0	0	0	0	0	0	1	-1	0	7.5503	-27.469	31.921	0	0	0	0	0	0	0	0	0	2
6401	64.01	0	0	0	0	0	0	10.917	-10.917	18.908	0	0	0	0	0	0	0	0	0	0	0	0	0	0	0	10.989	-10.989	19.033	0	0	0	1	0	0	17.761	2.1499	16.789	0	0	0	0	0	0	0	0	0	0	0	0	0	0	0	10.994	-10.994	19.042	0	0	0	0	0	0	0	0	0	2
6402	64.02	0	0	0	0	0	0	10.917	-10.917	18.908	0	0	0	0	0	0	0	0	0	0	0	0	0	0	0	10.989	-10.989	19.033	0	0	0	1	0	0	17.883	2.027	16.961	0	0	0	0	0	0	0	0	0	0	0	0	0	0	0	0	0	0	0	0	0	0	0	0	0	0	0	2
6403	64.03	0	0	0	0	0	0	0	0	0	0	0	0	0	0	0	0	0	0	0	0	0	0	0	0	10.989	-10.989	19.033	0	0	0	1	0	0	17.883	2.027	16.961	0	0	0	0	0	0	0	0	0	0	0	0	0	-1	0	-2.0278	-17.891	16.968	0	0	0	1	0	0	17.47	2.0148	16.554	2
6404	64.04	0	0	0	0	0	0	0	0	0	0	0	0	0	0	0	0	0	0	0	0	0	1	0	0	17.755	2.1475	16.785	0	0	0	1	0	0	17.761	2.1499	16.789	0	0	0	0	0	0	0	0	0	0	0	0	0	0	0	10.994	-10.994	19.042	0	0	0	0	0	0	0	0	0	2
6405	64.05	0	0	0	0	0	0	0	0	0	0	0	0	0	0	0	0	0	0	0	0	0	0	0	0	10.989	-10.989	19.033	0	0	0	1	0	0	17.883	2.027	16.961	0	0	0	0	0	0	0	0	0	0	0	0	0	0	0	0	0	0	0	0	0	0	0	0	0	0	0	2
6406	64.06	0	0	0	0	0	0	0	0	0	0	0	0	0	0	0	0	0	0	0	0	0	0	0	0	10.989	-10.989	19.033	0	0	0	1	0	0	17.761	2.1499	16.789	0	0	0	0	0	0	0	0	0	0	0	0	0	-1	0	-2.0278	-17.891	16.968	0	0	0	0	0	0	0	0	0	2
6407	64.07	0	0	0	0	0	0	10.917	-10.917	18.908	0	0	0	0	0	0	0	0	0	0	0	0	0	0	0	10.989	-10.989	19.033	0	0	0	1	0	0	17.883	2.027	16.961	0	0	0	0	0	0	0	0	0	0	0	0	0	0	0	0	0	0	0	0	0	1	0	0	17.47	2.0148	16.554	0
6408	64.08	0	0	0	0	0	0	0	0	0	0	0	0	0	0	0	0	0	0	0	0	0	1	0	0	17.755	2.1475	16.785	0	0	0	1	0	0	17.883	2.027	16.961	0	0	0	0	0	0	0	0	0	0	0	0	1	-1	0	7.5503	-27.469	31.921	0	0	0	0	0	0	0	0	0	2
6409	64.09	0	0	0	0	0	0	0	0	0	0	0	0	0	0	0	0	0	0	0	0	0	0	0	0	10.989	-10.989	19.033	0	0	0	1	0	0	17.761	2.1499	16.789	0	0	0	0	0	0	0	0	0	0	0	0	0	0	0	0	0	0	0	0	0	1	0	0	17.47	2.0148	16.554	2
6410	64.1	0	0	0	0	0	0	10.917	-10.917	18.908	0	0	0	0	0	0	0	0	0	0	0	0	1	0	0	17.755	2.1475	16.785	0	0	0	1	0	0	17.883	2.027	16.961	0	0	0	0	0	0	0	0	0	0	0	0	0	0	0	0	0	0	0	0	0	0	0	0	0	0	0	2
6411	64.11	0	0	0	0	0	0	10.917	-10.917	18.908	0	0	0	0	0	0	0	0	0	0	0	0	0	0	0	10.989	-10.989	19.033	0	0	0	1	0	0	17.883	2.027	16.961	0	0	0	0	0	0	0	0	0	0	0	0	1	-1	0	7.5503	-27.469	31.921	0	0	0	0	0	0	0	0	0	2
6412	64.12	0	0	0	0	0	0	0	0	0	0	0	0	0	0	0	0	0	0	0	0	0	0	0	0	10.989	-10.989	19.033	0	0	0	1	0	0	17.883	2.027	16.961	0	0	0	0	0	0	0	0	0	0	0	0	0	0	0	10.994	-10.994	19.042	0	0	0	0	0	0	0	0	0	2
6413	64.13	0	0	0	0	0	0	10.917	-10.917	18.908	0	0	0	0	0	0	0	0	0	0	0	0	0	0	0	10.989	-10.989	19.033	0	0	0	1	0	0	17.761	2.1499	16.789	0	0	0	0	0	0	0	0	0	0	0	0	0	-1	0	-2.0278	-17.891	16.968	0	0	0	0	0	0	0	0	0	2
6414	64.14	0	0	0	0	0	0	0	0	0	0	0	0	0	0	0	0	0	0	0	0	0	0	0	0	10.989	-10.989	19.033	0	0	0	1	0	0	17.883	2.027	16.961	0	0	0	0	0	0	0	0	0	0	0	0	0	-1	0	-2.0278	-17.891	16.968	0	0	0	0	0	0	0	0	0	2
6415	64.15	0	0	0	0	0	0	10.917	-10.917	18.908	0	0	0	0	0	0	0	0	0	0	0	0	0	0	0	10.989	-10.989	19.033	0	0	0	1	0	0	17.883	2.027	16.961	0	0	0	0	0	0	0	0	0	0	0	0	0	-1	0	-2.0278	-17.891	16.968	0	0	0	1	0	0	17.47	2.0148	16.554	2
6416	64.16	0	0	0	0	0	0	0	0	0	0	0	0	0	0	0	0	0	0	0	0	0	0	0	0	10.989	-10.989	19.033	0	0	0	1	0	0	17.883	2.027	16.961	0	0	0	0	0	0	0	0	0	0	0	0	0	0	0	0	0	0	0	0	0	0	0	0	0	0	0	2
6417	64.17	0	0	0	0	0	0	0	0	0	0	0	0	0	0	0	0	0	0	0	0	0	0	0	0	10.989	-10.989	19.033	0	0	0	1	0	0	17.883	2.027	16.961	0	0	0	0	0	0	0	0	0	0	0	0	1	-1	0	7.5503	-27.469	31.921	0	0	0	1	0	0	17.47	2.0148	16.554	2
6418	64.18	0	0	0	0	0	0	0	0	0	0	0	0	0	0	0	0	0	0	0	0	0	0	0	0	10.989	-10.989	19.033	0	0	0	1	0	0	17.761	2.1499	16.789	0	0	0	0	0	0	0	0	0	0	0	0	0	-1	0	-2.0278	-17.891	16.968	0	0	0	0	0	0	0	0	0	2
6419	64.19	0	0	0	0	0	0	0	0	0	0	0	0	0	0	0	0	0	0	0	0	0	0	0	0	10.989	-10.989	19.033	0	0	0	1	0	0	17.883	2.027	16.961	0	0	0	0	0	0	0	0	0	0	0	0	0	0	0	10.994	-10.994	19.042	0	0	0	1	0	0	17.47	2.0148	16.554	2
6420	64.2	0	0	0	0	0	0	0	0	0	0	0	0	0	0	0	0	0	0	0	0	0	0	0	0	10.989	-10.989	19.033	0	0	0	1	0	0	17.883	2.027	16.961	0	0	0	0	0	0	0	0	0	0	0	0	0	-1	0	-2.0278	-17.891	16.968	0	0	0	1	0	0	17.47	2.0148	16.554	2
6421	64.21	0	0	0	0	0	0	0	0	0	0	0	0	0	0	0	0	0	0	0	0	0	0	0	0	10.989	-10.989	19.033	0	0	0	1	0	0	17.883	2.027	16.961	0	0	0	0	0	0	0	0	0	0	0	0	0	0	0	10.994	-10.994	19.042	0	0	0	0	0	0	0	0	0	2
6422	64.22	0	0	0	0	0	0	0	0	0	0	0	0	0	0	0	0	0	0	0	0	0	0	0	0	10.989	-10.989	19.033	0	0	0	1	0	0	17.761	2.1499	16.789	0	0	0	0	0	0	0	0	0	0	0	0	0	0	0	10.994	-10.994	19.042	0	0	0	0	0	0	0	0	0	2
6423	64.23	0	0	0	0	0	0	0	0	0	0	0	0	0	0	0	0	0	0	0	0	0	0	0	0	10.989	-10.989	19.033	0	0	0	1	0	0	17.883	2.027	16.961	0	0	0	0	0	0	0	0	0	0	0	0	0	0	0	0	0	0	0	0	0	0	0	0	0	0	0	2
6424	64.24	0	0	0	0	-1	0	-2.0364	-17.814	16.888	0	0	0	0	0	0	0	0	0	0	0	0	0	0	0	10.989	-10.989	19.033	0	0	0	1	0	0	17.883	2.027	16.961	0	0	0	0	0	0	0	0	0	0	0	0	0	0	0	0	0	0	0	0	0	0	0	0	0	0	0	2
6425	64.25	0	0	0	0	0	0	0	0	0	0	0	0	0	0	0	0	0	0	0	0	0	0	0	0	10.989	-10.989	19.033	0	0	0	1	0	0	17.883	2.027	16.961	0	0	0	0	0	0	0	0	0	0	0	0	0	-1	0	-2.0278	-17.891	16.968	0	0	0	1	0	0	17.47	2.0148	16.554	2
6426	64.26	0	0	0	0	0	0	0	0	0	0	0	0	0	0	0	0	0	0	0	0	0	0	0	0	10.989	-10.989	19.033	0	0	0	1	0	0	17.883	2.027	16.961	0	0	0	0	0	0	0	0	0	0	0	0	0	0	0	10.994	-10.994	19.042	0	0	0	0	0	0	0	0	0	2
6427	64.27	0	0	0	0	0	0	10.917	-10.917	18.908	0	0	0	0	0	0	0	0	0	0	0	0	0	0	0	10.989	-10.989	19.033	0	0	0	1	0	0	17.883	2.027	16.961	0	0	0	0	0	0	0	0	0	0	0	0	0	0	0	10.994	-10.994	19.042	0	0	0	1	0	0	17.47	2.0148	16.554	2
6428	64.28	0	0	0	0	0	0	0	0	0	0	0	0	0	0	0	0	0	0	0	0	0	0	0	0	10.989	-10.989	19.033	0	0	0	1	0	0	17.883	2.027	16.961	0	0	0	0	0	0	0	0	0	0	0	0	0	0	0	10.994	-10.994	19.042	0	0	0	0	0	0	0	0	0	2
6429	64.29	0	0	0	0	0	0	10.917	-10.917	18.908	0	0	0	0	0	0	0	0	0	0	0	0	1	0	0	17.755	2.1475	16.785	0	0	0	1	0	0	17.883	2.027	16.961	0	0	0	0	0	0	0	0	0	0	0	0	0	-1	0	-2.0278	-17.891	16.968	0	0	0	0	0	0	0	0	0	2
6430	64.3	0	0	0	0	0	0	0	0	0	0	0	0	0	0	0	0	0	0	0	0	0	0	0	0	10.989	-10.989	19.033	0	0	0	1	0	0	17.883	2.027	16.961	0	0	0	0	0	0	0	0	0	0	0	0	0	-1	0	-2.0278	-17.891	16.968	0	0	0	0	0	0	0	0	0	2
6431	64.31	0	0	0	0	0	0	0	0	0	0	0	0	0	0	0	0	0	0	0	0	0	1	0	0	17.755	2.1475	16.785	0	0	0	1	0	0	17.761	2.1499	16.789	0	0	0	0	0	0	0	0	0	0	0	0	1	-1	0	7.5503	-27.469	31.921	0	0	0	0	0	0	0	0	0	2
6432	64.32	0	0	0	0	0	0	0	0	0	0	0	0	0	0	0	0	0	0	0	0	0	0	0	0	10.989	-10.989	19.033	0	0	0	1	0	0	17.883	2.027	16.961	0	0	0	0	0	0	0	0	0	0	0	0	0	-1	0	-2.0278	-17.891	16.968	0	0	0	0	0	0	0	0	0	2
6433	64.33	0	0	0	0	0	0	10.917	-10.917	18.908	0	0	0	0	0	0	0	0	0	0	0	0	0	0	0	10.989	-10.989	19.033	0	0	0	1	0	0	17.761	2.1499	16.789	0	0	0	0	0	0	0	0	0	0	0	0	0	0	0	0	0	0	0	0	0	0	0	0	0	0	0	0
6434	64.34	0	0	0	0	0	0	0	0	0	0	0	0	0	0	0	0	0	0	0	0	0	0	0	0	10.989	-10.989	19.033	0	0	0	1	0	0	17.761	2.1499	16.789	0	0	0	0	0	0	0	0	0	0	0	0	1	-1	0	7.5503	-27.469	31.921	0	0	0	0	0	0	0	0	0	2
6435	64.35	0	0	0	0	0	0	0	0	0	0	0	0	0	0	0	0	0	0	0	0	0	0	0	0	10.989	-10.989	19.033	0	0	0	1	0	0	17.883	2.027	16.961	0	0	0	0	0	0	0	0	0	0	0	0	0	0	0	0	0	0	0	0	0	0	0	0	0	0	0	2
6436	64.36	0	0	0	0	0	0	0	0	0	0	0	0	0	0	0	0	0	0	0	0	0	0	0	0	10.989	-10.989	19.033	0	0	0	1	0	0	17.883	2.027	16.961	0	0	0	0	0	0	0	0	0	0	0	0	0	-1	0	-2.0278	-17.891	16.968	0	0	0	0	0	0	0	0	0	2
6437	64.37	0	0	0	0	0	0	10.917	-10.917	18.908	0	0	0	0	0	0	0	0	0	0	0	0	1	0	0	17.755	2.1475	16.785	0	0	0	1	0	0	17.883	2.027	16.961	0	0	0	0	0	0	0	0	0	0	0	0	0	0	0	10.994	-10.994	19.042	0	0	0	1	0	0	17.47	2.0148	16.554	2
6438	64.38	0	0	0	0	0	0	0	0	0	0	0	0	0	0	0	0	0	0	0	0	0	0	0	0	10.989	-10.989	19.033	0	0	0	1	0	0	17.883	2.027	16.961	0	0	0	0	0	0	0	0	0	0	0	0	0	-1	0	-2.0278	-17.891	16.968	0	0	0	0	0	0	0	0	0	0
6439	64.39	0	0	0	0	0	0	0	0	0	0	0	0	0	0	0	0	0	0	0	0	0	0	0	0	10.989	-10.989	19.033	0	0	0	1	0	0	17.761	2.1499	16.789	0	0	0	0	0	0	0	0	0	0	0	0	0	0	0	0	0	0	0	0	0	0	0	0	0	0	0	2
6440	64.4	0	0	0	0	0	0	0	0	0	0	0	0	0	0	0	0	0	0	0	0	0	0	0	0	10.989	-10.989	19.033	0	0	0	1	0	0	17.883	2.027	16.961	0	0	0	0	0	0	0	0	0	0	0	0	0	0	0	0	0	0	0	0	0	1	0	0	17.47	2.0148	16.554	2
6441	64.41	0	0	0	0	0	0	0	0	0	0	0	0	0	0	0	0	0	0	0	0	0	1	0	0	17.755	2.1475	16.785	0	0	0	1	0	0	17.761	2.1499	16.789	0	0	0	0	0	0	0	0	0	0	0	0	0	0	0	0	0	0	0	0	0	0	0	0	0	0	0	2
6442	64.42	0	0	0	0	0	0	0	0	0	0	0	0	0	0	0	0	0	0	0	0	0	1	0	0	17.755	2.1475	16.785	0	0	0	1	0	0	17.761	2.1499	16.789	0	0	0	0	0	0	0	0	0	0	0	0	0	0	0	10.994	-10.994	19.042	0	0	0	1	0	0	17.47	2.0148	16.554	2
6443	64.43	0	0	0	0	0	0	10.917	-10.917	18.908	0	0	0	0	0	0	0	0	0	0	0	0	0	0	0	10.989	-10.989	19.033	0	0	0	1	0	0	17.883	2.027	16.961	0	0	0	0	0	0	0	0	0	0	0	0	0	-1	0	-2.0278	-17.891	16.968	0	0	0	0	0	0	0	0	0	2
6444	64.44	0	0	0	0	0	0	0	0	0	0	0	0	0	0	0	0	0	0	0	0	0	1	0	0	17.755	2.1475	16.785	0	0	0	1	0	0	17.883	2.027	16.961	0	0	0	0	0	0	0	0	0	0	0	0	0	-1	0	-2.0278	-17.891	16.968	0	0	0	1	0	0	17.47	2.0148	16.554	2
6445	64.45	0	0	0	0	0	0	10.917	-10.917	18.908	0	0	0	0	0	0	0	0	0	0	0	0	0	0	0	10.989	-10.989	19.033	0	0	0	1	0	0	17.761	2.1499	16.789	0	0	0	0	0	0	0	0	0	0	0	0	0	0	0	10.994	-10.994	19.042	0	0	0	0	0	0	0	0	0	2
6446	64.46	0	0	0	0	0	0	0	0	0	0	0	0	0	0	0	0	0	0	0	0	0	1	0	0	17.755	2.1475	16.785	0	0	0	1	0	0	17.883	2.027	16.961	0	0	0	0	0	0	0	0	0	0	0	0	0	0	0	10.994	-10.994	19.042	0	0	0	1	0	0	17.47	2.0148	16.554	2
6447	64.47	0	0	0	0	0	0	10.917	-10.917	18.908	0	0	0	0	0	0	0	0	0	0	0	0	1	0	0	17.755	2.1475	16.785	0	0	0	1	0	0	17.761	2.1499	16.789	0	0	0	0	0	0	0	0	0	0	0	0	0	0	0	0	0	0	0	0	0	1	0	0	17.47	2.0148	16.554	2
6448	64.48	0	0	0	0	0	0	0	0	0	0	0	0	0	0	0	0	0	0	0	0	0	0	0	0	10.989	-10.989	19.033	0	0	0	1	0	0	17.883	2.027	16.961	0	0	0	0	0	0	0	0	0	0	0	0	0	0	0	0	0	0	0	0	0	0	0	0	0	0	0	2
6449	64.49	0	0	0	0	0	0	10.917	-10.917	18.908	0	0	0	0	0	0	0	0	0	0	0	0	1	0	0	17.755	2.1475	16.785	0	0	0	1	0	0	17.883	2.027	16.961	0	0	0	0	0	0	0	0	0	0	0	0	0	0	0	10.994	-10.994	19.042	0	0	0	1	0	0	17.47	2.0148	16.554	2
6450	64.5	0	0	0	0	0	0	0	0	0	0	0	0	0	0	0	0	0	0	0	0	0	0	0	0	10.989	-10.989	19.033	0	0	0	1	0	0	17.761	2.1499	16.789	0	0	0	0	0	0	0	0	0	0	0	0	0	0	0	0	0	0	0	0	0	1	0	0	17.47	2.0148	16.554	2
6451	64.51	0	0	0	0	0	0	0	0	0	0	0	0	0	0	0	0	0	0	0	0	0	0	0	0	10.989	-10.989	19.033	0	0	0	1	0	0	17.883	2.027	16.961	0	0	0	0	0	0	0	0	0	0	0	0	0	0	0	10.994	-10.994	19.042	0	0	0	1	0	0	17.47	2.0148	16.554	2
6452	64.52	0	0	0	0	0	0	0	0	0	0	0	0	0	0	0	0	0	0	0	0	0	0	0	0	10.989	-10.989	19.033	0	0	0	1	0	0	17.883	2.027	16.961	0	0	0	0	0	0	0	0	0	0	0	0	0	-1	0	-2.0278	-17.891	16.968	0	0	0	0	0	0	0	0	0	0
6453	64.53	0	0	0	0	0	0	0	0	0	0	0	0	0	0	0	0	0	0	0	0	0	0	0	0	10.989	-10.989	19.033	0	0	0	1	0	0	17.883	2.027	16.961	0	0	0	0	0	0	0	0	0	0	0	0	0	0	0	10.994	-10.994	19.042	0	0	0	0	0	0	0	0	0	2
6454	64.54	0	0	0	0	0	0	0	0	0	0	0	0	0	0	0	0	0	0	0	0	0	1	0	0	17.755	2.1475	16.785	0	0	0	1	0	0	17.761	2.1499	16.789	0	0	0	0	0	0	0	0	0	0	0	0	0	0	0	10.994	-10.994	19.042	0	0	0	1	0	0	17.47	2.0148	16.554	2
6455	64.55	0	0	0	0	0	0	0	0	0	0	0	0	0	0	0	0	0	0	0	0	0	0	0	0	10.989	-10.989	19.033	0	0	0	1	0	0	17.883	2.027	16.961	0	0	0	0	0	0	0	0	0	0	0	0	0	-1	0	-2.0278	-17.891	16.968	0	0	0	0	0	0	0	0	0	0
6456	64.56	0	0	0	0	0	0	0	0	0	0	0	0	0	0	0	0	0	0	0	0	0	1	0	0	17.755	2.1475	16.785	0	0	0	1	0	0	17.883	2.027	16.961	0	0	0	0	0	0	0	0	0	0	0	0	0	0	0	0	0	0	0	0	0	1	0	0	17.47	2.0148	16.554	2
6457	64.57	0	0	0	0	0	0	0	0	0	0	0	0	0	0	0	0	0	0	0	0	0	0	0	0	10.989	-10.989	19.033	0	0	0	1	0	0	17.883	2.027	16.961	0	0	0	0	0	0	0	0	0	0	0	0	0	0	0	10.994	-10.994	19.042	0	0	0	1	0	0	17.47	2.0148	16.554	2
6458	64.58	0	0	0	0	0	0	0	0	0	0	0	0	0	0	0	0	0	0	0	0	0	0	0	0	10.989	-10.989	19.033	0	0	0	1	0	0	17.883	2.027	16.961	0	0	0	0	0	0	0	0	0	0	0	0	0	-1	0	-2.0278	-17.891	16.968	0	0	0	0	0	0	0	0	0	0
6459	64.59	0	0	0	0	0	0	10.917	-10.917	18.908	0	0	0	0	0	0	0	0	0	0	0	0	1	0	0	17.755	2.1475	16.785	0	0	0	1	0	0	17.761	2.1499	16.789	0	0	0	1	0	0	17.883	2.027	16.961	0	0	0	0	0	0	0	0	0	0	0	0	0	0	0	0	0	0	2
6460	64.6	0	0	0	0	0	0	0	0	0	0	0	0	0	0	0	0	0	0	0	0	0	0	0	0	10.989	-10.989	19.033	0	0	0	1	0	0	17.883	2.027	16.961	0	0	0	0	0	0	0	0	0	0	0	0	0	-1	0	-2.0278	-17.891	16.968	0	0	0	0	0	0	0	0	0	0
6461	64.61	0	0	0	0	0	0	0	0	0	0	0	0	0	0	0	0	0	0	0	0	0	1	0	0	17.755	2.1475	16.785	0	0	0	1	0	0	17.761	2.1499	16.789	0	0	0	0	0	0	0	0	0	0	0	0	1	-1	0	7.5503	-27.469	31.921	0	0	0	0	0	0	0	0	0	2
6462	64.62	0	0	0	0	0	0	0	0	0	0	0	0	0	0	0	0	0	0	0	0	0	0	0	0	10.989	-10.989	19.033	0	0	0	0	0	0	10.991	-10.991	19.037	0	0	0	0	0	0	0	0	0	0	0	0	0	-1	0	-2.0278	-17.891	16.968	0	0	0	1	0	0	17.47	2.0148	16.554	2
6463	64.63	0	0	0	0	0	0	0	0	0	0	0	0	0	0	0	0	0	0	0	0	0	0	0	0	10.989	-10.989	19.033	0	0	0	1	0	0	17.883	2.027	16.961	0	0	0	0	0	0	0	0	0	0	0	0	0	0	0	0	0	0	0	0	0	1	0	0	17.47	2.0148	16.554	2
6464	64.64	0	0	0	0	0	0	0	0	0	0	0	0	0	0	0	0	0	0	0	0	0	1	0	0	17.755	2.1475	16.785	0	0	0	1	0	0	17.883	2.027	16.961	0	0	0	0	0	0	0	0	0	0	0	0	1	0	0	17.769	2.1543	16.796	0	0	0	1	0	0	17.482	2.0162	16.566	2
6465	64.65	0	0	0	0	0	0	0	0	0	0	0	0	0	0	0	0	0	0	0	0	0	0	0	0	10.989	-10.989	19.033	0	0	0	1	0	0	17.761	2.1499	16.789	0	0	0	0	0	0	0	0	0	0	0	0	0	0	0	10.994	-10.994	19.042	0	0	0	0	0	0	0	0	0	2
6466	64.66	0	0	0	0	0	0	0	0	0	0	0	0	0	0	0	0	0	0	0	0	0	0	0	0	10.989	-10.989	19.033	0	0	0	1	0	0	17.883	2.027	16.961	0	0	0	0	0	0	0	0	0	0	0	0	1	-1	0	7.5503	-27.469	31.921	0	0	0	1	0	0	17.47	2.0148	16.554	2
6467	64.67	0	0	0	0	0	0	10.917	-10.917	18.908	0	0	0	0	0	0	0	0	0	0	0	0	1	0	0	17.755	2.1475	16.785	0	0	0	1	0	0	17.761	2.1499	16.789	0	0	0	0	0	0	0	0	0	0	0	0	0	0	0	0	0	0	0	0	0	0	0	0	0	0	0	2
6468	64.68	0	0	0	0	0	0	0	0	0	0	0	0	0	0	0	0	0	0	0	0	0	0	0	0	10.989	-10.989	19.033	0	0	0	1	0	0	17.883	2.027	16.961	0	0	0	0	0	0	0	0	0	0	0	0	0	0	0	10.994	-10.994	19.042	0	0	0	0	0	0	0	0	0	2
6469	64.69	0	0	0	0	0	0	0	0	0	0	0	0	0	0	0	0	0	0	0	0	0	1	0	0	17.755	2.1475	16.785	0	0	0	1	0	0	17.761	2.1499	16.789	0	0	0	1	0	0	17.883	2.027	16.961	0	0	0	0	0	0	10.994	-10.994	19.042	0	0	0	1	0	0	17.471	2.0135	16.556	2
6470	64.7	0	0	0	0	0	0	0	0	0	0	0	0	0	0	0	0	0	0	0	0	0	0	0	0	10.989	-10.989	19.033	0	0	0	1	0	0	17.883	2.027	16.961	0	0	0	0	0	0	0	0	0	0	0	0	0	0	0	0	0	0	0	0	0	0	0	0	0	0	0	2
6471	64.71	0	0	0	0	0	0	0	0	0	0	0	0	0	0	0	0	0	0	0	0	0	0	0	0	10.989	-10.989	19.033	0	0	0	1	0	0	17.761	2.1499	16.789	0	0	0	0	0	0	0	0	0	0	0	0	0	-1	0	-2.0278	-17.891	16.968	0	0	0	1	0	0	17.47	2.0148	16.554	2
6472	64.72	0	0	0	0	0	0	0	0	0	0	0	0	0	0	0	0	0	0	0	0	0	0	0	0	10.989	-10.989	19.033	0	0	0	1	0	0	17.761	2.1499	16.789	0	0	0	0	0	0	0	0	0	0	0	0	0	0	0	10.994	-10.994	19.042	0	0	0	1	0	0	17.47	2.0148	16.554	2
6473	64.73	0	0	0	0	0	0	10.917	-10.917	18.908	0	0	0	0	0	0	0	0	0	0	0	0	0	0	0	10.989	-10.989	19.033	0	0	0	1	0	0	17.883	2.027	16.961	0	0	0	0	0	0	0	0	0	0	0	0	0	0	0	0	0	0	0	0	0	0	0	0	0	0	0	2
6474	64.74	0	0	0	0	0	0	0	0	0	0	0	0	0	0	0	0	0	0	0	0	0	0	0	0	10.989	-10.989	19.033	0	0	0	1	0	0	17.883	2.027	16.961	0	0	0	0	0	0	0	0	0	0	0	0	1	-1	0	7.5503	-27.469	31.921	0	0	0	1	0	0	17.47	2.0148	16.554	2
6475	64.75	0	0	0	1	-1	0	7.4664	-27.317	31.716	0	0	0	0	0	0	0	0	0	0	0	0	0	0	0	10.989	-10.989	19.033	0	0	0	1	0	0	17.883	2.027	16.961	0	0	0	0	0	0	0	0	0	0	0	0	0	-1	0	-2.0278	-17.891	16.968	0	0	0	1	0	0	17.47	2.0148	16.554	2
6476	64.76	0	0	0	0	0	0	0	0	0	0	0	0	0	0	0	0	0	0	0	0	0	0	0	0	10.989	-10.989	19.033	0	0	0	1	0	0	17.761	2.1499	16.789	0	0	0	0	0	0	0	0	0	0	0	0	0	0	0	0	0	0	0	0	0	0	0	0	0	0	0	2
6477	64.77	0	0	0	0	0	0	10.917	-10.917	18.908	0	0	0	0	0	0	0	0	0	0	0	0	0	0	0	10.989	-10.989	19.033	0	0	0	1	0	0	17.883	2.027	16.961	0	0	0	0	0	0	0	0	0	0	0	0	0	0	0	0	0	0	0	0	0	1	0	0	17.47	2.0148	16.554	2
6478	64.78	0	0	0	0	0	0	0	0	0	0	0	0	0	0	0	0	0	0	0	0	0	0	0	0	10.989	-10.989	19.033	0	0	0	1	0	0	17.883	2.027	16.961	0	0	0	0	0	0	0	0	0	0	0	0	1	-1	0	7.5503	-27.469	31.921	0	0	0	0	0	0	0	0	0	2
6479	64.79	0	0	0	0	0	0	0	0	0	0	0	0	0	0	0	0	0	0	0	0	0	0	0	0	10.989	-10.989	19.033	0	0	0	1	0	0	17.761	2.1499	16.789	0	0	0	0	0	0	0	0	0	0	0	0	0	0	0	0	0	0	0	0	0	0	0	0	0	0	0	2
6480	64.8	0	0	0	0	0	0	0	0	0	0	0	0	0	0	0	0	0	0	0	0	0	0	0	0	10.989	-10.989	19.033	0	0	0	1	0	0	17.883	2.027	16.961	0	0	0	0	0	0	0	0	0	0	0	0	0	0	0	0	0	0	0	0	0	0	0	0	0	0	0	2
6481	64.81	0	0	0	0	0	0	10.917	-10.917	18.908	0	0	0	0	0	0	0	0	0	0	0	0	1	0	0	17.755	2.1475	16.785	0	0	0	1	0	0	17.883	2.027	16.961	0	0	0	0	0	0	0	0	0	0	0	0	0	0	0	10.994	-10.994	19.042	0	0	0	0	0	0	0	0	0	2
6482	64.82	0	0	0	0	0	0	0	0	0	0	0	0	0	0	0	0	0	0	0	0	0	1	0	0	17.755	2.1475	16.785	0	0	0	1	0	0	17.883	2.027	16.961	0	0	0	0	0	0	0	0	0	0	0	0	0	0	0	0	0	0	0	0	0	0	0	0	0	0	0	2
6483	64.83	0	0	0	0	0	0	0	0	0	0	0	0	0	-1	0	-2.0366	-17.816	16.89	0	0	0	0	0	0	10.989	-10.989	19.033	0	0	0	1	0	0	17.883	2.027	16.961	0	0	0	0	0	0	0	0	0	0	0	0	0	0	0	10.994	-10.994	19.042	0	0	0	0	0	0	0	0	0	2
6484	64.84	0	0	0	0	0	0	0	0	0	0	0	0	0	0	0	0	0	0	0	0	0	1	0	0	17.755	2.1475	16.785	0	0	0	1	0	0	17.883	2.027	16.961	0	0	0	0	0	0	0	0	0	0	0	0	0	0	0	10.994	-10.994	19.042	0	0	0	0	0	0	0	0	0	2
6485	64.85	0	0	0	0	0	0	10.917	-10.917	18.908	0	0	0	0	0	0	0	0	0	0	0	0	0	0	0	10.989	-10.989	19.033	0	0	0	1	0	0	17.883	2.027	16.961	0	0	0	0	0	0	0	0	0	0	0	0	0	-1	0	-2.0278	-17.891	16.968	0	0	0	0	0	0	0	0	0	2
6486	64.86	0	0	0	0	0	0	0	0	0	0	0	0	0	0	0	0	0	0	0	0	0	0	0	0	10.989	-10.989	19.033	0	0	0	1	0	0	17.883	2.027	16.961	0	0	0	0	0	0	0	0	0	0	0	0	0	0	0	10.994	-10.994	19.042	0	0	0	1	0	0	17.47	2.0148	16.554	0
6487	64.87	0	0	0	0	0	0	0	0	0	0	0	0	0	0	0	0	0	0	0	0	0	1	0	0	17.755	2.1475	16.785	0	0	0	1	0	0	17.761	2.1499	16.789	0	0	0	0	0	0	0	0	0	0	0	0	0	0	0	0	0	0	0	0	0	1	0	0	17.47	2.0148	16.554	2
6488	64.88	0	0	0	0	0	0	10.917	-10.917	18.908	0	0	0	0	0	0	0	0	0	0	0	0	0	0	0	10.989	-10.989	19.033	0	0	0	1	0	0	17.883	2.027	16.961	0	0	0	0	0	0	0	0	0	0	0	0	0	0	0	10.994	-10.994	19.042	0	0	0	0	0	0	0	0	0	2
6489	64.89	0	0	0	0	0	0	0	0	0	0	0	0	0	0	0	0	0	0	0	0	0	1	0	0	17.755	2.1475	16.785	0	0	0	1	0	0	17.761	2.1499	16.789	0	0	0	0	0	0	0	0	0	0	0	0	0	-1	0	-2.0278	-17.891	16.968	0	0	0	0	0	0	0	0	0	2
6490	64.9	0	0	0	0	0	0	0	0	0	0	0	0	0	0	0	0	0	0	0	0	0	0	0	0	10.989	-10.989	19.033	0	0	0	1	0	0	17.883	2.027	16.961	0	0	0	0	0	0	0	0	0	0	0	0	0	0	0	10.994	-10.994	19.042	0	0	0	0	0	0	0	0	0	2
6491	64.91	0	0	0	0	0	0	10.917	-10.917	18.908	0	0	0	0	0	0	0	0	0	0	0	0	1	0	0	17.755	2.1475	16.785	0	0	0	1	0	0	17.883	2.027	16.961	0	0	0	0	0	0	0	0	0	0	0	0	0	0	0	10.994	-10.994	19.042	0	0	0	0	0	0	0	0	0	2
6492	64.92	0	0	0	0	0	0	0	0	0	0	0	0	0	0	0	0	0	0	0	0	0	0	0	0	10.989	-10.989	19.033	0	0	0	1	0	0	17.761	2.1499	16.789	0	0	0	0	0	0	0	0	0	0	0	0	0	0	0	0	0	0	0	0	0	1	0	0	17.47	2.0148	16.554	2
6493	64.93	0	0	0	0	0	0	0	0	0	0	0	0	0	0	0	0	0	0	0	0	0	0	0	0	10.989	-10.989	19.033	0	0	0	1	0	0	17.883	2.027	16.961	0	0	0	0	0	0	0	0	0	0	0	0	0	-1	0	-2.0278	-17.891	16.968	0	0	0	0	0	0	0	0	0	2
6494	64.94	0	0	0	0	0	0	0	0	0	0	0	0	0	0	0	0	0	0	0	0	0	1	0	0	17.755	2.1475	16.785	0	0	0	1	0	0	17.883	2.027	16.961	0	0	0	1	0	0	17.883	2.027	16.961	0	0	0	0	0	0	10.994	-10.994	19.042	0	0	0	1	0	0	17.47	2.0148	16.554	2
6495	64.95	0	0	0	0	0	0	0	0	0	0	0	0	0	0	0	0	0	0	0	0	0	0	0	0	10.989	-10.989	19.033	0	0	0	1	0	0	17.883	2.027	16.961	0	0	0	0	0	0	0	0	0	0	0	0	0	0	0	0	0	0	0	0	0	0	0	0	0	0	0	2
6496	64.96	0	0	0	0	0	0	0	0	0	0	0	0	0	0	0	0	0	0	0	0	0	1	0	0	17.755	2.1475	16.785	0	0	0	1	0	0	17.761	2.1499	16.789	0	0	0	0	0	0	0	0	0	0	0	0	1	-1	0	7.5503	-27.469	31.921	0	0	0	0	0	0	0	0	0	2
6497	64.97	0	0	0	0	0	0	0	0	0	0	0	0	0	0	0	0	0	0	0	0	0	1	0	0	17.755	2.1475	16.785	0	0	0	1	0	0	17.883	2.027	16.961	0	0	0	0	0	0	0	0	0	0	0	0	1	-1	0	7.5503	-27.469	31.921	0	0	0	0	0	0	0	0	0	0
6498	64.98	0	0	0	0	0	0	0	0	0	0	0	0	0	0	0	0	0	0	0	0	0	0	0	0	10.989	-10.989	19.033	0	0	0	1	0	0	17.883	2.027	16.961	0	0	0	0	0	0	0	0	0	0	0	0	0	0	0	10.994	-10.994	19.042	0	0	0	0	0	0	0	0	0	2
6499	64.99	0	0	0	0	0	0	0	0	0	0	0	0	0	0	0	0	0	0	0	0	0	1	0	0	17.755	2.1475	16.785	0	0	0	1	0	0	17.883	2.027	16.961	0	0	0	0	0	0	0	0	0	0	0	0	0	0	0	0	0	0	0	0	0	1	0	0	17.47	2.0148	16.554	2
6500	65	0	0	0	0	0	0	0	0	0	0	0	0	0	0	0	0	0	0	0	0	0	0	0	0	10.989	-10.989	19.033	0	0	0	1	0	0	17.883	2.027	16.961	0	0	0	0	0	0	0	0	0	0	0	0	0	0	0	10.994	-10.994	19.042	0	0	0	0	0	0	0	0	0	2
6501	65.01	0	0	0	0	0	0	10.917	-10.917	18.908	0	0	0	0	0	0	0	0	0	0	0	0	1	0	0	17.755	2.1475	16.785	0	0	0	1	0	0	17.883	2.027	16.961	0	0	0	0	0	0	0	0	0	0	0	0	0	0	0	10.994	-10.994	19.042	0	0	0	1	0	0	17.47	2.0148	16.554	2
6502	65.02	0	0	0	0	0	0	0	0	0	0	0	0	0	0	0	0	0	0	0	0	0	1	0	0	17.755	2.1475	16.785	0	0	0	1	0	0	17.883	2.027	16.961	0	0	0	0	0	0	0	0	0	0	0	0	0	0	0	10.994	-10.994	19.042	0	0	0	0	0	0	0	0	0	2
6503	65.03	0	0	0	0	0	0	0	0	0	0	0	0	0	0	0	0	0	0	0	0	0	0	0	0	10.989	-10.989	19.033	0	0	0	1	0	0	17.883	2.027	16.961	0	0	0	0	0	0	0	0	0	0	0	0	1	-1	0	7.5503	-27.469	31.921	0	0	0	0	0	0	0	0	0	2
6504	65.04	0	0	0	0	0	0	0	0	0	0	0	0	0	0	0	0	0	0	0	0	0	1	0	0	17.755	2.1475	16.785	0	0	0	1	0	0	17.761	2.1499	16.789	0	0	0	0	0	0	0	0	0	0	0	0	0	0	0	0	0	0	0	0	0	1	0	0	17.47	2.0148	16.554	2
6505	65.05	0	0	0	0	0	0	0	0	0	0	0	0	0	0	0	0	0	0	0	0	0	0	0	0	10.989	-10.989	19.033	0	0	0	1	0	0	17.883	2.027	16.961	0	0	0	0	0	0	0	0	0	0	0	0	0	0	0	10.994	-10.994	19.042	0	0	0	0	0	0	0	0	0	0
6506	65.06	0	0	0	0	0	0	0	0	0	0	0	0	0	0	0	0	0	0	0	0	0	1	0	0	17.755	2.1475	16.785	0	0	0	1	0	0	17.761	2.1499	16.789	0	0	0	0	0	0	0	0	0	0	0	0	0	0	0	10.994	-10.994	19.042	0	0	0	0	0	0	0	0	0	2
6507	65.07	0	0	0	0	0	0	0	0	0	0	0	0	0	0	0	0	0	0	0	0	0	1	0	0	17.755	2.1475	16.785	0	0	0	1	0	0	17.883	2.027	16.961	0	0	0	0	0	0	0	0	0	0	0	0	0	0	0	0	0	0	0	0	0	0	0	0	0	0	0	2
6508	65.08	0	0	0	0	0	0	10.917	-10.917	18.908	0	0	0	0	0	0	0	0	0	0	0	0	0	0	0	10.989	-10.989	19.033	0	0	0	1	0	0	17.761	2.1499	16.789	0	0	0	0	0	0	0	0	0	0	0	0	0	0	0	0	0	0	0	0	0	0	0	0	0	0	0	2
6509	65.09	0	0	0	0	0	0	0	0	0	0	0	0	0	0	0	0	0	0	0	0	0	1	0	0	17.755	2.1475	16.785	0	0	0	1	0	0	17.883	2.027	16.961	0	0	0	0	0	0	0	0	0	0	0	0	0	0	0	10.994	-10.994	19.042	0	0	0	1	0	0	17.47	2.0148	16.554	2
6510	65.1	0	0	0	0	0	0	0	0	0	0	0	0	0	0	0	0	0	0	0	0	0	0	0	0	10.989	-10.989	19.033	0	0	0	1	0	0	17.761	2.1499	16.789	0	0	0	0	0	0	0	0	0	0	0	0	0	-1	0	-2.0278	-17.891	16.968	0	0	0	0	0	0	0	0	0	2
6511	65.11	0	0	0	0	0	0	0	0	0	0	0	0	0	0	0	0	0	0	0	0	0	1	0	0	17.755	2.1475	16.785	0	0	0	1	0	0	17.761	2.1499	16.789	0	0	0	0	0	0	0	0	0	0	0	0	0	0	0	10.994	-10.994	19.042	0	0	0	0	0	0	0	0	0	2
6512	65.12	0	0	0	0	0	0	0	0	0	0	0	0	0	0	0	0	0	0	0	0	0	1	0	0	17.755	2.1475	16.785	0	0	0	1	0	0	17.883	2.027	16.961	0	0	0	0	0	0	0	0	0	0	0	0	0	-1	0	-2.0278	-17.891	16.968	0	0	0	1	0	0	17.47	2.0148	16.554	2
6513	65.13	0	0	0	0	0	0	10.917	-10.917	18.908	0	0	0	0	0	0	0	0	0	0	0	0	0	0	0	10.989	-10.989	19.033	0	0	0	1	0	0	17.883	2.027	16.961	0	0	0	0	0	0	0	0	0	0	0	0	0	0	0	0	0	0	0	0	0	0	0	0	0	0	0	2
6514	65.14	0	0	0	0	0	0	0	0	0	0	0	0	0	0	0	0	0	0	0	0	0	1	0	0	17.755	2.1475	16.785	0	0	0	1	0	0	17.883	2.027	16.961	0	0	0	0	0	0	0	0	0	0	0	0	0	0	0	0	0	0	0	0	0	1	0	0	17.47	2.0148	16.554	2
6515	65.15	0	0	0	0	0	0	10.917	-10.917	18.908	0	0	0	0	0	0	0	0	0	0	0	0	0	0	0	10.989	-10.989	19.033	0	0	0	1	0	0	17.761	2.1499	16.789	0	0	0	0	0	0	0	0	0	0	0	0	0	-1	0	-2.0278	-17.891	16.968	0	0	0	0	0	0	0	0	0	2
6516	65.16	0	0	0	0	0	0	0	0	0	0	0	0	0	0	0	0	0	0	0	0	0	1	0	0	17.755	2.1475	16.785	0	0	0	1	0	0	17.883	2.027	16.961	0	0	0	0	0	0	0	0	0	0	0	0	0	0	0	0	0	0	0	0	0	1	0	0	17.47	2.0148	16.554	0
6517	65.17	0	0	0	0	0	0	0	0	0	0	0	0	0	0	0	0	0	0	0	0	0	0	0	0	10.989	-10.989	19.033	0	0	0	1	0	0	17.761	2.1499	16.789	0	0	0	0	0	0	0	0	0	0	0	0	0	0	0	10.994	-10.994	19.042	0	0	0	0	0	0	0	0	0	2
6518	65.18	0	0	0	0	0	0	10.917	-10.917	18.908	0	0	0	0	0	0	0	0	0	0	0	0	1	0	0	17.755	2.1475	16.785	0	0	0	1	0	0	17.761	2.1499	16.789	0	0	0	0	0	0	0	0	0	0	0	0	0	-1	0	-2.0278	-17.891	16.968	0	0	0	0	0	0	0	0	0	2
6519	65.19	0	0	0	0	0	0	10.917	-10.917	18.908	0	0	0	0	0	0	0	0	0	0	0	0	1	0	0	17.755	2.1475	16.785	0	0	0	1	0	0	17.883	2.027	16.961	0	0	0	0	0	0	0	0	0	0	0	0	0	0	0	10.994	-10.994	19.042	0	0	0	1	0	0	17.47	2.0148	16.554	2
6520	65.2	0	0	0	0	0	0	10.917	-10.917	18.908	0	0	0	0	0	0	0	0	0	0	0	0	0	0	0	10.989	-10.989	19.033	0	0	0	1	0	0	17.883	2.027	16.961	0	0	0	0	0	0	0	0	0	0	0	0	0	0	0	0	0	0	0	0	0	1	0	0	17.47	2.0148	16.554	2
6521	65.21	0	0	0	0	0	0	10.917	-10.917	18.908	0	0	0	0	0	0	0	0	0	0	0	0	0	0	0	10.989	-10.989	19.033	0	0	0	1	0	0	17.761	2.1499	16.789	0	0	0	0	0	0	0	0	0	0	0	0	0	0	0	10.994	-10.994	19.042	0	0	0	0	0	0	0	0	0	2
6522	65.22	0	0	0	0	0	0	10.917	-10.917	18.908	0	0	0	0	0	0	0	0	0	0	0	0	0	0	0	10.989	-10.989	19.033	0	0	0	1	0	0	17.883	2.027	16.961	0	0	0	0	0	0	0	0	0	0	0	0	0	0	0	10.994	-10.994	19.042	0	0	0	0	0	0	0	0	0	2
6523	65.23	0	0	0	0	0	0	10.917	-10.917	18.908	0	0	0	0	0	0	0	0	0	0	0	0	1	0	0	17.755	2.1475	16.785	0	0	0	1	0	0	17.883	2.027	16.961	0	0	0	0	0	0	0	0	0	0	0	0	0	0	0	0	0	0	0	0	0	0	0	0	0	0	0	2
6524	65.24	0	0	0	0	0	0	0	0	0	0	0	0	0	0	0	0	0	0	0	0	0	1	0	0	17.755	2.1475	16.785	0	0	0	1	0	0	17.883	2.027	16.961	0	0	0	0	0	0	0	0	0	0	0	0	0	-1	0	-2.0278	-17.891	16.968	0	0	0	1	0	0	17.47	2.0148	16.554	2
6525	65.25	0	0	0	0	0	0	0	0	0	0	0	0	0	0	0	0	0	0	0	0	0	0	0	0	10.989	-10.989	19.033	0	0	0	1	0	0	17.883	2.027	16.961	0	0	0	0	0	0	0	0	0	0	0	0	0	0	0	0	0	0	0	0	0	0	0	0	0	0	0	2
6526	65.26	0	0	0	0	0	0	0	0	0	0	0	0	0	0	0	0	0	0	0	0	0	1	0	0	17.755	2.1475	16.785	0	0	0	1	0	0	17.761	2.1499	16.789	0	0	0	0	0	0	0	0	0	0	0	0	1	-1	0	7.5503	-27.469	31.921	0	0	0	0	0	0	0	0	0	2
6527	65.27	0	0	0	0	0	0	10.917	-10.917	18.908	0	0	0	0	0	0	0	0	0	0	0	0	0	0	0	10.989	-10.989	19.033	0	0	0	1	0	0	17.883	2.027	16.961	0	0	0	0	0	0	0	0	0	0	0	0	1	-1	0	7.5503	-27.469	31.921	0	0	0	1	0	0	17.47	2.0148	16.554	2
6528	65.28	0	0	0	0	0	0	0	0	0	0	0	0	0	0	0	0	0	0	0	0	0	0	0	0	10.989	-10.989	19.033	0	0	0	1	0	0	17.883	2.027	16.961	0	0	0	0	0	0	0	0	0	0	0	0	0	0	0	0	0	0	0	0	0	0	0	0	0	0	0	2
6529	65.29	0	0	0	0	0	0	0	0	0	0	0	0	0	0	0	0	0	0	0	0	0	1	0	0	17.755	2.1475	16.785	0	0	0	1	0	0	17.761	2.1499	16.789	0	0	0	0	0	0	0	0	0	0	0	0	0	0	0	0	0	0	0	0	0	1	0	0	17.47	2.0148	16.554	2
6530	65.3	0	0	0	0	0	0	0	0	0	0	0	0	0	0	0	0	0	0	0	0	0	0	0	0	10.989	-10.989	19.033	0	0	0	1	0	0	17.761	2.1499	16.789	0	0	0	0	0	0	0	0	0	0	0	0	0	-1	0	-2.0278	-17.891	16.968	0	0	0	0	0	0	0	0	0	2
6531	65.31	0	0	0	0	0	0	10.917	-10.917	18.908	0	0	0	0	0	0	0	0	0	0	0	0	1	0	0	17.755	2.1475	16.785	0	0	0	1	0	0	17.883	2.027	16.961	0	0	0	1	0	0	17.883	2.027	16.961	0	0	0	0	0	0	0	0	0	0	0	0	0	0	0	0	0	0	2
6532	65.32	0	0	0	0	0	0	10.917	-10.917	18.908	0	0	0	0	0	0	0	0	0	0	0	0	1	0	0	17.755	2.1475	16.785	0	0	0	1	0	0	17.883	2.027	16.961	0	0	0	0	0	0	0	0	0	0	0	0	1	-1	0	7.5503	-27.469	31.921	0	0	0	1	0	0	17.47	2.0148	16.554	2
6533	65.33	0	0	0	0	0	0	0	0	0	0	0	0	0	0	0	0	0	0	0	0	0	0	0	0	10.989	-10.989	19.033	0	0	0	1	0	0	17.761	2.1499	16.789	0	0	0	0	0	0	0	0	0	0	0	0	0	0	0	0	0	0	0	0	0	0	0	0	0	0	0	2
6534	65.34	0	0	0	0	0	0	10.917	-10.917	18.908	0	0	0	0	0	0	0	0	0	0	0	0	1	0	0	17.755	2.1475	16.785	0	0	0	1	0	0	17.883	2.027	16.961	0	0	0	0	0	0	0	0	0	0	0	0	0	0	0	10.994	-10.994	19.042	0	0	0	1	0	0	17.47	2.0148	16.554	2
6535	65.35	0	0	0	0	0	0	0	0	0	0	0	0	0	0	0	0	0	0	0	0	0	0	0	0	10.989	-10.989	19.033	0	0	0	1	0	0	17.761	2.1499	16.789	0	0	0	0	0	0	0	0	0	0	0	0	0	0	0	10.994	-10.994	19.042	0	0	0	0	0	0	0	0	0	2
6536	65.36	0	0	0	0	0	0	0	0	0	0	0	0	0	0	0	0	0	0	0	0	0	1	0	0	17.755	2.1475	16.785	0	0	0	1	0	0	17.761	2.1499	16.789	0	0	0	0	0	0	0	0	0	0	0	0	0	0	0	0	0	0	0	0	0	1	0	0	17.47	2.0148	16.554	0
6537	65.37	0	0	0	0	0	0	10.917	-10.917	18.908	0	0	0	0	0	0	0	0	0	0	0	0	0	0	0	10.989	-10.989	19.033	0	0	0	1	0	0	17.761	2.1499	16.789	0	0	0	0	0	0	0	0	0	0	0	0	1	-1	0	7.5503	-27.469	31.921	0	0	0	0	0	0	0	0	0	2
6538	65.38	0	0	0	0	0	0	10.917	-10.917	18.908	0	0	0	0	0	0	0	0	0	0	0	0	0	0	0	10.989	-10.989	19.033	0	0	0	1	0	0	17.883	2.027	16.961	0	0	0	0	0	0	0	0	0	0	0	0	0	0	0	0	0	0	0	0	0	0	0	0	0	0	0	2
6539	65.39	0	0	0	0	0	0	0	0	0	0	0	0	0	0	0	0	0	0	0	0	0	1	0	0	17.755	2.1475	16.785	0	0	0	1	0	0	17.761	2.1499	16.789	0	0	0	0	0	0	0	0	0	0	0	0	0	-1	0	-2.0278	-17.891	16.968	0	0	0	0	0	0	0	0	0	2
6540	65.4	0	0	0	0	0	0	0	0	0	0	0	0	0	0	0	0	0	0	0	0	0	0	0	0	10.989	-10.989	19.033	0	0	0	1	0	0	17.883	2.027	16.961	0	0	0	0	0	0	0	0	0	0	0	0	0	0	0	0	0	0	0	0	0	0	0	0	0	0	0	2
6541	65.41	0	0	0	0	0	0	0	0	0	0	0	0	0	0	0	0	0	0	0	0	0	1	0	0	17.755	2.1475	16.785	0	0	0	1	0	0	17.761	2.1499	16.789	0	0	0	0	0	0	0	0	0	0	0	0	0	-1	0	-2.0278	-17.891	16.968	0	0	0	0	0	0	0	0	0	2
6542	65.42	0	0	0	0	0	0	0	0	0	0	0	0	0	0	0	0	0	0	0	0	0	0	0	0	10.989	-10.989	19.033	0	0	0	1	0	0	17.883	2.027	16.961	0	0	0	0	0	0	0	0	0	0	0	0	0	0	0	10.994	-10.994	19.042	0	0	0	1	0	0	17.47	2.0148	16.554	2
6543	65.43	0	0	0	0	0	0	0	0	0	0	0	0	0	0	0	0	0	0	0	0	0	0	0	0	10.989	-10.989	19.033	0	0	0	1	0	0	17.761	2.1499	16.789	0	0	0	0	0	0	0	0	0	0	0	0	0	0	0	0	0	0	0	0	0	0	0	0	0	0	0	2
6544	65.44	0	0	0	0	0	0	10.917	-10.917	18.908	0	0	0	0	0	0	0	0	0	0	0	0	0	0	0	10.989	-10.989	19.033	0	0	0	1	0	0	17.883	2.027	16.961	0	0	0	0	0	0	0	0	0	0	0	0	1	-1	0	7.5503	-27.469	31.921	0	0	0	1	0	0	17.47	2.0148	16.554	2
6545	65.45	0	0	0	0	0	0	0	0	0	0	0	0	0	0	0	0	0	0	0	0	0	0	0	0	10.989	-10.989	19.033	0	0	0	1	0	0	17.883	2.027	16.961	0	0	0	0	0	0	0	0	0	0	0	0	0	0	0	0	0	0	0	0	0	0	0	0	0	0	0	2
6546	65.46	0	0	0	0	0	0	10.917	-10.917	18.908	0	0	0	0	0	0	0	0	0	0	0	0	0	0	0	10.989	-10.989	19.033	0	0	0	1	0	0	17.761	2.1499	16.789	0	0	0	1	0	0	17.883	2.027	16.961	0	0	0	0	0	0	10.994	-10.994	19.042	0	0	0	0	0	0	0	0	0	2
6547	65.47	0	0	0	0	0	0	0	0	0	0	0	0	0	0	0	0	0	0	0	0	0	0	0	0	10.989	-10.989	19.033	0	0	0	1	0	0	17.761	2.1499	16.789	0	0	0	0	0	0	0	0	0	0	0	0	0	0	0	0	0	0	0	0	0	0	0	0	0	0	0	2
6548	65.48	0	0	0	0	0	0	0	0	0	0	0	0	0	0	0	0	0	0	0	0	0	0	0	0	10.989	-10.989	19.033	0	0	0	1	0	0	17.883	2.027	16.961	0	0	0	0	0	0	0	0	0	0	0	0	0	0	0	0	0	0	0	0	0	0	0	0	0	0	0	2
6549	65.49	0	0	0	0	0	0	10.917	-10.917	18.908	0	0	0	0	0	0	0	0	0	0	0	0	1	0	0	17.755	2.1475	16.785	0	0	0	1	0	0	17.883	2.027	16.961	0	0	0	0	0	0	0	0	0	0	0	0	0	0	0	0	0	0	0	0	0	1	0	0	17.47	2.0148	16.554	2
6550	65.5	0	0	0	0	0	0	10.917	-10.917	18.908	0	0	0	0	0	0	0	0	0	0	0	0	0	0	0	10.989	-10.989	19.033	0	0	0	1	0	0	17.883	2.027	16.961	0	0	0	0	0	0	0	0	0	0	0	0	0	0	0	10.994	-10.994	19.042	0	0	0	0	0	0	0	0	0	2
6551	65.51	0	0	0	0	0	0	0	0	0	0	0	0	0	0	0	0	0	0	0	0	0	1	0	0	17.755	2.1475	16.785	0	0	0	1	0	0	17.883	2.027	16.961	0	0	0	0	0	0	0	0	0	0	0	0	0	0	0	10.994	-10.994	19.042	0	0	0	1	0	0	17.47	2.0148	16.554	2
6552	65.52	0	0	0	0	0	0	0	0	0	0	0	0	0	0	0	0	0	0	0	0	0	0	0	0	10.989	-10.989	19.033	0	0	0	1	0	0	17.761	2.1499	16.789	0	0	0	0	0	0	0	0	0	0	0	0	0	0	0	0	0	0	0	0	0	0	0	0	0	0	0	2
6553	65.53	0	0	0	0	0	0	0	0	0	0	0	0	0	0	0	0	0	0	0	0	0	0	0	0	10.989	-10.989	19.033	0	0	0	1	0	0	17.883	2.027	16.961	0	0	0	0	0	0	0	0	0	0	0	0	1	-1	0	7.5503	-27.469	31.921	0	0	0	0	0	0	0	0	0	2
6554	65.54	0	0	0	0	0	0	10.917	-10.917	18.908	0	0	0	0	0	0	0	0	0	0	0	0	1	0	0	17.755	2.1475	16.785	0	0	0	1	0	0	17.761	2.1499	16.789	0	0	0	0	0	0	0	0	0	0	0	0	0	0	0	0	0	0	0	0	0	0	0	0	0	0	0	2
6555	65.55	0	0	0	0	0	0	0	0	0	0	0	0	0	0	0	0	0	0	0	0	0	0	0	0	10.989	-10.989	19.033	0	0	0	1	0	0	17.883	2.027	16.961	0	0	0	0	0	0	0	0	0	0	0	0	0	0	0	0	0	0	0	0	0	0	0	0	0	0	0	2
6556	65.56	0	0	0	0	0	0	0	0	0	0	0	0	0	0	0	0	0	0	0	0	0	1	0	0	17.755	2.1475	16.785	0	0	0	1	0	0	17.761	2.1499	16.789	0	0	0	0	0	0	0	0	0	0	0	0	1	-1	0	7.5503	-27.469	31.921	0	0	0	0	0	0	0	0	0	2
6557	65.57	0	0	0	0	0	0	10.917	-10.917	18.908	0	0	0	0	0	0	0	0	0	0	0	0	0	0	0	10.989	-10.989	19.033	0	0	0	1	0	0	17.883	2.027	16.961	0	0	0	0	0	0	0	0	0	0	0	0	0	0	0	0	0	0	0	0	0	0	0	0	0	0	0	2
6558	65.58	0	0	0	0	0	0	0	0	0	0	0	0	0	0	0	0	0	0	0	0	0	0	0	0	10.989	-10.989	19.033	0	0	0	1	0	0	17.883	2.027	16.961	0	0	0	0	0	0	0	0	0	0	0	0	0	-1	0	-2.0278	-17.891	16.968	0	0	0	0	0	0	0	0	0	2
6559	65.59	0	0	0	0	0	0	0	0	0	0	0	0	0	0	0	0	0	0	0	0	0	1	0	0	17.755	2.1475	16.785	0	0	0	1	0	0	17.883	2.027	16.961	0	0	0	0	0	0	0	0	0	0	0	0	0	0	0	0	0	0	0	0	0	0	0	0	0	0	0	2
6560	65.6	0	0	0	0	0	0	0	0	0	0	0	0	0	0	0	0	0	0	0	0	0	0	0	0	10.989	-10.989	19.033	0	0	0	1	0	0	17.761	2.1499	16.789	0	0	0	0	0	0	0	0	0	0	0	0	0	0	0	0	0	0	0	0	0	0	0	0	0	0	0	2
6561	65.61	0	0	0	0	0	0	0	0	0	0	0	0	0	0	0	0	0	0	0	0	0	0	0	0	10.989	-10.989	19.033	0	0	0	1	0	0	17.883	2.027	16.961	0	0	0	0	0	0	0	0	0	0	0	0	0	0	0	10.994	-10.994	19.042	0	0	0	1	0	0	17.47	2.0148	16.554	0
6562	65.62	0	0	0	0	0	0	10.917	-10.917	18.908	0	0	0	0	0	0	0	0	0	0	0	0	0	0	0	10.989	-10.989	19.033	0	0	0	1	0	0	17.761	2.1499	16.789	0	0	0	0	0	0	0	0	0	0	0	0	0	0	0	0	0	0	0	0	0	0	0	0	0	0	0	2
6563	65.63	0	0	0	0	0	0	0	0	0	0	0	0	0	0	0	0	0	0	0	0	0	0	0	0	10.989	-10.989	19.033	0	0	0	1	0	0	17.883	2.027	16.961	0	0	0	0	0	0	0	0	0	0	0	0	0	0	0	0	0	0	0	0	0	0	0	0	0	0	0	2
6564	65.64	0	0	0	0	0	0	10.917	-10.917	18.908	0	0	0	0	0	0	0	0	0	0	0	0	1	0	0	17.755	2.1475	16.785	0	0	0	1	0	0	17.761	2.1499	16.789	0	0	0	0	0	0	0	0	0	0	0	0	0	-1	0	-2.0278	-17.891	16.968	0	0	0	0	0	0	0	0	0	2
6565	65.65	0	0	0	0	0	0	0	0	0	0	0	0	0	-1	0	-2.0366	-17.816	16.89	0	0	0	0	0	0	10.989	-10.989	19.033	0	0	0	1	0	0	17.883	2.027	16.961	0	0	0	0	0	0	0	0	0	0	0	0	0	0	0	0	0	0	0	0	0	1	0	0	17.47	2.0148	16.554	2
6566	65.66	0	0	0	0	0	0	0	0	0	0	0	0	0	0	0	0	0	0	0	0	0	0	0	0	10.989	-10.989	19.033	0	0	0	1	0	0	17.883	2.027	16.961	0	0	0	0	0	0	0	0	0	0	0	0	0	0	0	0	0	0	0	0	0	1	0	0	17.47	2.0148	16.554	2
6567	65.67	0	0	0	0	0	0	0	0	0	0	0	0	0	0	0	0	0	0	0	0	0	0	0	0	10.989	-10.989	19.033	0	0	0	1	0	0	17.761	2.1499	16.789	0	0	0	0	0	0	0	0	0	0	0	0	0	-1	0	-2.0278	-17.891	16.968	0	0	0	1	0	0	17.47	2.0148	16.554	2
6568	65.68	0	0	0	0	0	0	0	0	0	0	0	0	0	0	0	0	0	0	0	0	0	0	0	0	10.989	-10.989	19.033	0	0	0	1	0	0	17.883	2.027	16.961	0	0	0	0	0	0	0	0	0	0	0	0	1	-1	0	7.5503	-27.469	31.921	0	0	0	0	0	0	0	0	0	2
6569	65.69	0	0	0	0	0	0	10.917	-10.917	18.908	0	0	0	0	0	0	0	0	0	0	0	0	1	0	0	17.755	2.1475	16.785	0	0	0	1	0	0	17.883	2.027	16.961	0	0	0	0	0	0	0	0	0	0	0	0	0	0	0	0	0	0	0	0	0	0	0	0	0	0	0	2
6570	65.7	0	0	0	0	0	0	0	0	0	0	0	0	0	0	0	0	0	0	0	0	0	0	0	0	10.989	-10.989	19.033	0	0	0	1	0	0	17.883	2.027	16.961	0	0	0	0	0	0	0	0	0	0	0	0	1	-1	0	7.5503	-27.469	31.921	0	0	0	0	0	0	0	0	0	2
6571	65.71	0	0	0	0	0	0	0	0	0	0	0	0	0	0	0	0	0	0	0	0	0	1	0	0	17.755	2.1475	16.785	0	0	0	1	0	0	17.883	2.027	16.961	0	0	0	0	0	0	0	0	0	0	0	0	0	0	0	0	0	0	0	0	0	1	0	0	17.47	2.0148	16.554	2
6572	65.72	0	0	0	1	-1	0	7.4664	-27.317	31.716	0	0	0	0	0	0	0	0	0	0	0	0	1	0	0	17.755	2.1475	16.785	0	0	0	1	0	0	17.761	2.1499	16.789	0	0	0	0	0	0	0	0	0	0	0	0	0	0	0	0	0	0	0	0	0	0	0	0	0	0	0	2
6573	65.73	0	0	0	0	0	0	0	0	0	0	0	0	0	0	0	0	0	0	0	0	0	0	0	0	10.989	-10.989	19.033	0	0	0	1	0	0	17.883	2.027	16.961	0	0	0	0	0	0	0	0	0	0	0	0	1	-1	0	7.5503	-27.469	31.921	0	0	0	0	0	0	0	0	0	2
6574	65.74	0	0	0	0	0	0	10.917	-10.917	18.908	0	0	0	0	0	0	0	0	0	0	0	0	0	0	0	10.989	-10.989	19.033	0	0	0	1	0	0	17.883	2.027	16.961	0	0	0	0	0	0	0	0	0	0	0	0	0	0	0	0	0	0	0	0	0	0	0	0	0	0	0	2
6575	65.75	0	0	0	0	0	0	10.917	-10.917	18.908	0	0	0	0	0	0	0	0	0	0	0	0	0	0	0	10.989	-10.989	19.033	0	0	0	1	0	0	17.883	2.027	16.961	0	0	0	0	0	0	0	0	0	0	0	0	0	0	0	0	0	0	0	0	0	0	0	0	0	0	0	2
6576	65.76	0	0	0	0	0	0	0	0	0	0	0	0	0	0	0	0	0	0	0	0	0	0	0	0	10.989	-10.989	19.033	0	0	0	1	0	0	17.883	2.027	16.961	0	0	0	0	0	0	0	0	0	0	0	0	0	-1	0	-2.0278	-17.891	16.968	0	0	0	0	0	0	0	0	0	0
6577	65.77	0	0	0	0	0	0	10.917	-10.917	18.908	0	0	0	0	0	0	0	0	0	0	0	0	1	0	0	17.755	2.1475	16.785	0	0	0	1	0	0	17.883	2.027	16.961	0	0	0	0	0	0	0	0	0	0	0	0	0	0	0	0	0	0	0	0	0	0	0	0	0	0	0	2
6578	65.78	0	0	0	0	0	0	0	0	0	0	0	0	0	0	0	0	0	0	0	0	0	0	0	0	10.989	-10.989	19.033	0	0	0	1	0	0	17.883	2.027	16.961	0	0	0	0	0	0	0	0	0	0	0	0	0	0	0	0	0	0	0	0	0	1	0	0	17.47	2.0148	16.554	2
6579	65.79	0	0	0	0	0	0	10.917	-10.917	18.908	0	0	0	0	0	0	0	0	0	0	0	0	0	0	0	10.989	-10.989	19.033	0	0	0	1	0	0	17.883	2.027	16.961	0	0	0	0	0	0	0	0	0	0	0	0	0	0	0	10.994	-10.994	19.042	0	0	0	1	0	0	17.47	2.0148	16.554	2
6580	65.8	0	0	0	0	0	0	0	0	0	0	0	0	0	0	0	0	0	0	0	0	0	0	0	0	10.989	-10.989	19.033	0	0	0	1	0	0	17.883	2.027	16.961	0	0	0	0	0	0	0	0	0	0	0	0	0	0	0	0	0	0	0	0	0	0	0	0	0	0	0	2
6581	65.81	0	0	0	0	0	0	0	0	0	0	0	0	0	0	0	0	0	0	0	0	0	0	0	0	10.989	-10.989	19.033	0	0	0	1	0	0	17.761	2.1499	16.789	0	0	0	1	0	0	17.883	2.027	16.961	0	0	0	0	0	0	10.994	-10.994	19.042	0	0	0	0	0	0	0	0	0	2
6582	65.82	0	0	0	0	0	0	0	0	0	0	0	0	0	0	0	0	0	0	0	0	0	0	0	0	10.989	-10.989	19.033	0	0	0	1	0	0	17.761	2.1499	16.789	0	0	0	1	0	0	17.883	2.027	16.961	0	0	0	0	-1	0	-2.0278	-17.891	16.968	0	0	0	0	0	0	0	0	0	2
6583	65.83	0	0	0	0	0	0	10.917	-10.917	18.908	0	0	0	0	0	0	0	0	0	0	0	0	0	0	0	10.989	-10.989	19.033	0	0	0	1	0	0	17.883	2.027	16.961	0	0	0	0	0	0	0	0	0	0	0	0	0	0	0	0	0	0	0	0	0	0	0	0	0	0	0	2
6584	65.84	0	0	0	0	0	0	10.917	-10.917	18.908	0	0	0	0	0	0	0	0	0	0	0	0	0	0	0	10.989	-10.989	19.033	0	0	0	1	0	0	17.761	2.1499	16.789	0	0	0	1	0	0	17.883	2.027	16.961	0	0	0	0	0	0	0	0	0	0	0	0	0	0	0	0	0	0	2
6585	65.85	0	0	0	0	0	0	0	0	0	0	0	0	0	0	0	0	0	0	0	0	0	0	0	0	10.989	-10.989	19.033	0	0	0	1	0	0	17.883	2.027	16.961	0	0	0	0	0	0	0	0	0	0	0	0	0	0	0	0	0	0	0	0	0	0	0	0	0	0	0	2
6586	65.86	0	0	0	0	0	0	0	0	0	0	0	0	0	0	0	0	0	0	0	0	0	0	0	0	10.989	-10.989	19.033	0	0	0	1	0	0	17.761	2.1499	16.789	0	0	0	0	0	0	0	0	0	0	0	0	0	0	0	0	0	0	0	0	0	1	0	0	17.47	2.0148	16.554	0
6587	65.87	0	0	0	0	0	0	10.917	-10.917	18.908	0	0	0	0	0	0	0	0	0	0	0	0	0	0	0	10.989	-10.989	19.033	0	0	0	1	0	0	17.761	2.1499	16.789	0	0	0	0	0	0	0	0	0	0	0	0	0	0	0	0	0	0	0	0	0	0	0	0	0	0	0	2
6588	65.88	0	0	0	0	0	0	0	0	0	0	0	0	0	0	0	0	0	0	0	0	0	0	0	0	10.989	-10.989	19.033	0	0	0	1	0	0	17.883	2.027	16.961	0	0	0	0	0	0	0	0	0	0	0	0	0	0	0	0	0	0	0	0	0	0	0	0	0	0	0	0
6589	65.89	0	0	0	0	0	0	0	0	0	0	0	0	0	0	0	0	0	0	0	0	0	1	0	0	17.755	2.1475	16.785	0	0	0	1	0	0	17.883	2.027	16.961	0	0	0	0	0	0	0	0	0	0	0	0	0	0	0	0	0	0	0	0	0	1	0	0	17.47	2.0148	16.554	2
6590	65.9	0	0	0	0	0	0	0	0	0	0	0	0	0	0	0	0	0	0	0	0	0	0	0	0	10.989	-10.989	19.033	0	0	0	1	0	0	17.883	2.027	16.961	0	0	0	0	0	0	10.996	-10.996	19.046	0	0	0	0	0	0	0	0	0	0	0	0	0	0	0	0	0	0	2
6591	65.91	0	0	0	0	0	0	0	0	0	0	0	0	0	0	0	0	0	0	0	0	0	0	0	0	10.989	-10.989	19.033	0	0	0	1	0	0	17.761	2.1499	16.789	0	0	0	0	0	0	0	0	0	0	0	0	0	0	0	10.994	-10.994	19.042	0	0	0	1	0	0	17.47	2.0148	16.554	2
6592	65.92	0	0	0	0	0	0	0	0	0	0	0	0	0	0	0	0	0	0	0	0	0	0	0	0	10.989	-10.989	19.033	0	0	0	1	0	0	17.883	2.027	16.961	0	0	0	0	0	0	0	0	0	0	0	0	0	0	0	0	0	0	0	0	0	1	0	0	17.47	2.0148	16.554	2
6593	65.93	0	0	0	0	0	0	10.917	-10.917	18.908	0	0	0	0	0	0	0	0	0	0	0	0	0	0	0	10.989	-10.989	19.033	0	0	0	1	0	0	17.761	2.1499	16.789	0	0	0	0	0	0	0	0	0	0	0	0	0	0	0	0	0	0	0	0	0	1	0	0	17.47	2.0148	16.554	2
6594	65.94	0	0	0	0	0	0	0	0	0	0	0	0	0	0	0	0	0	0	0	0	0	0	0	0	10.989	-10.989	19.033	0	0	0	1	0	0	17.883	2.027	16.961	0	0	0	0	0	0	0	0	0	0	0	0	0	0	0	10.994	-10.994	19.042	0	0	0	0	0	0	0	0	0	0
6595	65.95	0	0	0	0	0	0	10.917	-10.917	18.908	0	0	0	0	0	0	0	0	0	0	0	0	0	0	0	10.989	-10.989	19.033	0	0	0	1	0	0	17.883	2.027	16.961	0	0	0	0	0	0	0	0	0	0	0	0	0	-1	0	-2.0278	-17.891	16.968	0	0	0	0	0	0	0	0	0	2
6596	65.96	0	0	0	0	0	0	10.917	-10.917	18.908	0	0	0	0	0	0	0	0	0	0	0	0	1	0	0	17.755	2.1475	16.785	0	0	0	1	0	0	17.883	2.027	16.961	0	0	0	0	0	0	0	0	0	0	0	0	0	0	0	0	0	0	0	0	0	0	0	0	0	0	0	0
6597	65.97	0	0	0	0	0	0	10.917	-10.917	18.908	0	0	0	0	0	0	0	0	0	0	0	0	0	0	0	10.989	-10.989	19.033	0	0	0	0	0	0	10.991	-10.991	19.037	0	0	0	0	0	0	0	0	0	0	0	0	0	0	0	0	0	0	0	0	0	1	0	0	17.47	2.0148	16.554	2
6598	65.98	0	0	0	0	0	0	0	0	0	0	0	0	0	0	0	0	0	0	0	0	0	0	0	0	10.989	-10.989	19.033	0	0	0	1	0	0	17.883	2.027	16.961	0	0	0	0	0	0	0	0	0	0	0	0	0	0	0	0	0	0	0	0	0	0	0	0	0	0	0	2
6599	65.99	0	0	0	0	0	0	0	0	0	0	0	0	0	0	0	0	0	0	0	0	0	0	0	0	10.989	-10.989	19.033	0	0	0	1	0	0	17.761	2.1499	16.789	0	0	0	0	0	0	0	0	0	0	0	0	0	0	0	10.994	-10.994	19.042	0	0	0	0	0	0	0	0	0	2
6600	66	0	0	0	0	0	0	0	0	0	0	0	0	0	0	0	0	0	0	0	0	0	0	0	0	10.989	-10.989	19.033	0	0	0	1	0	0	17.883	2.027	16.961	0	0	0	0	0	0	0	0	0	0	0	0	0	0	0	0	0	0	0	0	0	0	0	0	0	0	0	2
6601	66.01	0	0	0	0	0	0	0	0	0	0	0	0	0	0	0	0	0	0	0	0	0	0	0	0	10.989	-10.989	19.033	0	0	0	1	0	0	17.883	2.027	16.961	0	0	0	0	0	0	0	0	0	0	0	0	0	-1	0	-2.0278	-17.891	16.968	0	0	0	0	0	0	0	0	0	2
6602	66.02	0	0	0	1	-1	0	7.4664	-27.317	31.716	0	0	0	0	0	0	0	0	0	0	0	0	0	0	0	10.989	-10.989	19.033	0	0	0	1	0	0	17.883	2.027	16.961	0	0	0	1	0	0	17.883	2.027	16.961	0	0	0	0	0	0	10.994	-10.994	19.042	0	0	0	1	0	0	17.47	2.0148	16.554	2
6603	66.03	0	0	0	0	0	0	10.917	-10.917	18.908	0	0	0	0	0	0	0	0	0	0	0	0	0	0	0	10.989	-10.989	19.033	0	0	0	1	0	0	17.883	2.027	16.961	0	0	0	1	0	0	17.883	2.027	16.961	0	0	0	0	-1	0	-2.0278	-17.891	16.968	0	0	0	1	0	0	17.47	2.0148	16.554	2
6604	66.04	0	0	0	0	0	0	10.917	-10.917	18.908	0	0	0	0	0	0	0	0	0	0	0	0	0	0	0	10.989	-10.989	19.033	0	0	0	1	0	0	17.761	2.1499	16.789	0	0	0	0	0	0	0	0	0	0	0	0	0	0	0	0	0	0	0	0	0	1	0	0	17.47	2.0148	16.554	2
6605	66.05	0	0	0	0	0	0	0	0	0	0	0	0	0	0	0	0	0	0	0	0	0	0	0	0	10.989	-10.989	19.033	0	0	0	1	0	0	17.883	2.027	16.961	0	0	0	0	0	0	0	0	0	0	0	0	0	0	0	0	0	0	0	0	0	0	0	0	0	0	0	2
6606	66.06	0	0	0	0	0	0	10.917	-10.917	18.908	0	0	0	0	0	0	0	0	0	0	0	0	0	0	0	10.989	-10.989	19.033	0	0	0	1	0	0	17.883	2.027	16.961	0	0	0	0	0	0	0	0	0	0	0	0	0	0	0	0	0	0	0	0	0	0	0	0	0	0	0	2
6607	66.07	0	0	0	0	0	0	10.917	-10.917	18.908	0	0	0	0	0	0	0	0	0	0	0	0	0	0	0	10.989	-10.989	19.033	0	0	0	1	0	0	17.883	2.027	16.961	0	0	0	0	0	0	0	0	0	0	0	0	0	0	0	0	0	0	0	0	0	0	0	0	0	0	0	2
6608	66.08	0	0	0	0	0	0	10.917	-10.917	18.908	0	0	0	0	0	0	0	0	0	0	0	0	0	0	0	10.989	-10.989	19.033	0	0	0	1	0	0	17.883	2.027	16.961	0	0	0	0	0	0	0	0	0	0	0	0	0	0	0	0	0	0	0	0	0	0	0	0	0	0	0	2
6609	66.09	0	0	0	0	0	0	10.917	-10.917	18.908	0	0	0	0	0	0	0	0	0	0	0	0	1	0	0	17.755	2.1475	16.785	0	0	0	1	0	0	17.883	2.027	16.961	0	0	0	0	0	0	0	0	0	0	0	0	0	0	0	0	0	0	0	0	0	0	0	0	0	0	0	2
6610	66.1	0	0	0	0	0	0	10.917	-10.917	18.908	0	0	0	0	0	0	0	0	0	0	0	0	0	0	0	10.989	-10.989	19.033	0	0	0	1	0	0	17.883	2.027	16.961	0	0	0	0	0	0	0	0	0	0	0	0	0	0	0	0	0	0	0	0	0	0	0	0	0	0	0	2
6611	66.11	0	0	0	0	0	0	0	0	0	0	0	0	0	0	0	0	0	0	0	0	0	0	0	0	10.989	-10.989	19.033	0	0	0	1	0	0	17.883	2.027	16.961	0	0	0	0	0	0	0	0	0	0	0	0	0	0	0	0	0	0	0	0	0	1	0	0	17.47	2.0148	16.554	2
6612	66.12	0	0	0	0	0	0	0	0	0	0	0	0	0	0	0	0	0	0	0	0	0	1	0	0	17.755	2.1475	16.785	0	0	0	1	0	0	17.883	2.027	16.961	0	0	0	0	0	0	0	0	0	0	0	0	0	0	0	0	0	0	0	0	0	1	0	0	17.47	2.0148	16.554	2
6613	66.13	0	0	0	0	0	0	10.917	-10.917	18.908	0	0	0	0	0	0	0	0	0	0	0	0	0	0	0	10.989	-10.989	19.033	0	0	0	1	0	0	17.883	2.027	16.961	0	0	0	0	0	0	0	0	0	0	0	0	0	0	0	10.994	-10.994	19.042	0	0	0	1	0	0	17.47	2.0148	16.554	2
6614	66.14	0	0	0	0	0	0	10.917	-10.917	18.908	0	0	0	0	0	0	0	0	0	0	0	0	1	0	0	17.755	2.1475	16.785	0	0	0	1	0	0	17.883	2.027	16.961	0	0	0	1	0	0	17.883	2.027	16.961	0	0	0	0	0	0	0	0	0	0	0	0	1	0	0	17.47	2.0148	16.554	2
6615	66.15	0	0	0	0	0	0	10.917	-10.917	18.908	0	0	0	0	0	0	0	0	0	0	0	0	0	0	0	10.989	-10.989	19.033	0	0	0	1	0	0	17.883	2.027	16.961	0	0	0	0	0	0	0	0	0	0	0	0	0	0	0	0	0	0	0	0	0	0	0	0	0	0	0	2
6616	66.16	0	0	0	0	0	0	0	0	0	0	0	0	0	0	0	0	0	0	0	0	0	1	0	0	17.755	2.1475	16.785	0	0	0	1	0	0	17.883	2.027	16.961	0	0	0	0	0	0	0	0	0	0	0	0	0	0	0	0	0	0	0	0	0	1	0	0	17.47	2.0148	16.554	2
6617	66.17	0	0	0	0	0	0	0	0	0	0	0	0	0	0	0	0	0	0	0	0	0	0	0	0	10.989	-10.989	19.033	0	0	0	1	0	0	17.883	2.027	16.961	0	0	0	0	0	0	0	0	0	0	0	0	0	-1	0	-2.0278	-17.891	16.968	0	0	0	1	0	0	17.47	2.0148	16.554	2
6618	66.18	0	0	0	0	0	0	10.917	-10.917	18.908	0	0	0	0	0	0	0	0	0	0	0	0	0	0	0	10.989	-10.989	19.033	0	0	0	1	0	0	17.883	2.027	16.961	0	0	0	0	0	0	0	0	0	0	0	0	0	0	0	0	0	0	0	0	0	0	0	0	0	0	0	2
6619	66.19	0	0	0	0	0	0	10.917	-10.917	18.908	0	0	0	0	0	0	0	0	0	0	0	0	0	0	0	10.989	-10.989	19.033	0	0	0	1	0	0	17.883	2.027	16.961	0	0	0	0	0	0	0	0	0	0	0	0	0	0	0	10.994	-10.994	19.042	0	0	0	1	0	0	17.47	2.0148	16.554	2
6620	66.2	0	0	0	0	0	0	10.917	-10.917	18.908	0	0	0	0	0	0	0	0	0	0	0	0	0	0	0	10.989	-10.989	19.033	0	0	0	1	0	0	17.761	2.1499	16.789	0	0	0	0	0	0	0	0	0	0	0	0	0	-1	0	-2.0278	-17.891	16.968	0	0	0	0	0	0	0	0	0	0
6621	66.21	0	0	0	0	0	0	0	0	0	0	0	0	0	0	0	0	0	0	0	0	0	1	0	0	17.755	2.1475	16.785	0	0	0	1	0	0	17.883	2.027	16.961	0	0	0	0	0	0	0	0	0	0	0	0	0	0	0	10.994	-10.994	19.042	0	0	0	0	0	0	0	0	0	2
6622	66.22	0	0	0	0	0	0	0	0	0	0	0	0	0	0	0	0	0	0	0	0	0	0	0	0	10.989	-10.989	19.033	0	0	0	1	0	0	17.761	2.1499	16.789	0	0	0	0	0	0	0	0	0	0	0	0	0	0	0	0	0	0	0	0	0	1	0	0	17.47	2.0148	16.554	2
6623	66.23	0	0	0	0	0	0	0	0	0	0	0	0	0	0	0	0	0	0	0	0	0	0	0	0	10.989	-10.989	19.033	0	0	0	1	0	0	17.883	2.027	16.961	0	0	0	0	0	0	0	0	0	0	0	0	0	-1	0	-2.0278	-17.891	16.968	0	0	0	0	0	0	0	0	0	2
6624	66.24	0	0	0	0	0	0	0	0	0	0	0	0	0	0	0	0	0	0	0	0	0	1	0	0	17.755	2.1475	16.785	0	0	0	1	0	0	17.883	2.027	16.961	0	0	0	0	0	0	0	0	0	0	0	0	1	-1	0	7.5503	-27.469	31.921	0	0	0	0	0	0	0	0	0	2
6625	66.25	0	0	0	0	0	0	10.917	-10.917	18.908	0	0	0	0	0	0	0	0	0	0	0	0	0	0	0	10.989	-10.989	19.033	0	0	0	1	0	0	17.883	2.027	16.961	0	0	0	0	0	0	0	0	0	0	0	0	0	0	0	0	0	0	0	0	0	0	0	0	0	0	0	0
6626	66.26	0	0	0	0	0	0	0	0	0	0	0	0	0	0	0	0	0	0	0	0	0	0	0	0	10.989	-10.989	19.033	0	0	0	1	0	0	17.883	2.027	16.961	0	0	0	0	0	0	0	0	0	0	0	0	0	-1	0	-2.0278	-17.891	16.968	0	0	0	0	0	0	0	0	0	2
6627	66.27	0	0	0	0	0	0	10.917	-10.917	18.908	0	0	0	0	0	0	0	0	0	0	0	0	0	0	0	10.989	-10.989	19.033	0	0	0	1	0	0	17.883	2.027	16.961	0	0	0	0	0	0	0	0	0	0	0	0	0	0	0	10.994	-10.994	19.042	0	0	0	0	0	0	0	0	0	2
6628	66.28	0	0	0	0	0	0	10.917	-10.917	18.908	0	0	0	0	0	0	0	0	0	0	0	0	0	0	0	10.989	-10.989	19.033	0	0	0	1	0	0	17.883	2.027	16.961	0	0	0	0	0	0	0	0	0	0	0	0	0	-1	0	-2.0278	-17.891	16.968	0	0	0	0	0	0	0	0	0	2
6629	66.29	0	0	0	0	-1	0	-2.0364	-17.814	16.888	0	0	0	0	0	0	0	0	0	0	0	0	1	0	0	17.755	2.1475	16.785	0	0	0	1	0	0	17.883	2.027	16.961	0	0	0	0	0	0	0	0	0	0	0	0	1	-1	0	7.5503	-27.469	31.921	0	0	0	1	0	0	17.47	2.0148	16.554	2
6630	66.3	0	0	0	0	0	0	10.917	-10.917	18.908	0	0	0	0	0	0	0	0	0	0	0	0	0	0	0	10.989	-10.989	19.033	0	0	0	1	0	0	17.883	2.027	16.961	0	0	0	0	0	0	0	0	0	0	0	0	0	0	0	0	0	0	0	0	0	0	0	0	0	0	0	2
6631	66.31	0	0	0	0	0	0	10.917	-10.917	18.908	0	0	0	0	0	0	0	0	0	0	0	0	1	0	0	17.755	2.1475	16.785	0	0	0	1	0	0	17.883	2.027	16.961	0	0	0	0	0	0	0	0	0	0	0	0	0	-1	0	-2.0278	-17.891	16.968	0	0	0	0	0	0	0	0	0	2
6632	66.32	0	0	0	0	0	0	10.917	-10.917	18.908	0	0	0	0	0	0	0	0	0	0	0	0	0	0	0	10.989	-10.989	19.033	0	0	0	1	0	0	17.883	2.027	16.961	0	0	0	0	0	0	0	0	0	0	0	0	0	0	0	10.994	-10.994	19.042	0	0	0	0	0	0	0	0	0	2
6633	66.33	0	0	0	0	0	0	10.917	-10.917	18.908	0	0	0	0	0	0	0	0	0	0	0	0	0	0	0	10.989	-10.989	19.033	0	0	0	1	0	0	17.883	2.027	16.961	0	0	0	0	0	0	0	0	0	0	0	0	0	0	0	10.994	-10.994	19.042	0	0	0	0	0	0	0	0	0	2
6634	66.34	0	0	0	0	0	0	0	0	0	0	0	0	0	0	0	0	0	0	0	0	0	1	0	0	17.755	2.1475	16.785	0	0	0	1	0	0	17.761	2.1499	16.789	0	0	0	0	0	0	0	0	0	0	0	0	0	0	0	0	0	0	0	0	0	1	0	0	17.47	2.0148	16.554	2
6635	66.35	0	0	0	0	0	0	10.917	-10.917	18.908	0	0	0	0	0	0	0	0	0	0	0	0	0	0	0	10.989	-10.989	19.033	0	0	0	1	0	0	17.883	2.027	16.961	0	0	0	0	0	0	0	0	0	0	0	0	0	0	0	10.994	-10.994	19.042	0	0	0	0	0	0	0	0	0	2
6636	66.36	0	0	0	0	0	0	10.917	-10.917	18.908	0	0	0	0	0	0	0	0	0	0	0	0	0	0	0	10.989	-10.989	19.033	0	0	0	1	0	0	17.883	2.027	16.961	0	0	0	0	0	0	0	0	0	0	0	0	0	0	0	10.994	-10.994	19.042	0	0	0	0	0	0	0	0	0	2
6637	66.37	0	0	0	0	0	0	0	0	0	0	0	0	0	0	0	0	0	0	0	0	0	0	0	0	10.989	-10.989	19.033	0	0	0	1	0	0	17.883	2.027	16.961	0	0	0	0	0	0	0	0	0	0	0	0	0	0	0	10.994	-10.994	19.042	0	0	0	0	0	0	0	0	0	2
6638	66.38	0	0	0	0	0	0	0	0	0	0	0	0	0	0	0	0	0	0	0	0	0	0	0	0	10.989	-10.989	19.033	0	0	0	1	0	0	17.883	2.027	16.961	0	0	0	0	0	0	0	0	0	0	0	0	0	0	0	0	0	0	0	0	0	0	0	0	0	0	0	2
6639	66.39	0	0	0	0	0	0	10.917	-10.917	18.908	0	0	0	0	0	0	0	0	0	0	0	0	0	0	0	10.989	-10.989	19.033	0	0	0	1	0	0	17.883	2.027	16.961	0	0	0	0	0	0	0	0	0	0	0	0	0	0	0	10.994	-10.994	19.042	0	0	0	1	0	0	17.47	2.0148	16.554	2
6640	66.4	0	0	0	0	0	0	0	0	0	0	0	0	0	0	0	0	0	0	0	0	0	0	0	0	10.989	-10.989	19.033	0	0	0	1	0	0	17.883	2.027	16.961	0	0	0	0	0	0	0	0	0	0	0	0	0	0	0	0	0	0	0	0	0	0	0	0	0	0	0	2
6641	66.41	0	0	0	0	0	0	0	0	0	0	0	0	0	0	0	0	0	0	0	0	0	0	0	0	10.989	-10.989	19.033	0	0	0	1	0	0	17.883	2.027	16.961	0	0	0	1	0	0	17.883	2.027	16.961	0	0	0	0	0	0	10.994	-10.994	19.042	0	0	0	0	0	0	0	0	0	0
6642	66.42	0	0	0	0	0	0	0	0	0	0	0	0	0	0	0	0	0	0	0	0	0	0	0	0	10.989	-10.989	19.033	0	0	0	1	0	0	17.883	2.027	16.961	0	0	0	0	0	0	0	0	0	0	0	0	0	-1	0	-2.0278	-17.891	16.968	0	0	0	0	0	0	0	0	0	2
6643	66.43	0	0	0	0	0	0	10.917	-10.917	18.908	0	0	0	0	0	0	0	0	0	0	0	0	0	0	0	10.989	-10.989	19.033	0	0	0	1	0	0	17.883	2.027	16.961	0	0	0	0	0	0	0	0	0	0	0	0	0	0	0	10.994	-10.994	19.042	0	0	0	0	0	0	0	0	0	2
6644	66.44	0	0	0	0	0	0	10.917	-10.917	18.908	0	0	0	0	0	0	0	0	0	0	0	0	1	0	0	17.755	2.1475	16.785	0	0	0	1	0	0	17.761	2.1499	16.789	0	0	0	0	0	0	0	0	0	0	0	0	1	-1	0	7.5503	-27.469	31.921	0	0	0	1	0	0	17.47	2.0148	16.554	2
6645	66.45	0	0	0	0	0	0	0	0	0	0	0	0	0	0	0	0	0	0	0	0	0	0	0	0	10.989	-10.989	19.033	0	0	0	1	0	0	17.883	2.027	16.961	0	0	0	0	0	0	0	0	0	0	0	0	0	-1	0	-2.0278	-17.891	16.968	0	0	0	0	0	0	0	0	0	2
6646	66.46	0	0	0	0	0	0	10.917	-10.917	18.908	0	0	0	0	0	0	0	0	0	0	0	0	0	0	0	10.989	-10.989	19.033	0	0	0	1	0	0	17.761	2.1499	16.789	0	0	0	1	0	0	17.883	2.027	16.961	0	0	0	1	-1	0	7.5503	-27.469	31.921	0	0	0	0	0	0	0	0	0	2
6647	66.47	0	0	0	0	0	0	0	0	0	0	0	0	0	0	0	0	0	0	0	0	0	0	0	0	10.989	-10.989	19.033	0	0	0	1	0	0	17.883	2.027	16.961	0	0	0	0	0	0	0	0	0	0	0	0	0	-1	0	-2.0278	-17.891	16.968	0	0	0	1	0	0	17.47	2.0148	16.554	2
6648	66.48	0	0	0	0	0	0	10.917	-10.917	18.908	0	0	0	0	0	0	0	0	0	0	0	0	0	0	0	10.989	-10.989	19.033	0	0	0	1	0	0	17.883	2.027	16.961	0	0	0	0	0	0	0	0	0	0	0	0	0	0	0	0	0	0	0	0	0	0	0	0	0	0	0	2
6649	66.49	0	0	0	0	0	0	0	0	0	0	0	0	0	0	0	0	0	0	0	0	0	1	0	0	17.755	2.1475	16.785	0	0	0	1	0	0	17.883	2.027	16.961	0	0	0	0	0	0	0	0	0	0	0	0	0	0	0	10.994	-10.994	19.042	0	0	0	0	0	0	0	0	0	2
6650	66.5	0	0	0	0	0	0	0	0	0	0	0	0	0	0	0	0	0	0	0	0	0	0	0	0	10.989	-10.989	19.033	0	0	0	1	0	0	17.761	2.1499	16.789	0	0	0	0	0	0	0	0	0	0	0	0	0	-1	0	-2.0278	-17.891	16.968	0	0	0	0	0	0	0	0	0	2
6651	66.51	0	0	0	0	0	0	0	0	0	0	0	0	0	0	0	0	0	0	0	0	0	0	0	0	10.989	-10.989	19.033	0	0	0	1	0	0	17.761	2.1499	16.789	0	0	0	0	0	0	0	0	0	0	0	0	0	0	0	0	0	0	0	0	0	0	0	0	0	0	0	2
6652	66.52	0	0	0	0	0	0	0	0	0	0	0	0	0	0	0	0	0	0	0	0	0	1	0	0	17.755	2.1475	16.785	0	0	0	1	0	0	17.883	2.027	16.961	0	0	0	0	0	0	0	0	0	0	0	0	0	0	0	0	0	0	0	0	0	0	0	0	0	0	0	2
6653	66.53	0	0	0	0	0	0	0	0	0	0	0	0	0	0	0	0	0	0	0	0	0	0	0	0	10.989	-10.989	19.033	0	0	0	1	0	0	17.883	2.027	16.961	0	0	0	0	0	0	0	0	0	0	0	0	0	-1	0	-2.0278	-17.891	16.968	0	0	0	0	0	0	0	0	0	2
6654	66.54	0	0	0	0	0	0	0	0	0	0	0	0	0	0	0	0	0	0	0	0	0	0	0	0	10.989	-10.989	19.033	0	0	0	1	0	0	17.761	2.1499	16.789	0	0	0	0	0	0	0	0	0	0	0	0	0	0	0	0	0	0	0	0	0	1	0	0	17.47	2.0148	16.554	2
6655	66.55	0	0	0	0	0	0	10.917	-10.917	18.908	0	0	0	0	0	0	0	0	0	0	0	0	0	0	0	10.989	-10.989	19.033	0	0	0	1	0	0	17.883	2.027	16.961	0	0	0	0	0	0	0	0	0	0	0	0	0	0	0	0	0	0	0	0	0	1	0	0	17.47	2.0148	16.554	2
6656	66.56	0	0	0	0	0	0	10.917	-10.917	18.908	0	0	0	0	0	0	0	0	0	0	0	0	0	0	0	10.989	-10.989	19.033	0	0	0	1	0	0	17.883	2.027	16.961	0	0	0	1	0	0	17.883	2.027	16.961	0	0	0	0	0	0	10.994	-10.994	19.042	0	0	0	0	0	0	0	0	0	2
6657	66.57	0	0	0	0	0	0	0	0	0	0	0	0	0	0	0	0	0	0	0	0	0	0	0	0	10.989	-10.989	19.033	0	0	0	1	0	0	17.883	2.027	16.961	0	0	0	0	0	0	0	0	0	0	0	0	0	0	0	0	0	0	0	0	0	1	0	0	17.47	2.0148	16.554	2
6658	66.58	0	0	0	0	0	0	10.917	-10.917	18.908	0	0	0	0	0	0	0	0	0	0	0	0	0	0	0	10.989	-10.989	19.033	0	0	0	0	0	0	0	0	0	0	0	0	0	0	0	0	0	0	0	0	0	0	-1	0	-2.0278	-17.891	16.968	0	0	0	1	0	0	17.47	2.0148	16.554	2
6659	66.59	0	0	0	0	0	0	0	0	0	0	0	0	0	0	0	0	0	0	0	0	0	1	0	0	17.755	2.1475	16.785	0	0	0	1	0	0	17.761	2.1499	16.789	0	0	0	0	0	0	0	0	0	0	0	0	0	-1	0	-2.0278	-17.891	16.968	0	0	0	1	0	0	17.47	2.0148	16.554	2
6660	66.6	0	0	0	0	0	0	10.917	-10.917	18.908	0	0	0	0	0	0	0	0	0	0	0	0	0	0	0	10.989	-10.989	19.033	0	0	0	0	0	0	0	0	0	0	0	0	0	0	0	0	0	0	0	0	0	0	0	0	0	0	0	0	0	0	0	0	0	0	0	0	2
6661	66.61	0	0	0	0	0	0	10.917	-10.917	18.908	0	0	0	0	0	0	0	0	0	0	0	0	0	0	0	10.989	-10.989	19.033	0	0	0	1	0	0	17.883	2.027	16.961	0	0	0	0	0	0	0	0	0	0	0	0	0	-1	0	-2.0278	-17.891	16.968	0	0	0	1	0	0	17.47	2.0148	16.554	2
6662	66.62	0	0	0	0	0	0	0	0	0	0	0	0	0	0	0	0	0	0	0	0	0	0	0	0	10.989	-10.989	19.033	0	0	0	1	0	0	17.883	2.027	16.961	0	0	0	0	0	0	0	0	0	0	0	0	0	0	0	0	0	0	0	0	0	0	0	0	0	0	0	2
6663	66.63	0	0	0	0	0	0	10.917	-10.917	18.908	0	0	0	0	0	0	0	0	0	0	0	0	0	0	0	10.989	-10.989	19.033	0	0	0	1	0	0	17.883	2.027	16.961	0	0	0	0	0	0	0	0	0	0	0	0	0	0	0	10.994	-10.994	19.042	0	0	0	0	0	0	0	0	0	2
6664	66.64	0	0	0	0	0	0	0	0	0	0	0	0	0	0	0	0	0	0	0	0	0	1	0	0	17.755	2.1475	16.785	0	0	0	1	0	0	17.883	2.027	16.961	0	0	0	0	0	0	0	0	0	0	0	0	0	-1	0	-2.0278	-17.891	16.968	0	0	0	1	0	0	17.47	2.0148	16.554	2
6665	66.65	0	0	0	0	0	0	10.917	-10.917	18.908	0	0	0	0	0	0	0	0	0	0	0	0	0	0	0	10.989	-10.989	19.033	0	0	0	1	0	0	17.883	2.027	16.961	0	0	0	0	0	0	0	0	0	0	0	0	0	0	0	0	0	0	0	0	0	0	0	0	0	0	0	2
6666	66.66	0	0	0	0	0	0	0	0	0	0	0	0	0	0	0	0	0	0	0	0	0	0	0	0	10.989	-10.989	19.033	0	0	0	1	0	0	17.761	2.1499	16.789	0	0	0	0	0	0	0	0	0	0	0	0	0	0	0	0	0	0	0	0	0	0	0	0	0	0	0	2
6667	66.67	0	0	0	0	0	0	10.917	-10.917	18.908	0	0	0	0	0	0	0	0	0	0	0	0	0	0	0	10.989	-10.989	19.033	0	0	0	0	0	0	0	0	0	0	0	0	0	0	0	0	0	0	0	0	0	0	0	0	0	0	0	0	0	0	0	0	0	0	0	0	2
6668	66.68	0	0	0	0	0	0	0	0	0	0	0	0	0	0	0	0	0	0	0	0	0	0	0	0	10.989	-10.989	19.033	0	0	0	1	0	0	17.883	2.027	16.961	0	0	0	0	0	0	0	0	0	0	0	0	0	-1	0	-2.0278	-17.891	16.968	0	0	0	1	0	0	17.47	2.0148	16.554	2
6669	66.69	0	0	0	0	0	0	0	0	0	0	0	0	0	0	0	0	0	0	0	0	0	1	0	0	17.755	2.1475	16.785	0	0	0	1	0	0	17.883	2.027	16.961	0	0	0	0	0	0	0	0	0	0	0	0	0	0	0	10.994	-10.994	19.042	0	0	0	1	0	0	17.47	2.0148	16.554	2
6670	66.7	0	0	0	0	0	0	0	0	0	0	0	0	0	0	0	0	0	0	0	0	0	0	0	0	10.989	-10.989	19.033	0	0	0	1	0	0	17.883	2.027	16.961	0	0	0	0	0	0	0	0	0	0	0	0	0	0	0	0	0	0	0	0	0	1	0	0	17.47	2.0148	16.554	2
6671	66.71	0	0	0	0	0	0	10.917	-10.917	18.908	0	0	0	0	0	0	0	0	0	0	0	0	1	0	0	17.755	2.1475	16.785	0	0	0	1	0	0	17.761	2.1499	16.789	0	0	0	0	0	0	0	0	0	0	0	0	0	0	0	0	0	0	0	0	0	0	0	0	0	0	0	2
6672	66.72	0	0	0	0	0	0	10.917	-10.917	18.908	0	0	0	0	0	0	0	0	0	0	0	0	0	0	0	10.989	-10.989	19.033	0	0	0	1	0	0	17.883	2.027	16.961	0	0	0	0	0	0	0	0	0	0	0	0	0	0	0	0	0	0	0	0	0	0	0	0	0	0	0	2
6673	66.73	0	0	0	0	0	0	0	0	0	0	0	0	0	0	0	0	0	0	0	0	0	0	0	0	10.989	-10.989	19.033	0	0	0	1	0	0	17.883	2.027	16.961	0	0	0	0	0	0	0	0	0	0	0	0	0	-1	0	-2.0278	-17.891	16.968	0	0	0	0	0	0	0	0	0	2
6674	66.74	0	0	0	0	0	0	10.917	-10.917	18.908	0	0	0	0	0	0	0	0	0	0	0	0	0	0	0	10.989	-10.989	19.033	0	0	0	1	0	0	17.883	2.027	16.961	0	0	0	1	0	0	17.883	2.027	16.961	0	0	0	1	-1	0	7.5503	-27.469	31.921	0	0	0	0	0	0	0	0	0	2
6675	66.75	0	0	0	0	0	0	0	0	0	0	0	0	0	0	0	0	0	0	0	0	0	0	0	0	10.989	-10.989	19.033	0	0	0	1	0	0	17.883	2.027	16.961	0	0	0	0	0	0	0	0	0	0	0	0	0	0	0	0	0	0	0	0	0	0	0	0	0	0	0	2
6676	66.76	0	0	0	0	0	0	0	0	0	0	0	0	0	0	0	0	0	0	0	0	0	0	0	0	10.989	-10.989	19.033	0	0	0	1	0	0	17.761	2.1499	16.789	0	0	0	0	0	0	0	0	0	0	0	0	1	-1	0	7.5503	-27.469	31.921	0	0	0	1	0	0	17.47	2.0148	16.554	2
6677	66.77	0	0	0	0	0	0	10.917	-10.917	18.908	0	0	0	0	0	0	0	0	0	0	0	0	0	0	0	10.989	-10.989	19.033	0	0	0	1	0	0	17.883	2.027	16.961	0	0	0	0	0	0	0	0	0	0	0	0	0	0	0	0	0	0	0	0	0	0	0	0	0	0	0	2
6678	66.78	0	0	0	0	0	0	0	0	0	0	0	0	0	0	0	0	0	0	0	0	0	0	0	0	10.989	-10.989	19.033	0	0	0	1	0	0	17.883	2.027	16.961	0	0	0	0	0	0	0	0	0	0	0	0	0	0	0	0	0	0	0	0	0	1	0	0	17.47	2.0148	16.554	2
6679	66.79	0	0	0	0	0	0	0	0	0	0	0	0	0	0	0	0	0	0	0	0	0	1	0	0	17.755	2.1475	16.785	0	0	0	1	0	0	17.883	2.027	16.961	0	0	0	0	0	0	0	0	0	0	0	0	0	0	0	10.994	-10.994	19.042	0	0	0	1	0	0	17.47	2.0148	16.554	2
6680	66.8	0	0	0	0	0	0	0	0	0	0	0	0	0	0	0	0	0	0	0	0	0	0	0	0	10.989	-10.989	19.033	0	0	0	1	0	0	17.883	2.027	16.961	0	0	0	0	0	0	0	0	0	0	0	0	0	0	0	10.994	-10.994	19.042	0	0	0	0	0	0	0	0	0	2
6681	66.81	0	0	0	0	0	0	10.917	-10.917	18.908	0	0	0	0	0	0	0	0	0	0	0	0	1	0	0	17.755	2.1475	16.785	0	0	0	1	0	0	17.883	2.027	16.961	0	0	0	0	0	0	0	0	0	0	0	0	0	0	0	0	0	0	0	0	0	1	0	0	17.47	2.0148	16.554	2
6682	66.82	0	0	0	0	0	0	0	0	0	0	0	0	0	0	0	0	0	0	0	0	0	0	0	0	10.989	-10.989	19.033	0	0	0	1	0	0	17.883	2.027	16.961	0	0	0	0	0	0	0	0	0	0	0	0	0	0	0	10.994	-10.994	19.042	0	0	0	1	0	0	17.47	2.0148	16.554	2
6683	66.83	0	0	0	0	0	0	10.917	-10.917	18.908	0	0	0	0	0	0	0	0	0	0	0	0	0	0	0	10.989	-10.989	19.033	0	0	0	0	0	0	0	0	0	0	0	0	0	0	0	0	0	0	0	0	0	0	-1	0	-2.0278	-17.891	16.968	0	0	0	0	0	0	0	0	0	2
6684	66.84	0	0	0	0	0	0	0	0	0	0	0	0	0	0	0	0	0	0	0	0	0	0	0	0	10.989	-10.989	19.033	0	0	0	1	0	0	17.883	2.027	16.961	0	0	0	0	0	0	0	0	0	0	0	0	0	0	0	0	0	0	0	0	0	0	0	0	0	0	0	2
6685	66.85	0	0	0	0	0	0	0	0	0	0	0	0	0	0	0	0	0	0	0	0	0	0	0	0	10.989	-10.989	19.033	0	0	0	0	0	0	0	0	0	0	0	0	0	0	0	0	0	0	0	0	0	0	0	0	0	0	0	0	0	0	0	0	0	0	0	0	2
6686	66.86	0	0	0	0	0	0	0	0	0	0	0	0	0	0	0	0	0	0	0	0	0	0	0	0	10.989	-10.989	19.033	0	0	0	1	0	0	17.883	2.027	16.961	0	0	0	0	0	0	0	0	0	0	0	0	0	0	0	0	0	0	0	0	0	1	0	0	17.47	2.0148	16.554	2
6687	66.87	0	0	0	0	0	0	0	0	0	0	0	0	0	0	0	0	0	0	0	0	0	0	0	0	10.989	-10.989	19.033	0	0	0	1	0	0	17.883	2.027	16.961	0	0	0	0	0	0	0	0	0	0	0	0	0	0	0	0	0	0	0	0	0	1	0	0	17.47	2.0148	16.554	2
6688	66.88	0	0	0	0	0	0	0	0	0	0	0	0	0	0	0	0	0	0	0	0	0	0	0	0	10.989	-10.989	19.033	0	0	0	0	0	0	0	0	0	0	0	0	0	0	0	0	0	0	0	0	0	0	-1	0	-2.0278	-17.891	16.968	0	0	0	0	0	0	0	0	0	2
6689	66.89	0	0	0	0	0	0	10.917	-10.917	18.908	0	0	0	0	0	0	0	0	0	0	0	0	0	0	0	10.989	-10.989	19.033	0	0	0	1	0	0	17.883	2.027	16.961	0	0	0	0	0	0	0	0	0	0	0	0	0	0	0	10.994	-10.994	19.042	0	0	0	0	0	0	0	0	0	0
6690	66.9	0	0	0	0	0	0	0	0	0	0	0	0	0	0	0	0	0	0	0	0	0	0	0	0	10.989	-10.989	19.033	0	0	0	1	0	0	17.883	2.027	16.961	0	0	0	0	0	0	0	0	0	0	0	0	0	0	0	0	0	0	0	0	0	0	0	0	0	0	0	2
6691	66.91	0	0	0	0	0	0	0	0	0	0	0	0	0	0	0	0	0	0	0	0	0	1	0	0	17.755	2.1475	16.785	0	0	0	1	0	0	17.761	2.1499	16.789	0	0	0	0	0	0	0	0	0	0	0	0	0	0	0	10.994	-10.994	19.042	0	0	0	1	0	0	17.47	2.0148	16.554	2
6692	66.92	0	0	0	0	0	0	10.917	-10.917	18.908	0	0	0	0	0	0	0	0	0	0	0	0	0	0	0	10.989	-10.989	19.033	0	0	0	1	0	0	17.883	2.027	16.961	0	0	0	0	0	0	0	0	0	0	0	0	1	-1	0	7.5503	-27.469	31.921	0	0	0	0	0	0	0	0	0	2
6693	66.93	0	0	0	0	0	0	0	0	0	0	0	0	0	0	0	0	0	0	0	0	0	0	0	0	10.989	-10.989	19.033	0	0	0	1	0	0	17.883	2.027	16.961	0	0	0	0	0	0	0	0	0	0	0	0	0	0	0	0	0	0	0	0	0	1	0	0	17.47	2.0148	16.554	2
6694	66.94	0	0	0	0	0	0	10.917	-10.917	18.908	0	0	0	0	0	0	0	0	0	0	0	0	1	0	0	17.755	2.1475	16.785	0	0	0	1	0	0	17.883	2.027	16.961	0	0	0	0	0	0	0	0	0	0	0	0	0	0	0	0	0	0	0	0	0	1	0	0	17.47	2.0148	16.554	2
6695	66.95	0	0	0	0	0	0	0	0	0	0	0	0	0	0	0	0	0	0	0	0	0	0	0	0	10.989	-10.989	19.033	0	0	0	1	0	0	17.883	2.027	16.961	0	0	0	0	0	0	0	0	0	0	0	0	0	0	0	0	0	0	0	0	0	0	0	0	0	0	0	2
6696	66.96	0	0	0	0	0	0	10.917	-10.917	18.908	0	0	0	0	0	0	0	0	0	0	0	0	1	0	0	17.755	2.1475	16.785	0	0	0	1	0	0	17.883	2.027	16.961	0	0	0	0	0	0	0	0	0	0	0	0	0	-1	0	-2.0278	-17.891	16.968	0	0	0	1	0	0	17.47	2.0148	16.554	2
6697	66.97	0	0	0	0	0	0	0	0	0	0	0	0	0	0	0	0	0	0	0	0	0	1	0	0	17.755	2.1475	16.785	0	0	0	1	0	0	17.883	2.027	16.961	0	0	0	0	0	0	0	0	0	0	0	0	0	0	0	10.994	-10.994	19.042	0	0	0	1	0	0	17.47	2.0148	16.554	2
6698	66.98	0	0	0	0	0	0	0	0	0	0	0	0	0	0	0	0	0	0	0	0	0	0	0	0	10.989	-10.989	19.033	0	0	0	1	0	0	17.883	2.027	16.961	0	0	0	0	0	0	0	0	0	0	0	0	0	0	0	0	0	0	0	0	0	0	0	0	0	0	0	2
6699	66.99	0	0	0	0	0	0	0	0	0	0	0	0	0	0	0	0	0	0	0	0	0	1	0	0	17.755	2.1475	16.785	0	0	0	1	0	0	17.883	2.027	16.961	0	0	0	0	0	0	0	0	0	0	0	0	0	0	0	10.994	-10.994	19.042	0	0	0	1	0	0	17.47	2.0148	16.554	2
6700	67	0	0	0	0	0	0	10.917	-10.917	18.908	0	0	0	0	0	0	0	0	0	0	0	0	0	0	0	10.989	-10.989	19.033	0	0	0	1	0	0	17.883	2.027	16.961	0	0	0	0	0	0	0	0	0	0	0	0	0	0	0	0	0	0	0	0	0	0	0	0	0	0	0	2
6701	67.01	0	0	0	0	0	0	0	0	0	0	0	0	0	0	0	0	0	0	0	0	0	0	0	0	10.989	-10.989	19.033	0	0	0	1	0	0	17.761	2.1499	16.789	0	0	0	0	0	0	0	0	0	0	0	0	0	0	0	0	0	0	0	0	0	0	0	0	0	0	0	2
6702	67.02	0	0	0	0	0	0	0	0	0	0	0	0	0	0	0	0	0	0	0	0	0	1	0	0	17.755	2.1475	16.785	0	0	0	1	0	0	17.883	2.027	16.961	0	0	0	0	0	0	0	0	0	0	0	0	1	-1	0	7.5503	-27.469	31.921	0	0	0	0	0	0	0	0	0	2
6703	67.03	0	0	0	0	0	0	0	0	0	0	0	0	0	0	0	0	0	0	0	0	0	0	0	0	10.989	-10.989	19.033	0	0	0	0	0	0	0	0	0	0	0	0	0	0	0	0	0	0	0	0	0	0	0	0	0	0	0	0	0	0	0	0	0	0	0	0	2
6704	67.04	0	0	0	0	0	0	0	0	0	0	0	0	0	0	0	0	0	0	0	0	0	0	0	0	10.989	-10.989	19.033	0	0	0	1	0	0	17.761	2.1499	16.789	0	0	0	0	0	0	0	0	0	0	0	0	0	0	0	10.994	-10.994	19.042	0	0	0	1	0	0	17.47	2.0148	16.554	2
6705	67.05	0	0	0	0	0	0	0	0	0	0	0	0	0	0	0	0	0	0	0	0	0	0	0	0	10.989	-10.989	19.033	0	0	0	1	0	0	17.883	2.027	16.961	0	0	0	0	0	0	0	0	0	0	0	0	0	-1	0	-2.0278	-17.891	16.968	0	0	0	0	0	0	0	0	0	2
6706	67.06	0	0	0	0	0	0	0	0	0	0	0	0	0	0	0	0	0	0	0	0	0	0	0	0	10.989	-10.989	19.033	0	0	0	1	0	0	17.761	2.1499	16.789	0	0	0	1	0	0	17.883	2.027	16.961	0	0	0	0	0	0	10.994	-10.994	19.042	0	0	0	1	0	0	17.47	2.0148	16.554	2
6707	67.07	0	0	0	0	0	0	10.917	-10.917	18.908	0	0	0	0	0	0	0	0	0	0	0	0	0	0	0	10.989	-10.989	19.033	0	0	0	1	0	0	17.883	2.027	16.961	0	0	0	0	0	0	0	0	0	0	0	0	1	-1	0	7.5503	-27.469	31.921	0	0	0	0	0	0	0	0	0	2
6708	67.08	0	0	0	0	0	0	0	0	0	0	0	0	0	0	0	0	0	0	0	0	0	0	0	0	10.989	-10.989	19.033	0	0	0	0	0	0	0	0	0	0	0	0	0	0	0	0	0	0	0	0	0	0	-1	0	-2.0278	-17.891	16.968	0	0	0	0	0	0	0	0	0	2
6709	67.09	0	0	0	0	0	0	0	0	0	0	0	0	0	0	0	0	0	0	0	0	0	1	0	0	17.755	2.1475	16.785	0	0	0	1	0	0	17.883	2.027	16.961	0	0	0	0	0	0	0	0	0	0	0	0	0	0	0	10.994	-10.994	19.042	0	0	0	1	0	0	17.47	2.0148	16.554	2
6710	67.1	0	0	0	0	0	0	0	0	0	0	0	0	0	0	0	0	0	0	0	0	0	0	0	0	10.989	-10.989	19.033	0	0	0	1	0	0	17.883	2.027	16.961	0	0	0	0	0	0	0	0	0	0	0	0	0	-1	0	-2.0278	-17.891	16.968	0	0	0	0	0	0	0	0	0	2
6711	67.11	0	0	0	0	0	0	0	0	0	0	0	0	0	0	0	0	0	0	0	0	0	1	0	0	17.755	2.1475	16.785	0	0	0	1	0	0	17.883	2.027	16.961	0	0	0	0	0	0	0	0	0	0	0	0	0	0	0	0	0	0	0	0	0	0	0	0	0	0	0	2
6712	67.12	0	0	0	0	0	0	10.917	-10.917	18.908	0	0	0	0	0	0	0	0	0	0	0	0	0	0	0	10.989	-10.989	19.033	0	0	0	1	0	0	17.883	2.027	16.961	0	0	0	0	0	0	0	0	0	0	0	0	0	-1	0	-2.0278	-17.891	16.968	0	0	0	1	0	0	17.47	2.0148	16.554	2
6713	67.13	0	0	0	0	0	0	0	0	0	0	0	0	0	0	0	0	0	0	0	0	0	0	0	0	10.989	-10.989	19.033	0	0	0	1	0	0	17.883	2.027	16.961	0	0	0	0	0	0	0	0	0	0	0	0	0	0	0	10.994	-10.994	19.042	0	0	0	0	0	0	0	0	0	2
6714	67.14	0	0	0	0	0	0	0	0	0	0	0	0	0	0	0	0	0	0	0	0	0	0	0	0	10.989	-10.989	19.033	0	0	0	1	0	0	17.761	2.1499	16.789	0	0	0	0	0	0	0	0	0	0	0	0	0	-1	0	-2.0278	-17.891	16.968	0	0	0	1	0	0	17.47	2.0148	16.554	2
6715	67.15	0	0	0	0	0	0	0	0	0	0	0	0	0	0	0	0	0	0	0	0	0	0	0	0	10.989	-10.989	19.033	0	0	0	1	0	0	17.883	2.027	16.961	0	0	0	0	0	0	0	0	0	0	0	0	1	-1	0	7.5503	-27.469	31.921	0	0	0	0	0	0	0	0	0	2
6716	67.16	0	0	0	0	0	0	10.917	-10.917	18.908	0	0	0	0	0	0	0	0	0	0	0	0	0	0	0	10.989	-10.989	19.033	0	0	0	1	0	0	17.761	2.1499	16.789	0	0	0	0	0	0	0	0	0	0	0	0	0	0	0	0	0	0	0	0	0	0	0	0	0	0	0	2
6717	67.17	0	0	0	0	0	0	0	0	0	0	0	0	0	0	0	0	0	0	0	0	0	1	0	0	17.755	2.1475	16.785	0	0	0	1	0	0	17.883	2.027	16.961	0	0	0	0	0	0	0	0	0	0	0	0	0	-1	0	-2.0278	-17.891	16.968	0	0	0	0	0	0	0	0	0	2
6718	67.18	0	0	0	0	0	0	10.917	-10.917	18.908	0	0	0	0	0	0	0	0	0	0	0	0	0	0	0	10.989	-10.989	19.033	0	0	0	1	0	0	17.883	2.027	16.961	0	0	0	0	0	0	0	0	0	0	0	0	0	0	0	0	0	0	0	0	0	1	0	0	17.47	2.0148	16.554	2
6719	67.19	0	0	0	0	0	0	10.917	-10.917	18.908	0	0	0	0	0	0	0	0	0	0	0	0	1	0	0	17.755	2.1475	16.785	0	0	0	1	0	0	17.883	2.027	16.961	0	0	0	0	0	0	0	0	0	0	0	0	0	0	0	0	0	0	0	0	0	1	0	0	17.47	2.0148	16.554	2
6720	67.2	0	0	0	0	0	0	10.917	-10.917	18.908	0	0	0	0	0	0	0	0	0	0	0	0	0	0	0	10.989	-10.989	19.033	0	0	0	1	0	0	17.883	2.027	16.961	0	0	0	0	0	0	0	0	0	0	0	0	0	0	0	0	0	0	0	0	0	0	0	0	0	0	0	2
6721	67.21	0	0	0	0	0	0	10.917	-10.917	18.908	0	0	0	0	0	0	0	0	0	0	0	0	0	0	0	10.989	-10.989	19.033	0	0	0	1	0	0	17.883	2.027	16.961	0	0	0	0	0	0	0	0	0	0	0	0	0	0	0	0	0	0	0	0	0	1	0	0	17.47	2.0148	16.554	2
6722	67.22	0	0	0	0	0	0	0	0	0	0	0	0	0	0	0	0	0	0	0	0	0	0	0	0	10.989	-10.989	19.033	0	0	0	1	0	0	17.883	2.027	16.961	0	0	0	0	0	0	0	0	0	0	0	0	1	-1	0	7.5503	-27.469	31.921	0	0	0	0	0	0	0	0	0	2
6723	67.23	0	0	0	0	0	0	0	0	0	0	0	0	0	0	0	0	0	0	0	0	0	0	0	0	10.989	-10.989	19.033	0	0	0	1	0	0	17.883	2.027	16.961	0	0	0	0	0	0	0	0	0	0	0	0	0	0	0	10.994	-10.994	19.042	0	0	0	0	0	0	0	0	0	2
6724	67.24	0	0	0	0	0	0	10.917	-10.917	18.908	0	0	0	0	0	0	0	0	0	0	0	0	1	0	0	17.755	2.1475	16.785	0	0	0	1	0	0	17.883	2.027	16.961	0	0	0	0	0	0	0	0	0	0	0	0	0	0	0	10.994	-10.994	19.042	0	0	0	0	0	0	0	0	0	2
6725	67.25	0	0	0	0	0	0	10.917	-10.917	18.908	0	0	0	0	0	0	0	0	0	0	0	0	0	0	0	10.989	-10.989	19.033	0	0	0	1	0	0	17.883	2.027	16.961	0	0	0	0	0	0	0	0	0	0	0	0	0	-1	0	-2.0278	-17.891	16.968	0	0	0	0	0	0	0	0	0	2
6726	67.26	0	0	0	0	0	0	0	0	0	0	0	0	0	0	0	0	0	0	0	0	0	0	0	0	10.989	-10.989	19.033	0	0	0	1	0	0	17.883	2.027	16.961	0	0	0	0	0	0	0	0	0	0	0	0	1	-1	0	7.5503	-27.469	31.921	0	0	0	1	0	0	17.47	2.0148	16.554	0
6727	67.27	0	0	0	0	0	0	10.917	-10.917	18.908	0	0	0	0	0	0	0	0	0	0	0	0	0	0	0	10.989	-10.989	19.033	0	0	0	1	0	0	17.883	2.027	16.961	0	0	0	1	0	0	17.883	2.027	16.961	0	0	0	0	0	0	10.994	-10.994	19.042	0	0	0	1	0	0	17.47	2.0148	16.554	2
6728	67.28	0	0	0	0	0	0	10.917	-10.917	18.908	0	0	0	0	0	0	0	0	0	0	0	0	0	0	0	10.989	-10.989	19.033	0	0	0	1	0	0	17.883	2.027	16.961	0	0	0	0	0	0	0	0	0	0	0	0	0	0	0	0	0	0	0	0	0	0	0	0	0	0	0	2
6729	67.29	0	0	0	0	0	0	0	0	0	0	0	0	0	0	0	0	0	0	0	0	0	0	0	0	10.989	-10.989	19.033	0	0	0	1	0	0	17.761	2.1499	16.789	0	0	0	1	0	0	17.883	2.027	16.961	0	0	0	0	0	0	10.994	-10.994	19.042	0	0	0	0	0	0	0	0	0	2
6730	67.3	0	0	0	0	0	0	0	0	0	0	0	0	0	0	0	0	0	0	0	0	0	0	0	0	10.989	-10.989	19.033	0	0	0	1	0	0	17.883	2.027	16.961	0	0	0	0	0	0	0	0	0	0	0	0	0	0	0	0	0	0	0	0	0	1	0	0	17.47	2.0148	16.554	2
6731	67.31	0	0	0	0	0	0	0	0	0	0	0	0	0	0	0	0	0	0	0	0	0	1	0	0	17.755	2.1475	16.785	0	0	0	1	0	0	17.761	2.1499	16.789	0	0	0	0	0	0	0	0	0	0	0	0	1	-1	0	7.5503	-27.469	31.921	0	0	0	0	0	0	0	0	0	2
6732	67.32	0	0	0	0	0	0	0	0	0	0	0	0	0	0	0	0	0	0	0	0	0	0	0	0	10.989	-10.989	19.033	0	0	0	1	0	0	17.883	2.027	16.961	0	0	0	0	0	0	0	0	0	0	0	0	0	0	0	10.994	-10.994	19.042	0	0	0	0	0	0	0	0	0	2
6733	67.33	0	0	0	0	0	0	0	0	0	0	0	0	0	0	0	0	0	0	0	0	0	0	0	0	10.989	-10.989	19.033	0	0	0	1	0	0	17.883	2.027	16.961	0	0	0	0	0	0	0	0	0	0	0	0	1	-1	0	7.5503	-27.469	31.921	0	0	0	0	0	0	0	0	0	2
6734	67.34	0	0	0	0	0	0	0	0	0	0	0	0	0	0	0	0	0	0	0	0	0	1	0	0	17.755	2.1475	16.785	0	0	0	1	0	0	17.761	2.1499	16.789	0	0	0	0	0	0	0	0	0	0	0	0	0	-1	0	-2.0278	-17.891	16.968	0	0	0	0	0	0	0	0	0	2
6735	67.35	0	0	0	0	0	0	0	0	0	0	0	0	0	0	0	0	0	0	0	0	0	0	0	0	10.989	-10.989	19.033	0	0	0	1	0	0	17.883	2.027	16.961	0	0	0	0	0	0	0	0	0	0	0	0	0	0	0	10.994	-10.994	19.042	0	0	0	0	0	0	0	0	0	2
6736	67.36	0	0	0	0	0	0	0	0	0	0	0	0	0	0	0	0	0	0	0	0	0	1	0	0	17.755	2.1475	16.785	0	0	0	1	0	0	17.883	2.027	16.961	0	0	0	1	0	0	17.883	2.027	16.961	0	0	0	0	0	0	0	0	0	0	0	0	0	0	0	0	0	0	2
6737	67.37	0	0	0	0	0	0	0	0	0	0	0	0	0	0	0	0	0	0	0	0	0	0	0	0	10.989	-10.989	19.033	0	0	0	1	0	0	17.883	2.027	16.961	0	0	0	0	0	0	0	0	0	0	0	0	0	0	0	0	0	0	0	0	0	0	0	0	0	0	0	2
6738	67.38	0	0	0	0	0	0	0	0	0	0	0	0	0	0	0	0	0	0	0	0	0	0	0	0	10.989	-10.989	19.033	0	0	0	1	0	0	17.883	2.027	16.961	0	0	0	0	0	0	0	0	0	0	0	0	0	0	0	0	0	0	0	0	0	0	0	0	0	0	0	2
6739	67.39	0	0	0	0	0	0	0	0	0	0	0	0	0	0	0	0	0	0	0	0	0	0	0	0	10.989	-10.989	19.033	0	0	0	1	0	0	17.761	2.1499	16.789	0	0	0	0	0	0	0	0	0	0	0	0	1	-1	0	7.5503	-27.469	31.921	0	0	0	1	0	0	17.47	2.0148	16.554	2
6740	67.4	0	0	0	0	0	0	0	0	0	0	0	0	0	0	0	0	0	0	0	0	0	0	0	0	10.989	-10.989	19.033	0	0	0	1	0	0	17.883	2.027	16.961	0	0	0	0	0	0	0	0	0	0	0	0	0	0	0	10.994	-10.994	19.042	0	0	0	0	0	0	0	0	0	2
6741	67.41	0	0	0	0	0	0	0	0	0	0	0	0	0	0	0	0	0	0	0	0	0	1	0	0	17.755	2.1475	16.785	0	0	0	1	0	0	17.761	2.1499	16.789	0	0	0	0	0	0	0	0	0	0	0	0	0	-1	0	-2.0278	-17.891	16.968	0	0	0	1	0	0	17.47	2.0148	16.554	2
6742	67.42	0	0	0	0	0	0	0	0	0	0	0	0	0	0	0	0	0	0	0	0	0	0	0	0	10.989	-10.989	19.033	0	0	0	1	0	0	17.883	2.027	16.961	0	0	0	0	0	0	0	0	0	0	0	0	0	-1	0	-2.0278	-17.891	16.968	0	0	0	0	0	0	0	0	0	2
6743	67.43	0	0	0	0	0	0	0	0	0	0	0	0	0	0	0	0	0	0	0	0	0	0	0	0	10.989	-10.989	19.033	0	0	0	1	0	0	17.761	2.1499	16.789	0	0	0	0	0	0	0	0	0	0	0	0	0	0	0	10.994	-10.994	19.042	0	0	0	1	0	0	17.47	2.0148	16.554	2
6744	67.44	0	0	0	0	0	0	10.917	-10.917	18.908	0	0	0	0	0	0	0	0	0	0	0	0	0	0	0	10.989	-10.989	19.033	0	0	0	1	0	0	17.761	2.1499	16.789	0	0	0	0	0	0	0	0	0	0	0	0	0	0	0	0	0	0	0	0	0	0	0	0	0	0	0	2
6745	67.45	0	0	0	0	0	0	0	0	0	0	0	0	0	0	0	0	0	0	0	0	0	0	0	0	10.989	-10.989	19.033	0	0	0	1	0	0	17.883	2.027	16.961	0	0	0	0	0	0	0	0	0	0	0	0	1	-1	0	7.5503	-27.469	31.921	0	0	0	0	0	0	0	0	0	2
6746	67.46	0	0	0	0	0	0	10.917	-10.917	18.908	0	0	0	0	0	0	0	0	0	0	0	0	0	0	0	10.989	-10.989	19.033	0	0	0	1	0	0	17.761	2.1499	16.789	0	0	0	0	0	0	0	0	0	0	0	0	0	-1	0	-2.0278	-17.891	16.968	0	0	0	0	0	0	0	0	0	2
6747	67.47	0	0	0	0	0	0	10.917	-10.917	18.908	0	0	0	0	0	0	0	0	0	0	0	0	0	0	0	10.989	-10.989	19.033	0	0	0	1	0	0	17.761	2.1499	16.789	0	0	0	0	0	0	0	0	0	0	0	0	0	0	0	10.994	-10.994	19.042	0	0	0	0	0	0	0	0	0	2
6748	67.48	0	0	0	0	0	0	10.917	-10.917	18.908	0	0	0	0	0	0	0	0	0	0	0	0	0	0	0	10.989	-10.989	19.033	0	0	0	1	0	0	17.883	2.027	16.961	0	0	0	0	0	0	0	0	0	0	0	0	1	-1	0	7.5503	-27.469	31.921	0	0	0	0	0	0	0	0	0	2
6749	67.49	0	0	0	0	0	0	0	0	0	0	0	0	0	0	0	0	0	0	0	0	0	1	0	0	17.755	2.1475	16.785	0	0	0	1	0	0	17.883	2.027	16.961	0	0	0	0	0	0	0	0	0	0	0	0	0	0	0	0	0	0	0	0	0	1	0	0	17.47	2.0148	16.554	2
6750	67.5	0	0	0	0	0	0	0	0	0	0	0	0	0	0	0	0	0	0	0	0	0	0	0	0	10.989	-10.989	19.033	0	0	0	1	0	0	17.883	2.027	16.961	0	0	0	0	0	0	0	0	0	0	0	0	0	-1	0	-2.0278	-17.891	16.968	0	0	0	0	0	0	0	0	0	2
6751	67.51	0	0	0	0	0	0	0	0	0	0	0	0	0	0	0	0	0	0	0	0	0	1	0	0	17.755	2.1475	16.785	0	0	0	1	0	0	17.761	2.1499	16.789	0	0	0	0	0	0	0	0	0	0	0	0	0	-1	0	-2.0278	-17.891	16.968	0	0	0	1	0	0	17.47	2.0148	16.554	2
6752	67.52	0	0	0	0	0	0	0	0	0	0	0	0	0	0	0	0	0	0	0	0	0	0	0	0	10.989	-10.989	19.033	0	0	0	1	0	0	17.761	2.1499	16.789	0	0	0	0	0	0	0	0	0	0	0	0	0	0	0	10.994	-10.994	19.042	0	0	0	1	0	0	17.47	2.0148	16.554	2
6753	67.53	0	0	0	0	0	0	0	0	0	0	0	0	0	0	0	0	0	0	0	0	0	0	0	0	10.989	-10.989	19.033	0	0	0	1	0	0	17.883	2.027	16.961	0	0	0	0	0	0	0	0	0	0	0	0	0	-1	0	-2.0278	-17.891	16.968	0	0	0	0	0	0	0	0	0	0
6754	67.54	0	0	0	0	0	0	0	0	0	0	0	0	0	0	0	0	0	0	0	0	0	0	0	0	10.989	-10.989	19.033	0	0	0	1	0	0	17.761	2.1499	16.789	0	0	0	0	0	0	0	0	0	0	0	0	0	0	0	0	0	0	0	0	0	1	0	0	17.47	2.0148	16.554	2
6755	67.55	0	0	0	0	0	0	0	0	0	0	0	0	0	0	0	0	0	0	0	0	0	0	0	0	10.989	-10.989	19.033	0	0	0	1	0	0	17.883	2.027	16.961	0	0	0	0	0	0	0	0	0	0	0	0	0	0	0	0	0	0	0	0	0	1	0	0	17.47	2.0148	16.554	2
6756	67.56	0	0	0	0	0	0	0	0	0	0	0	0	0	0	0	0	0	0	0	0	0	1	0	0	17.755	2.1475	16.785	0	0	0	1	0	0	17.761	2.1499	16.789	0	0	0	0	0	0	0	0	0	0	0	0	0	-1	0	-2.0278	-17.891	16.968	0	0	0	0	0	0	0	0	0	2
6757	67.57	0	0	0	0	-1	0	-2.0364	-17.814	16.888	0	0	0	0	0	0	0	0	0	0	0	0	0	0	0	10.989	-10.989	19.033	0	0	0	1	0	0	17.883	2.027	16.961	0	0	0	0	0	0	0	0	0	0	0	0	0	0	0	0	0	0	0	0	0	1	0	0	17.47	2.0148	16.554	2
6758	67.58	0	0	0	0	0	0	0	0	0	0	0	0	0	0	0	0	0	0	0	0	0	0	0	0	10.989	-10.989	19.033	0	0	0	1	0	0	17.883	2.027	16.961	0	0	0	0	0	0	0	0	0	0	0	0	0	0	0	0	0	0	0	0	0	1	0	0	17.47	2.0148	16.554	2
6759	67.59	0	0	0	0	0	0	0	0	0	0	0	0	0	0	0	0	0	0	0	0	0	0	0	0	10.989	-10.989	19.033	0	0	0	1	0	0	17.883	2.027	16.961	0	0	0	0	0	0	0	0	0	0	0	0	1	-1	0	7.5503	-27.469	31.921	0	0	0	1	0	0	17.47	2.0148	16.554	2
6760	67.6	0	0	0	0	0	0	0	0	0	0	0	0	0	0	0	0	0	0	0	0	0	0	0	0	10.989	-10.989	19.033	0	0	0	1	0	0	17.883	2.027	16.961	0	0	0	0	0	0	0	0	0	0	0	0	0	0	0	0	0	0	0	0	0	0	0	0	0	0	0	2
6761	67.61	0	0	0	0	0	0	0	0	0	0	0	0	0	0	0	0	0	0	0	0	0	1	0	0	17.755	2.1475	16.785	0	0	0	1	0	0	17.761	2.1499	16.789	0	0	0	0	0	0	0	0	0	0	0	0	1	-1	0	7.5503	-27.469	31.921	0	0	0	0	0	0	0	0	0	2
6762	67.62	0	0	0	0	0	0	10.917	-10.917	18.908	0	0	0	0	0	0	0	0	0	0	0	0	0	0	0	10.989	-10.989	19.033	0	0	0	1	0	0	17.883	2.027	16.961	0	0	0	0	0	0	0	0	0	0	0	0	1	-1	0	7.5503	-27.469	31.921	0	0	0	1	0	0	17.47	2.0148	16.554	2
6763	67.63	0	0	0	0	0	0	0	0	0	0	0	0	0	0	0	0	0	0	0	0	0	0	0	0	10.989	-10.989	19.033	0	0	0	1	0	0	17.883	2.027	16.961	0	0	0	0	0	0	0	0	0	0	0	0	0	-1	0	-2.0278	-17.891	16.968	0	0	0	0	0	0	0	0	0	2
6764	67.64	0	0	0	0	0	0	0	0	0	0	0	0	0	0	0	0	0	0	0	0	0	1	0	0	17.755	2.1475	16.785	0	0	0	1	0	0	17.761	2.1499	16.789	0	0	0	0	0	0	0	0	0	0	0	0	0	0	0	10.994	-10.994	19.042	0	0	0	0	0	0	0	0	0	2
6765	67.65	0	0	0	0	0	0	0	0	0	0	0	0	0	0	0	0	0	0	0	0	0	0	0	0	10.989	-10.989	19.033	0	0	0	1	0	0	17.883	2.027	16.961	0	0	0	0	0	0	0	0	0	0	0	0	0	-1	0	-2.0278	-17.891	16.968	0	0	0	1	0	0	17.47	2.0148	16.554	2
6766	67.66	0	0	0	0	0	0	0	0	0	0	0	0	0	0	0	0	0	0	0	0	0	0	0	0	10.989	-10.989	19.033	0	0	0	1	0	0	17.761	2.1499	16.789	0	0	0	0	0	0	0	0	0	0	0	0	0	0	0	10.994	-10.994	19.042	0	0	0	0	0	0	0	0	0	2
6767	67.67	0	0	0	0	0	0	0	0	0	0	0	0	0	0	0	0	0	0	0	0	0	1	0	0	17.755	2.1475	16.785	0	0	0	1	0	0	17.883	2.027	16.961	0	0	0	0	0	0	0	0	0	0	0	0	0	-1	0	-2.0278	-17.891	16.968	0	0	0	0	0	0	0	0	0	2
6768	67.68	0	0	0	0	0	0	0	0	0	0	0	0	0	0	0	0	0	0	0	0	0	0	0	0	10.989	-10.989	19.033	0	0	0	1	0	0	17.883	2.027	16.961	0	0	0	0	0	0	0	0	0	0	0	0	0	0	0	10.994	-10.994	19.042	0	0	0	0	0	0	0	0	0	2
6769	67.69	0	0	0	0	0	0	10.917	-10.917	18.908	0	0	0	0	0	0	0	0	0	0	0	0	1	0	0	17.755	2.1475	16.785	0	0	0	1	0	0	17.761	2.1499	16.789	0	0	0	0	0	0	0	0	0	0	0	0	1	-1	0	7.5503	-27.469	31.921	0	0	0	1	0	0	17.47	2.0148	16.554	2
6770	67.7	0	0	0	0	0	0	0	0	0	0	0	0	0	0	0	0	0	0	0	0	0	0	0	0	10.989	-10.989	19.033	0	0	0	1	0	0	17.883	2.027	16.961	0	0	0	0	0	0	0	0	0	0	0	0	1	-1	0	7.5503	-27.469	31.921	0	0	0	0	0	0	0	0	0	2
6771	67.71	0	0	0	0	0	0	0	0	0	0	0	0	0	0	0	0	0	0	0	0	0	0	0	0	10.989	-10.989	19.033	0	0	0	1	0	0	17.883	2.027	16.961	0	0	0	1	0	0	17.883	2.027	16.961	0	0	0	0	-1	0	-2.0278	-17.891	16.968	0	0	0	0	0	0	0	0	0	2
6772	67.72	0	0	0	0	0	0	0	0	0	0	0	0	0	0	0	0	0	0	0	0	0	1	0	0	17.755	2.1475	16.785	0	0	0	1	0	0	17.761	2.1499	16.789	0	0	0	0	0	0	0	0	0	0	0	0	0	-1	0	-2.0278	-17.891	16.968	0	0	0	0	0	0	0	0	0	2
6773	67.73	0	0	0	0	0	0	0	0	0	0	0	0	0	0	0	0	0	0	0	0	0	0	0	0	10.989	-10.989	19.033	0	0	0	1	0	0	17.883	2.027	16.961	0	0	0	0	0	0	0	0	0	0	0	0	1	-1	0	7.5503	-27.469	31.921	0	0	0	1	0	0	17.47	2.0148	16.554	2
6774	67.74	0	0	0	0	0	0	0	0	0	0	0	0	0	0	0	0	0	0	0	0	0	0	0	0	10.989	-10.989	19.033	0	0	0	1	0	0	17.761	2.1499	16.789	0	0	0	0	0	0	0	0	0	0	0	0	0	0	0	0	0	0	0	0	0	0	0	0	0	0	0	2
6775	67.75	0	0	0	0	0	0	0	0	0	0	0	0	0	0	0	0	0	0	0	0	0	0	0	0	10.989	-10.989	19.033	0	0	0	1	0	0	17.883	2.027	16.961	0	0	0	0	0	0	0	0	0	0	0	0	0	-1	0	-2.0278	-17.891	16.968	0	0	0	0	0	0	0	0	0	2
6776	67.76	0	0	0	0	0	0	0	0	0	0	0	0	0	0	0	0	0	0	0	0	0	0	0	0	10.989	-10.989	19.033	0	0	0	1	0	0	17.761	2.1499	16.789	0	0	0	0	0	0	0	0	0	0	0	0	0	-1	0	-2.0278	-17.891	16.968	0	0	0	0	0	0	0	0	0	2
6777	67.77	0	0	0	0	0	0	0	0	0	0	0	0	0	0	0	0	0	0	0	0	0	0	0	0	10.989	-10.989	19.033	0	0	0	1	0	0	17.761	2.1499	16.789	0	0	0	0	0	0	0	0	0	0	0	0	0	-1	0	-2.0278	-17.891	16.968	0	0	0	0	0	0	0	0	0	2
6778	67.78	0	0	0	0	0	0	0	0	0	0	0	0	0	0	0	0	0	0	0	0	0	0	0	0	10.989	-10.989	19.033	0	0	0	1	0	0	17.761	2.1499	16.789	0	0	0	0	0	0	0	0	0	0	0	0	0	0	0	0	0	0	0	0	0	0	0	0	0	0	0	2
6779	67.79	0	0	0	0	0	0	0	0	0	0	0	0	0	0	0	0	0	0	0	0	0	1	0	0	17.755	2.1475	16.785	0	0	0	1	0	0	17.883	2.027	16.961	0	0	0	0	0	0	0	0	0	0	0	0	1	-1	0	7.5503	-27.469	31.921	0	0	0	1	0	0	17.47	2.0148	16.554	2
6780	67.8	0	0	0	0	0	0	0	0	0	0	0	0	0	0	0	0	0	0	0	0	0	0	0	0	10.989	-10.989	19.033	0	0	0	1	0	0	17.883	2.027	16.961	0	0	0	0	0	0	0	0	0	0	0	0	0	0	0	0	0	0	0	0	0	0	0	0	0	0	0	2
6781	67.81	0	0	0	0	0	0	0	0	0	0	0	0	0	0	0	0	0	0	0	0	0	1	0	0	17.755	2.1475	16.785	0	0	0	1	0	0	17.883	2.027	16.961	0	0	0	0	0	0	0	0	0	0	0	0	0	-1	0	-2.0278	-17.891	16.968	0	0	0	1	0	0	17.47	2.0148	16.554	2
6782	67.82	0	0	0	0	0	0	10.917	-10.917	18.908	0	0	0	0	0	0	0	0	0	0	0	0	0	0	0	10.989	-10.989	19.033	0	0	0	1	0	0	17.883	2.027	16.961	0	0	0	0	0	0	0	0	0	0	0	0	0	0	0	0	0	0	0	0	0	0	0	0	0	0	0	2
6783	67.83	0	0	0	0	0	0	0	0	0	0	0	0	0	0	0	0	0	0	0	0	0	0	0	0	10.989	-10.989	19.033	0	0	0	1	0	0	17.883	2.027	16.961	0	0	0	0	0	0	0	0	0	0	0	0	0	0	0	10.994	-10.994	19.042	0	0	0	0	0	0	0	0	0	2
6784	67.84	0	0	0	0	0	0	0	0	0	0	0	0	0	0	0	0	0	0	0	0	0	1	0	0	17.755	2.1475	16.785	0	0	0	1	0	0	17.883	2.027	16.961	0	0	0	0	0	0	0	0	0	0	0	0	1	-1	0	7.5503	-27.469	31.921	0	0	0	1	0	0	17.47	2.0148	16.554	2
6785	67.85	0	0	0	0	0	0	0	0	0	0	0	0	0	0	0	0	0	0	0	0	0	0	0	0	10.989	-10.989	19.033	0	0	0	1	0	0	17.883	2.027	16.961	0	0	0	0	0	0	0	0	0	0	0	0	0	-1	0	-2.0278	-17.891	16.968	0	0	0	0	0	0	0	0	0	2
6786	67.86	0	0	0	0	0	0	0	0	0	0	0	0	0	0	0	0	0	0	0	0	0	0	0	0	10.989	-10.989	19.033	0	0	0	1	0	0	17.883	2.027	16.961	0	0	0	0	0	0	0	0	0	0	0	0	0	-1	0	-2.0278	-17.891	16.968	0	0	0	0	0	0	0	0	0	2
6787	67.87	0	0	0	0	0	0	10.917	-10.917	18.908	0	0	0	0	0	0	0	0	0	0	0	0	0	0	0	10.989	-10.989	19.033	0	0	0	1	0	0	17.883	2.027	16.961	0	0	0	0	0	0	0	0	0	0	0	0	0	0	0	0	0	0	0	0	0	0	0	0	0	0	0	2
6788	67.88	0	0	0	0	0	0	0	0	0	0	0	0	0	0	0	0	0	0	0	0	0	0	0	0	10.989	-10.989	19.033	0	0	0	1	0	0	17.761	2.1499	16.789	0	0	0	0	0	0	0	0	0	0	0	0	0	0	0	0	0	0	0	0	0	0	0	0	0	0	0	2
6789	67.89	0	0	0	0	0	0	10.917	-10.917	18.908	0	0	0	0	0	0	0	0	0	0	0	0	1	0	0	17.755	2.1475	16.785	0	0	0	1	0	0	17.883	2.027	16.961	0	0	0	0	0	0	0	0	0	0	0	0	0	0	0	0	0	0	0	0	0	1	0	0	30.423	8.5595	27.174	2
6790	67.9	0	0	0	0	0	0	0	0	0	0	0	0	0	0	0	0	0	0	0	0	0	0	0	0	10.989	-10.989	19.033	0	0	0	0	0	0	0	0	0	0	0	0	0	0	0	0	0	0	0	0	0	0	-1	0	-2.0278	-17.891	16.968	0	0	0	0	0	0	0	0	0	2
6791	67.91	0	0	0	0	0	0	10.917	-10.917	18.908	0	0	0	0	0	0	0	0	0	0	0	0	0	0	0	10.989	-10.989	19.033	0	0	0	1	0	0	17.883	2.027	16.961	0	0	0	0	0	0	0	0	0	0	0	0	1	-1	0	7.5503	-27.469	31.921	0	0	0	0	0	0	0	0	0	2
6792	67.92	0	0	0	0	0	0	0	0	0	0	0	0	0	0	0	0	0	0	0	0	0	0	0	0	10.989	-10.989	19.033	0	0	0	1	0	0	17.883	2.027	16.961	0	0	0	0	0	0	0	0	0	0	0	0	0	0	0	10.994	-10.994	19.042	0	0	0	0	0	0	0	0	0	2
6793	67.93	0	0	0	0	0	0	0	0	0	0	0	0	0	0	0	0	0	0	0	0	0	0	0	0	10.989	-10.989	19.033	0	0	0	1	0	0	17.883	2.027	16.961	0	0	0	1	0	0	17.883	2.027	16.961	0	0	0	0	0	0	0	0	0	0	0	0	0	0	0	0	0	0	2
6794	67.94	0	0	0	0	0	0	0	0	0	0	0	0	0	0	0	0	0	0	0	0	0	0	0	0	10.989	-10.989	19.033	0	0	0	1	0	0	17.883	2.027	16.961	0	0	0	0	0	0	0	0	0	0	0	0	0	0	0	0	0	0	0	0	0	0	0	0	0	0	0	2
6795	67.95	0	0	0	0	0	0	10.917	-10.917	18.908	0	0	0	0	0	0	0	0	0	0	0	0	0	0	0	10.989	-10.989	19.033	0	0	0	1	0	0	17.883	2.027	16.961	0	0	0	0	0	0	0	0	0	0	0	0	1	-1	0	7.5503	-27.469	31.921	0	0	0	0	0	0	0	0	0	2
6796	67.96	0	0	0	0	0	0	0	0	0	0	0	0	0	0	0	0	0	0	0	0	0	0	0	0	10.989	-10.989	19.033	0	0	0	1	0	0	17.883	2.027	16.961	0	0	0	0	0	0	0	0	0	0	0	0	0	0	0	0	0	0	0	0	0	1	0	0	17.47	2.0148	16.554	2
6797	67.97	0	0	0	0	0	0	10.917	-10.917	18.908	0	0	0	0	0	0	0	0	0	0	0	0	0	0	0	10.989	-10.989	19.033	0	0	0	1	0	0	17.883	2.027	16.961	0	0	0	0	0	0	0	0	0	0	0	0	0	0	0	0	0	0	0	0	0	0	0	0	0	0	0	2
6798	67.98	0	0	0	0	0	0	0	0	0	0	0	0	0	0	0	0	0	0	0	0	0	0	0	0	10.989	-10.989	19.033	0	0	0	1	0	0	17.883	2.027	16.961	0	0	0	0	0	0	0	0	0	0	0	0	0	0	0	10.994	-10.994	19.042	0	0	0	0	0	0	0	0	0	2
6799	67.99	0	0	0	0	0	0	10.917	-10.917	18.908	0	0	0	0	0	0	0	0	0	0	0	0	1	0	0	17.755	2.1475	16.785	0	0	0	1	0	0	17.883	2.027	16.961	0	0	0	0	0	0	0	0	0	0	0	0	0	0	0	10.994	-10.994	19.042	0	0	0	0	0	0	0	0	0	2
6800	68	0	0	0	0	0	0	0	0	0	0	0	0	0	0	0	0	0	0	0	0	0	0	0	0	10.989	-10.989	19.033	0	0	0	1	0	0	17.883	2.027	16.961	0	0	0	0	0	0	0	0	0	0	0	0	0	0	0	0	0	0	0	0	0	0	0	0	0	0	0	2
6801	68.01	0	0	0	0	-1	0	-2.0364	-17.814	16.888	0	0	0	0	0	0	0	0	0	0	0	0	1	0	0	17.755	2.1475	16.785	0	0	0	1	0	0	17.883	2.027	16.961	0	0	0	0	0	0	0	0	0	0	0	0	0	0	0	10.994	-10.994	19.042	0	0	0	1	0	0	17.47	2.0148	16.554	2
6802	68.02	0	0	0	0	0	0	0	0	0	0	0	0	0	0	0	0	0	0	0	0	0	0	0	0	10.989	-10.989	19.033	0	0	0	1	0	0	17.761	2.1499	16.789	0	0	0	0	0	0	0	0	0	0	0	0	0	0	0	10.994	-10.994	19.042	0	0	0	0	0	0	0	0	0	2
6803	68.03	0	0	0	0	0	0	0	0	0	0	0	0	0	0	0	0	0	0	0	0	0	0	0	0	10.989	-10.989	19.033	0	0	0	1	0	0	17.883	2.027	16.961	0	0	0	0	0	0	0	0	0	0	0	0	1	-1	0	7.5503	-27.469	31.921	0	0	0	1	0	0	17.47	2.0148	16.554	2
6804	68.04	0	0	0	0	0	0	10.917	-10.917	18.908	0	0	0	0	0	0	0	0	0	0	0	0	0	0	0	10.989	-10.989	19.033	0	0	0	1	0	0	17.761	2.1499	16.789	0	0	0	0	0	0	0	0	0	0	0	0	0	0	0	10.994	-10.994	19.042	0	0	0	0	0	0	0	0	0	2
6805	68.05	0	0	0	0	0	0	0	0	0	0	0	0	0	0	0	0	0	0	0	0	0	0	0	0	10.989	-10.989	19.033	0	0	0	1	0	0	17.761	2.1499	16.789	0	0	0	0	0	0	0	0	0	0	0	0	1	-1	0	7.5503	-27.469	31.921	0	0	0	1	0	0	17.47	2.0148	16.554	2
6806	68.06	0	0	0	0	0	0	0	0	0	0	0	0	0	0	0	0	0	0	0	0	0	0	0	0	10.989	-10.989	19.033	0	0	0	1	0	0	17.883	2.027	16.961	0	0	0	0	0	0	0	0	0	0	0	0	0	-1	0	-2.0278	-17.891	16.968	0	0	0	1	0	0	17.47	2.0148	16.554	0
6807	68.07	0	0	0	0	0	0	0	0	0	0	0	0	0	0	0	0	0	0	0	0	0	0	0	0	10.989	-10.989	19.033	0	0	0	1	0	0	17.883	2.027	16.961	0	0	0	0	0	0	0	0	0	0	0	0	0	0	0	10.994	-10.994	19.042	0	0	0	0	0	0	0	0	0	2
6808	68.08	0	0	0	0	0	0	0	0	0	0	0	0	0	0	0	0	0	0	0	0	0	0	0	0	10.989	-10.989	19.033	0	0	0	1	0	0	17.761	2.1499	16.789	0	0	0	0	0	0	0	0	0	0	0	0	1	-1	0	7.5503	-27.469	31.921	0	0	0	1	0	0	17.47	2.0148	16.554	2
6809	68.09	0	0	0	0	0	0	10.917	-10.917	18.908	0	0	0	0	0	0	0	0	0	0	0	0	0	0	0	10.989	-10.989	19.033	0	0	0	1	0	0	17.883	2.027	16.961	0	0	0	0	0	0	0	0	0	0	0	0	0	0	0	10.994	-10.994	19.042	0	0	0	0	0	0	0	0	0	2
6810	68.1	0	0	0	0	0	0	0	0	0	0	0	0	0	0	0	0	0	0	0	0	0	0	0	0	10.989	-10.989	19.033	0	0	0	1	0	0	17.883	2.027	16.961	0	0	0	0	0	0	0	0	0	0	0	0	1	-1	0	7.5503	-27.469	31.921	0	0	0	0	0	0	0	0	0	2
6811	68.11	0	0	0	0	0	0	0	0	0	0	0	0	0	0	0	0	0	0	0	0	0	1	0	0	17.755	2.1475	16.785	0	0	0	1	0	0	17.883	2.027	16.961	0	0	0	0	0	0	0	0	0	0	0	0	0	0	0	10.994	-10.994	19.042	0	0	0	1	0	0	17.47	2.0148	16.554	2
6812	68.12	0	0	0	0	0	0	0	0	0	0	0	0	0	0	0	0	0	0	0	0	0	0	0	0	10.989	-10.989	19.033	0	0	0	1	0	0	17.883	2.027	16.961	0	0	0	0	0	0	0	0	0	0	0	0	0	0	0	0	0	0	0	0	0	1	0	0	17.47	2.0148	16.554	2
6813	68.13	0	0	0	0	0	0	0	0	0	0	0	0	0	0	0	0	0	0	0	0	0	0	0	0	10.989	-10.989	19.033	0	0	0	1	0	0	17.761	2.1499	16.789	0	0	0	0	0	0	0	0	0	0	0	0	0	0	0	10.994	-10.994	19.042	0	0	0	1	0	0	17.47	2.0148	16.554	2
6814	68.14	0	0	0	0	0	0	0	0	0	0	0	0	0	0	0	0	0	0	0	0	0	0	0	0	10.989	-10.989	19.033	0	0	0	0	0	0	0	0	0	0	0	0	0	0	0	0	0	0	0	0	0	0	-1	0	-2.0278	-17.891	16.968	0	0	0	0	0	0	0	0	0	2
6815	68.15	0	0	0	0	0	0	0	0	0	0	0	0	0	0	0	0	0	0	0	0	0	0	0	0	10.989	-10.989	19.033	0	0	0	1	0	0	17.883	2.027	16.961	0	0	0	0	0	0	0	0	0	0	0	0	1	-1	0	7.5503	-27.469	31.921	0	0	0	0	0	0	0	0	0	2
6816	68.16	0	0	0	0	0	0	0	0	0	0	0	0	0	0	0	0	0	0	0	0	0	0	0	0	10.989	-10.989	19.033	0	0	0	1	0	0	17.761	2.1499	16.789	0	0	0	0	0	0	0	0	0	0	0	0	1	-1	0	7.5503	-27.469	31.921	0	0	0	1	0	0	17.47	2.0148	16.554	2
6817	68.17	0	0	0	0	0	0	0	0	0	0	0	0	0	0	0	0	0	0	0	0	0	0	0	0	10.989	-10.989	19.033	0	0	0	1	0	0	17.883	2.027	16.961	0	0	0	0	0	0	0	0	0	0	0	0	0	0	0	0	0	0	0	0	0	1	0	0	17.47	2.0148	16.554	0
6818	68.18	0	0	0	0	0	0	0	0	0	0	0	0	0	0	0	0	0	0	0	0	0	0	0	0	10.989	-10.989	19.033	0	0	0	1	0	0	17.883	2.027	16.961	0	0	0	0	0	0	0	0	0	0	0	0	0	0	0	0	0	0	0	0	0	0	0	0	0	0	0	2
6819	68.19	0	0	0	0	0	0	0	0	0	0	0	0	0	0	0	0	0	0	0	0	0	0	0	0	10.989	-10.989	19.033	0	0	0	1	0	0	17.883	2.027	16.961	0	0	0	1	0	0	17.883	2.027	16.961	0	0	0	0	0	0	10.994	-10.994	19.042	0	0	0	1	0	0	17.47	2.0148	16.554	2
6820	68.2	0	0	0	0	0	0	0	0	0	0	0	0	0	0	0	0	0	0	0	0	0	0	0	0	10.989	-10.989	19.033	0	0	0	1	0	0	17.883	2.027	16.961	0	0	0	0	0	0	0	0	0	0	0	0	1	-1	0	7.5503	-27.469	31.921	0	0	0	0	0	0	0	0	0	2
6821	68.21	0	0	0	0	0	0	0	0	0	0	0	0	0	0	0	0	0	0	0	0	0	0	0	0	10.989	-10.989	19.033	0	0	0	1	0	0	17.761	2.1499	16.789	0	0	0	1	0	0	17.883	2.027	16.961	0	0	0	0	0	0	0	0	0	0	0	0	0	0	0	0	0	0	0
6822	68.22	0	0	0	0	0	0	0	0	0	0	0	0	0	0	0	0	0	0	0	0	0	0	0	0	10.989	-10.989	19.033	0	0	0	1	0	0	17.883	2.027	16.961	0	0	0	0	0	0	0	0	0	0	0	0	0	-1	0	-2.0278	-17.891	16.968	0	0	0	0	0	0	0	0	0	2
6823	68.23	0	0	0	0	0	0	0	0	0	0	0	0	0	0	0	0	0	0	0	0	0	0	0	0	10.989	-10.989	19.033	0	0	0	1	0	0	17.761	2.1499	16.789	0	0	0	0	0	0	0	0	0	0	0	0	0	0	0	10.994	-10.994	19.042	0	0	0	1	0	0	17.47	2.0148	16.554	2
6824	68.24	0	0	0	0	0	0	0	0	0	0	0	0	0	0	0	0	0	0	0	0	0	0	0	0	10.989	-10.989	19.033	0	0	0	1	0	0	17.761	2.1499	16.789	0	0	0	0	0	0	0	0	0	0	0	0	1	-1	0	7.5503	-27.469	31.921	0	0	0	1	0	0	17.471	2.0135	16.556	2
6825	68.25	0	0	0	0	0	0	0	0	0	0	0	0	0	0	0	0	0	0	0	0	0	0	0	0	10.989	-10.989	19.033	0	0	0	0	0	0	0	0	0	0	0	0	0	0	0	0	0	0	0	0	0	0	-1	0	-2.0278	-17.891	16.968	0	0	0	0	0	0	0	0	0	2
6826	68.26	0	0	0	0	0	0	10.917	-10.917	18.908	0	0	0	0	0	0	0	0	0	0	0	0	0	0	0	10.989	-10.989	19.033	0	0	0	1	0	0	17.883	2.027	16.961	0	0	0	0	0	0	0	0	0	0	0	0	0	-1	0	-2.0278	-17.891	16.968	0	0	0	1	0	0	17.47	2.0148	16.554	2
6827	68.27	0	0	0	0	0	0	0	0	0	0	0	0	0	0	0	0	0	0	0	0	0	0	0	0	10.989	-10.989	19.033	0	0	0	1	0	0	17.883	2.027	16.961	0	0	0	0	0	0	0	0	0	0	0	0	0	0	0	10.994	-10.994	19.042	0	0	0	1	0	0	17.47	2.0148	16.554	2
6828	68.28	0	0	0	0	0	0	0	0	0	0	0	0	0	0	0	0	0	0	0	0	0	0	0	0	10.989	-10.989	19.033	0	0	0	1	0	0	17.761	2.1499	16.789	0	0	0	0	0	0	0	0	0	0	0	0	0	0	0	0	0	0	0	0	0	0	0	0	0	0	0	2
6829	68.29	0	0	0	0	0	0	0	0	0	0	0	0	0	0	0	0	0	0	0	0	0	0	0	0	10.989	-10.989	19.033	0	0	0	1	0	0	17.883	2.027	16.961	0	0	0	0	0	0	0	0	0	0	0	0	1	-1	0	7.5503	-27.469	31.921	0	0	0	1	0	0	17.47	2.0148	16.554	2
6830	68.3	0	0	0	0	0	0	0	0	0	0	0	0	0	0	0	0	0	0	0	0	0	0	0	0	10.989	-10.989	19.033	0	0	0	1	0	0	17.883	2.027	16.961	0	0	0	0	0	0	0	0	0	0	0	0	0	-1	0	-2.0278	-17.891	16.968	0	0	0	0	0	0	0	0	0	2
6831	68.31	0	0	0	0	0	0	0	0	0	0	0	0	0	0	0	0	0	0	0	0	0	0	0	0	10.989	-10.989	19.033	0	0	0	1	0	0	17.761	2.1499	16.789	0	0	0	0	0	0	0	0	0	0	0	0	1	-1	0	7.5503	-27.469	31.921	0	0	0	0	0	0	0	0	0	2
6832	68.32	0	0	0	0	0	0	0	0	0	0	0	0	0	0	0	0	0	0	0	0	0	0	0	0	10.989	-10.989	19.033	0	0	0	1	0	0	17.761	2.1499	16.789	0	0	0	0	0	0	0	0	0	0	0	0	0	-1	0	-2.0278	-17.891	16.968	0	0	0	1	0	0	17.47	2.0148	16.554	2
6833	68.33	0	0	0	0	0	0	0	0	0	0	0	0	0	0	0	0	0	0	0	0	0	0	0	0	10.989	-10.989	19.033	0	0	0	1	0	0	17.883	2.027	16.961	0	0	0	0	0	0	0	0	0	0	0	0	0	0	0	10.994	-10.994	19.042	0	0	0	1	0	0	17.47	2.0148	16.554	2
6834	68.34	0	0	0	0	0	0	0	0	0	0	0	0	0	0	0	0	0	0	0	0	0	0	0	0	10.989	-10.989	19.033	0	0	0	1	0	0	17.761	2.1499	16.789	0	0	0	0	0	0	0	0	0	0	0	0	0	0	0	10.994	-10.994	19.042	0	0	0	1	0	0	17.47	2.0148	16.554	2
6835	68.35	0	0	0	0	0	0	0	0	0	0	0	0	0	0	0	0	0	0	0	0	0	0	0	0	10.989	-10.989	19.033	0	0	0	1	0	0	17.883	2.027	16.961	0	0	0	0	0	0	0	0	0	0	0	0	0	0	0	0	0	0	0	0	0	1	0	0	17.47	2.0148	16.554	2
6836	68.36	0	0	0	0	0	0	0	0	0	0	0	0	0	0	0	0	0	0	0	0	0	0	0	0	10.989	-10.989	19.033	0	0	0	1	0	0	17.883	2.027	16.961	0	0	0	0	0	0	0	0	0	0	0	0	0	0	0	0	0	0	0	0	0	1	0	0	17.47	2.0148	16.554	2
6837	68.37	0	0	0	0	0	0	0	0	0	0	0	0	0	0	0	0	0	0	0	0	0	0	0	0	10.989	-10.989	19.033	0	0	0	1	0	0	17.883	2.027	16.961	0	0	0	0	0	0	0	0	0	0	0	0	0	0	0	0	0	0	0	0	0	0	0	0	0	0	0	2
6838	68.38	0	0	0	0	0	0	0	0	0	0	0	0	0	0	0	0	0	0	0	0	0	0	0	0	10.989	-10.989	19.033	0	0	0	1	0	0	17.883	2.027	16.961	0	0	0	0	0	0	0	0	0	0	0	0	0	0	0	0	0	0	0	0	0	1	0	0	17.47	2.0148	16.554	2
6839	68.39	0	0	0	0	0	0	0	0	0	0	0	0	0	0	0	0	0	0	0	0	0	0	0	0	10.989	-10.989	19.033	0	0	0	1	0	0	17.761	2.1499	16.789	0	0	0	0	0	0	0	0	0	0	0	0	1	-1	0	7.5503	-27.469	31.921	0	0	0	1	0	0	17.47	2.0148	16.554	2
6840	68.4	0	0	0	0	0	0	0	0	0	0	0	0	0	0	0	0	0	0	0	0	0	0	0	0	10.989	-10.989	19.033	0	0	0	1	0	0	17.883	2.027	16.961	0	0	0	0	0	0	0	0	0	0	0	0	0	0	0	10.994	-10.994	19.042	0	0	0	0	0	0	0	0	0	2
6841	68.41	0	0	0	0	0	0	10.917	-10.917	18.908	0	0	0	0	0	0	0	0	0	0	0	0	0	0	0	10.989	-10.989	19.033	0	0	0	1	0	0	17.883	2.027	16.961	0	0	0	0	0	0	0	0	0	0	0	0	0	0	0	10.994	-10.994	19.042	0	0	0	1	0	0	17.47	2.0148	16.554	2
6842	68.42	0	0	0	0	0	0	0	0	0	0	0	0	0	0	0	0	0	0	0	0	0	0	0	0	10.989	-10.989	19.033	0	0	0	1	0	0	17.883	2.027	16.961	0	0	0	0	0	0	0	0	0	0	0	0	0	0	0	0	0	0	0	0	0	0	0	0	0	0	0	0
6843	68.43	0	0	0	0	0	0	0	0	0	0	0	0	0	0	0	0	0	0	0	0	0	0	0	0	10.989	-10.989	19.033	0	0	0	1	0	0	17.883	2.027	16.961	0	0	0	0	0	0	0	0	0	0	0	0	0	0	0	10.994	-10.994	19.042	0	0	0	0	0	0	0	0	0	2
6844	68.44	0	0	0	0	0	0	0	0	0	0	0	0	0	0	0	0	0	0	0	0	0	1	0	0	17.755	2.1475	16.785	0	0	0	1	0	0	17.883	2.027	16.961	0	0	0	0	0	0	0	0	0	0	0	0	0	-1	0	-2.0278	-17.891	16.968	0	0	0	1	0	0	17.47	2.0148	16.554	2
6845	68.45	0	0	0	0	0	0	0	0	0	0	0	0	0	0	0	0	0	0	0	0	0	0	0	0	10.989	-10.989	19.033	0	0	0	1	0	0	17.761	2.1499	16.789	0	0	0	0	0	0	0	0	0	0	0	0	0	0	0	0	0	0	0	0	0	0	0	0	0	0	0	2
6846	68.46	0	0	0	0	0	0	0	0	0	0	0	0	0	0	0	0	0	0	0	0	0	0	0	0	10.989	-10.989	19.033	0	0	0	1	0	0	17.883	2.027	16.961	0	0	0	0	0	0	0	0	0	0	0	0	0	0	0	10.994	-10.994	19.042	0	0	0	1	0	0	30.423	8.5595	27.174	2
6847	68.47	0	0	0	0	0	0	0	0	0	0	0	0	0	0	0	0	0	0	0	0	0	0	0	0	10.989	-10.989	19.033	0	0	0	1	0	0	17.883	2.027	16.961	0	0	0	0	0	0	0	0	0	0	0	0	0	-1	0	-2.0278	-17.891	16.968	0	0	0	1	0	0	17.47	2.0148	16.554	2
6848	68.48	0	0	0	0	0	0	10.917	-10.917	18.908	0	0	0	0	0	0	0	0	0	0	0	0	0	0	0	10.989	-10.989	19.033	0	0	0	1	0	0	17.883	2.027	16.961	0	0	0	0	0	0	0	0	0	0	0	0	0	0	0	0	0	0	0	0	0	0	0	0	0	0	0	2
6849	68.49	0	0	0	0	0	0	0	0	0	0	0	0	0	0	0	0	0	0	0	0	0	0	0	0	10.989	-10.989	19.033	0	0	0	1	0	0	17.761	2.1499	16.789	0	0	0	0	0	0	0	0	0	0	0	0	0	0	0	10.994	-10.994	19.042	0	0	0	1	0	0	17.47	2.0148	16.554	2
6850	68.5	0	0	0	0	0	0	0	0	0	0	0	0	0	0	0	0	0	0	0	0	0	0	0	0	10.989	-10.989	19.033	0	0	0	1	0	0	17.883	2.027	16.961	0	0	0	0	0	0	0	0	0	0	0	0	0	-1	0	-2.0278	-17.891	16.968	0	0	0	0	0	0	0	0	0	2
6851	68.51	0	0	0	0	0	0	0	0	0	0	0	0	0	0	0	0	0	0	0	0	0	0	0	0	10.989	-10.989	19.033	0	0	0	1	0	0	17.883	2.027	16.961	0	0	0	0	0	0	0	0	0	0	0	0	0	0	0	0	0	0	0	0	0	0	0	0	0	0	0	2
6852	68.52	0	0	0	0	0	0	0	0	0	0	0	0	0	0	0	0	0	0	0	0	0	0	0	0	10.989	-10.989	19.033	0	0	0	1	0	0	17.883	2.027	16.961	0	0	0	0	0	0	0	0	0	0	0	0	0	-1	0	-2.0278	-17.891	16.968	0	0	0	0	0	0	0	0	0	2
6853	68.53	0	0	0	0	0	0	10.917	-10.917	18.908	0	0	0	0	0	0	0	0	0	0	0	0	0	0	0	10.989	-10.989	19.033	0	0	0	1	0	0	17.761	2.1499	16.789	0	0	0	0	0	0	0	0	0	0	0	0	0	0	0	0	0	0	0	0	0	1	0	0	17.47	2.0148	16.554	2
6854	68.54	0	0	0	0	0	0	10.917	-10.917	18.908	0	0	0	0	0	0	0	0	0	0	0	0	0	0	0	10.989	-10.989	19.033	0	0	0	1	0	0	17.761	2.1499	16.789	0	0	0	0	0	0	0	0	0	0	0	0	0	-1	0	-2.0278	-17.891	16.968	0	0	0	0	0	0	0	0	0	2
6855	68.55	0	0	0	0	0	0	0	0	0	0	0	0	0	0	0	0	0	0	0	0	0	0	0	0	10.989	-10.989	19.033	0	0	0	0	0	0	0	0	0	0	0	0	0	0	0	0	0	0	0	0	0	0	-1	0	-2.0278	-17.891	16.968	0	0	0	0	0	0	0	0	0	2
6856	68.56	0	0	0	0	0	0	10.917	-10.917	18.908	0	0	0	0	0	0	0	0	0	0	0	0	0	0	0	10.989	-10.989	19.033	0	0	0	1	0	0	17.883	2.027	16.961	0	0	0	0	0	0	0	0	0	0	0	0	0	0	0	10.994	-10.994	19.042	0	0	0	0	0	0	0	0	0	2
6857	68.57	0	0	0	0	0	0	0	0	0	0	0	0	0	0	0	0	0	0	0	0	0	0	0	0	10.989	-10.989	19.033	0	0	0	1	0	0	17.761	2.1499	16.789	0	0	0	0	0	0	0	0	0	0	0	0	0	0	0	0	0	0	0	0	0	0	0	0	0	0	0	2
6858	68.58	0	0	0	0	0	0	0	0	0	0	0	0	0	0	0	0	0	0	0	0	0	0	0	0	10.989	-10.989	19.033	0	0	0	1	0	0	17.883	2.027	16.961	0	0	0	0	0	0	0	0	0	0	0	0	0	-1	0	-2.0278	-17.891	16.968	0	0	0	1	0	0	17.47	2.0148	16.554	2
6859	68.59	0	0	0	0	0	0	0	0	0	0	0	0	0	0	0	0	0	0	0	0	0	1	0	0	17.755	2.1475	16.785	0	0	0	1	0	0	17.761	2.1499	16.789	0	0	0	1	0	0	17.883	2.027	16.961	0	0	0	0	0	0	10.994	-10.994	19.042	0	0	0	0	0	0	0	0	0	2
6860	68.6	0	0	0	0	0	0	0	0	0	0	0	0	0	0	0	0	0	0	0	0	0	0	0	0	10.989	-10.989	19.033	0	0	0	1	0	0	17.883	2.027	16.961	0	0	0	0	0	0	0	0	0	0	0	0	0	-1	0	-2.0278	-17.891	16.968	0	0	0	0	0	0	0	0	0	2
6861	68.61	0	0	0	0	0	0	0	0	0	0	0	0	0	0	0	0	0	0	0	0	0	1	0	0	17.755	2.1475	16.785	0	0	0	1	0	0	17.761	2.1499	16.789	0	0	0	0	0	0	0	0	0	0	0	0	0	0	0	0	0	0	0	0	0	1	0	0	17.47	2.0148	16.554	2
6862	68.62	0	0	0	0	0	0	0	0	0	0	0	0	0	0	0	0	0	0	0	0	0	0	0	0	10.989	-10.989	19.033	0	0	0	1	0	0	17.883	2.027	16.961	0	0	0	0	0	0	0	0	0	0	0	0	0	-1	0	-2.0278	-17.891	16.968	0	0	0	0	0	0	0	0	0	2
6863	68.63	0	0	0	0	0	0	0	0	0	0	0	0	0	0	0	0	0	0	0	0	0	0	0	0	10.989	-10.989	19.033	0	0	0	1	0	0	17.761	2.1499	16.789	0	0	0	0	0	0	0	0	0	0	0	0	0	0	0	0	0	0	0	0	0	1	0	0	17.47	2.0148	16.554	2
6864	68.64	0	0	0	0	0	0	0	0	0	0	0	0	0	0	0	0	0	0	0	0	0	0	0	0	10.989	-10.989	19.033	0	0	0	1	0	0	17.883	2.027	16.961	0	0	0	1	0	0	17.883	2.027	16.961	0	0	0	0	0	0	0	0	0	0	0	0	0	0	0	0	0	0	2
6865	68.65	0	0	0	0	0	0	0	0	0	0	0	0	0	0	0	0	0	0	0	0	0	0	0	0	10.989	-10.989	19.033	0	0	0	1	0	0	17.761	2.1499	16.789	0	0	0	0	0	0	0	0	0	0	0	0	0	-1	0	-2.0278	-17.891	16.968	0	0	0	0	0	0	0	0	0	2
6866	68.66	0	0	0	0	0	0	0	0	0	0	0	0	0	0	0	0	0	0	0	0	0	0	0	0	10.989	-10.989	19.033	0	0	0	1	0	0	17.883	2.027	16.961	0	0	0	0	0	0	0	0	0	0	0	0	1	-1	0	7.5503	-27.469	31.921	0	0	0	1	0	0	17.47	2.0148	16.554	2
6867	68.67	0	0	0	0	0	0	0	0	0	0	0	0	0	0	0	0	0	0	0	0	0	0	0	0	10.989	-10.989	19.033	0	0	0	1	0	0	17.883	2.027	16.961	0	0	0	0	0	0	0	0	0	0	0	0	0	-1	0	-2.0278	-17.891	16.968	0	0	0	0	0	0	0	0	0	2
6868	68.68	0	0	0	0	0	0	0	0	0	0	0	0	0	0	0	0	0	0	0	0	0	0	0	0	10.989	-10.989	19.033	0	0	0	1	0	0	17.883	2.027	16.961	0	0	0	0	0	0	0	0	0	0	0	0	0	-1	0	-2.0278	-17.891	16.968	0	0	0	0	0	0	0	0	0	2
6869	68.69	0	0	0	0	0	0	0	0	0	0	0	0	0	0	0	0	0	0	0	0	0	1	0	0	17.755	2.1475	16.785	0	0	0	1	0	0	17.761	2.1499	16.789	0	0	0	0	0	0	0	0	0	0	0	0	0	0	0	0	0	0	0	0	0	1	0	0	17.47	2.0148	16.554	2
6870	68.7	0	0	0	0	0	0	0	0	0	0	0	0	0	0	0	0	0	0	0	0	0	0	0	0	10.989	-10.989	19.033	0	0	0	0	0	0	0	0	0	0	0	0	0	0	0	0	0	0	0	0	0	0	-1	0	-2.0278	-17.891	16.968	0	0	0	0	0	0	0	0	0	2
6871	68.71	0	0	0	0	0	0	10.917	-10.917	18.908	0	0	0	0	0	0	0	0	0	0	0	0	1	0	0	17.755	2.1475	16.785	0	0	0	1	0	0	17.883	2.027	16.961	0	0	0	0	0	0	0	0	0	0	0	0	1	-1	0	7.5503	-27.469	31.921	0	0	0	1	0	0	17.47	2.0148	16.554	2
6872	68.72	0	0	0	0	0	0	0	0	0	0	0	0	0	0	0	0	0	0	0	0	0	0	0	0	10.989	-10.989	19.033	0	0	0	1	0	0	17.883	2.027	16.961	0	0	0	0	0	0	0	0	0	0	0	0	0	-1	0	-2.0278	-17.891	16.968	0	0	0	0	0	0	0	0	0	2
6873	68.73	0	0	0	0	0	0	0	0	0	0	0	0	0	0	0	0	0	0	0	0	0	0	0	0	10.989	-10.989	19.033	0	0	0	0	0	0	0	0	0	0	0	0	0	0	0	0	0	0	0	0	0	0	-1	0	-2.0278	-17.891	16.968	0	0	0	1	0	0	17.47	2.0148	16.554	2
6874	68.74	0	0	0	0	0	0	10.917	-10.917	18.908	0	0	0	0	0	0	0	0	0	0	0	0	0	0	0	10.989	-10.989	19.033	0	0	0	1	0	0	17.761	2.1499	16.789	0	0	0	0	0	0	0	0	0	0	0	0	0	0	0	10.994	-10.994	19.042	0	0	0	1	0	0	17.47	2.0148	16.554	2
6875	68.75	0	0	0	0	0	0	0	0	0	0	0	0	0	0	0	0	0	0	0	0	0	0	0	0	10.989	-10.989	19.033	0	0	0	0	0	0	10.991	-10.991	19.037	0	0	0	0	0	0	0	0	0	0	0	0	1	-1	0	7.5503	-27.469	31.921	0	0	0	0	0	0	0	0	0	2
6876	68.76	0	0	0	0	0	0	0	0	0	0	0	0	0	0	0	0	0	0	0	0	0	1	0	0	17.755	2.1475	16.785	0	0	0	1	0	0	17.761	2.1499	16.789	0	0	0	0	0	0	0	0	0	0	0	0	0	0	0	10.994	-10.994	19.042	0	0	0	0	0	0	0	0	0	2
6877	68.77	0	0	0	0	0	0	10.917	-10.917	18.908	0	0	0	0	0	0	0	0	0	0	0	0	1	0	0	17.755	2.1475	16.785	0	0	0	0	0	0	0	0	0	0	0	0	0	0	0	0	0	0	0	0	0	0	-1	0	-2.0278	-17.891	16.968	0	0	0	0	0	0	0	0	0	2
6878	68.78	0	0	0	0	0	0	0	0	0	0	0	0	0	0	0	0	0	0	0	0	0	0	0	0	10.989	-10.989	19.033	0	0	0	1	0	0	17.883	2.027	16.961	0	0	0	0	0	0	0	0	0	0	0	0	0	-1	0	-2.0278	-17.891	16.968	0	0	0	1	0	0	17.47	2.0148	16.554	2
6879	68.79	0	0	0	0	0	0	0	0	0	0	0	0	0	0	0	0	0	0	0	0	0	0	0	0	10.989	-10.989	19.033	0	0	0	1	0	0	17.883	2.027	16.961	0	0	0	0	0	0	0	0	0	0	0	0	0	0	0	0	0	0	0	0	0	0	0	0	0	0	0	2
6880	68.8	0	0	0	0	0	0	0	0	0	0	0	0	0	0	0	0	0	0	0	0	0	0	0	0	10.989	-10.989	19.033	0	0	0	1	0	0	17.883	2.027	16.961	0	0	0	0	0	0	0	0	0	0	0	0	1	-1	0	7.5503	-27.469	31.921	0	0	0	0	0	0	0	0	0	2
6881	68.81	0	0	0	0	0	0	0	0	0	0	0	0	0	0	0	0	0	0	0	0	0	0	0	0	10.989	-10.989	19.033	0	0	0	1	0	0	17.761	2.1499	16.789	0	0	0	0	0	0	0	0	0	0	0	0	0	-1	0	-2.0278	-17.891	16.968	0	0	0	0	0	0	0	0	0	0
6882	68.82	0	0	0	0	0	0	0	0	0	0	0	0	0	0	0	0	0	0	0	0	0	0	0	0	10.989	-10.989	19.033	0	0	0	1	0	0	17.883	2.027	16.961	0	0	0	0	0	0	0	0	0	0	0	0	0	-1	0	-2.0278	-17.891	16.968	0	0	0	0	0	0	0	0	0	2
6883	68.83	0	0	0	0	0	0	0	0	0	0	0	0	0	0	0	0	0	0	0	0	0	0	0	0	10.989	-10.989	19.033	0	0	0	1	0	0	17.883	2.027	16.961	0	0	0	0	0	0	0	0	0	0	0	0	0	-1	0	-2.0278	-17.891	16.968	0	0	0	1	0	0	17.47	2.0148	16.554	2
6884	68.84	0	0	0	0	0	0	0	0	0	0	0	0	0	0	0	0	0	0	0	0	0	1	0	0	17.755	2.1475	16.785	0	0	0	1	0	0	17.883	2.027	16.961	0	0	0	0	0	0	0	0	0	0	0	0	0	0	0	0	0	0	0	0	0	0	0	0	0	0	0	2
6885	68.85	0	0	0	0	0	0	0	0	0	0	0	0	0	0	0	0	0	0	0	0	0	0	0	0	10.989	-10.989	19.033	0	0	0	1	0	0	17.761	2.1499	16.789	0	0	0	0	0	0	0	0	0	0	0	0	0	-1	0	-2.0278	-17.891	16.968	0	0	0	0	0	0	0	0	0	2
6886	68.86	0	0	0	0	0	0	10.917	-10.917	18.908	0	0	0	0	0	0	0	0	0	0	0	0	1	0	0	17.755	2.1475	16.785	0	0	0	1	0	0	17.883	2.027	16.961	0	0	0	0	0	0	0	0	0	0	0	0	0	-1	0	-2.0278	-17.891	16.968	0	0	0	0	0	0	0	0	0	2
6887	68.87	0	0	0	0	0	0	0	0	0	0	0	0	0	0	0	0	0	0	0	0	0	0	0	0	10.989	-10.989	19.033	0	0	0	1	0	0	17.883	2.027	16.961	0	0	0	0	0	0	0	0	0	0	0	0	0	-1	0	-2.0278	-17.891	16.968	0	0	0	0	0	0	0	0	0	2
6888	68.88	0	0	0	0	0	0	0	0	0	0	0	0	0	0	0	0	0	0	0	0	0	0	0	0	10.989	-10.989	19.033	0	0	0	1	0	0	17.883	2.027	16.961	0	0	0	0	0	0	0	0	0	0	0	0	0	0	0	0	0	0	0	0	0	0	0	0	0	0	0	2
6889	68.89	0	0	0	0	0	0	0	0	0	0	0	0	0	0	0	0	0	0	0	0	0	0	0	0	10.989	-10.989	19.033	0	0	0	1	0	0	17.883	2.027	16.961	0	0	0	0	0	0	0	0	0	0	0	0	0	-1	0	-2.0278	-17.891	16.968	0	0	0	0	0	0	0	0	0	3
6890	68.9	0	0	0	0	0	0	0	0	0	0	0	0	0	0	0	0	0	0	0	0	0	0	0	0	10.989	-10.989	19.033	0	0	0	1	0	0	17.761	2.1499	16.789	0	0	0	0	0	0	0	0	0	0	0	0	0	-1	0	-2.0278	-17.891	16.968	0	0	0	1	0	0	17.47	2.0148	16.554	2
6891	68.91	0	0	0	0	0	0	0	0	0	0	0	0	0	0	0	0	0	0	0	0	0	0	0	0	10.989	-10.989	19.033	0	0	0	1	0	0	17.883	2.027	16.961	0	0	0	0	0	0	0	0	0	0	0	0	0	0	0	0	0	0	0	0	0	1	0	0	17.47	2.0148	16.554	2
6892	68.92	0	0	0	0	0	0	0	0	0	0	0	0	0	0	0	0	0	0	0	0	0	0	0	0	10.989	-10.989	19.033	0	0	0	1	0	0	17.761	2.1499	16.789	0	0	0	0	0	0	0	0	0	0	0	0	1	-1	0	7.5503	-27.469	31.921	0	0	0	0	0	0	0	0	0	2
6893	68.93	0	0	0	0	0	0	0	0	0	0	0	0	0	0	0	0	0	0	0	0	0	0	0	0	10.989	-10.989	19.033	0	0	0	1	0	0	17.883	2.027	16.961	0	0	0	0	0	0	0	0	0	0	0	0	0	0	0	0	0	0	0	0	0	0	0	0	0	0	0	2
6894	68.94	0	0	0	0	0	0	0	0	0	0	0	0	0	0	0	0	0	0	0	0	0	0	0	0	10.989	-10.989	19.033	0	0	0	1	0	0	17.883	2.027	16.961	0	0	0	0	0	0	0	0	0	0	0	0	0	-1	0	-2.0278	-17.891	16.968	0	0	0	0	0	0	0	0	0	2
6895	68.95	0	0	0	0	0	0	10.917	-10.917	18.908	0	0	0	0	0	0	0	0	0	0	0	0	0	0	0	10.989	-10.989	19.033	0	0	0	1	0	0	17.761	2.1499	16.789	0	0	0	0	0	0	0	0	0	0	0	0	0	0	0	0	0	0	0	0	0	0	0	0	0	0	0	2
6896	68.96	0	0	0	0	0	0	0	0	0	0	0	0	0	0	0	0	0	0	0	0	0	1	0	0	17.755	2.1475	16.785	0	0	0	1	0	0	17.761	2.1499	16.789	0	0	0	0	0	0	0	0	0	0	0	0	0	0	0	0	0	0	0	0	0	1	0	0	17.47	2.0148	16.554	2
6897	68.97	0	0	0	0	0	0	0	0	0	0	0	0	0	0	0	0	0	0	0	0	0	0	0	0	10.989	-10.989	19.033	0	0	0	1	0	0	17.761	2.1499	16.789	0	0	0	0	0	0	0	0	0	0	0	0	0	-1	0	-2.0278	-17.891	16.968	0	0	0	0	0	0	0	0	0	2
6898	68.98	0	0	0	0	0	0	0	0	0	0	0	0	0	0	0	0	0	0	0	0	0	0	0	0	10.989	-10.989	19.033	0	0	0	1	0	0	17.883	2.027	16.961	0	0	0	0	0	0	0	0	0	0	0	0	0	0	0	0	0	0	0	0	0	0	0	0	0	0	0	2
6899	68.99	0	0	0	0	0	0	10.917	-10.917	18.908	0	0	0	0	0	0	0	0	0	0	0	0	0	0	0	10.989	-10.989	19.033	0	0	0	1	0	0	17.883	2.027	16.961	0	0	0	0	0	0	0	0	0	0	0	0	1	-1	0	7.5503	-27.469	31.921	0	0	0	1	0	0	17.47	2.0148	16.554	2
6900	69	0	0	0	0	0	0	0	0	0	0	0	0	0	0	0	0	0	0	0	0	0	0	0	0	10.989	-10.989	19.033	0	0	0	1	0	0	17.883	2.027	16.961	0	0	0	0	0	0	0	0	0	0	0	0	0	0	0	0	0	0	0	0	0	1	0	0	17.47	2.0148	16.554	2
6901	69.01	0	0	0	0	0	0	0	0	0	0	0	0	0	0	0	0	0	0	0	0	0	1	0	0	17.755	2.1475	16.785	0	0	0	1	0	0	17.761	2.1499	16.789	0	0	0	0	0	0	0	0	0	0	0	0	0	-1	0	-2.0278	-17.891	16.968	0	0	0	0	0	0	0	0	0	0
6902	69.02	0	0	0	0	0	0	0	0	0	0	0	0	0	0	0	0	0	0	0	0	0	0	0	0	10.989	-10.989	19.033	0	0	0	0	0	0	0	0	0	0	0	0	0	0	0	0	0	0	0	0	0	1	-1	0	7.5503	-27.469	31.921	0	0	0	0	0	0	0	0	0	2
6903	69.03	0	0	0	0	0	0	0	0	0	0	0	0	0	0	0	0	0	0	0	0	0	0	0	0	10.989	-10.989	19.033	0	0	0	1	0	0	17.883	2.027	16.961	0	0	0	0	0	0	0	0	0	0	0	0	0	-1	0	-2.0278	-17.891	16.968	0	0	0	0	0	0	0	0	0	2
6904	69.04	0	0	0	0	0	0	0	0	0	0	0	0	0	0	0	0	0	0	0	0	0	0	0	0	10.989	-10.989	19.033	0	0	0	1	0	0	17.761	2.1499	16.789	0	0	0	0	0	0	0	0	0	0	0	0	0	0	0	10.994	-10.994	19.042	0	0	0	1	0	0	17.47	2.0148	16.554	2
6905	69.05	0	0	0	0	0	0	0	0	0	0	0	0	0	0	0	0	0	0	0	0	0	0	0	0	10.989	-10.989	19.033	0	0	0	1	0	0	17.883	2.027	16.961	0	0	0	0	0	0	0	0	0	0	0	0	0	0	0	0	0	0	0	0	0	0	0	0	0	0	0	2
6906	69.06	0	0	0	0	0	0	0	0	0	0	0	0	0	0	0	0	0	0	0	0	0	1	0	0	17.755	2.1475	16.785	0	0	0	1	0	0	17.761	2.1499	16.789	0	0	0	0	0	0	0	0	0	0	0	0	0	0	0	0	0	0	0	0	0	1	0	0	17.47	2.0148	16.554	2
6907	69.07	0	0	0	0	0	0	10.917	-10.917	18.908	0	0	0	0	0	0	0	0	0	0	0	0	0	0	0	10.989	-10.989	19.033	0	0	0	1	0	0	17.761	2.1499	16.789	0	0	0	0	0	0	0	0	0	0	0	0	0	0	0	0	0	0	0	0	0	0	0	0	0	0	0	2
6908	69.08	0	0	0	0	0	0	0	0	0	0	0	0	0	0	0	0	0	0	0	0	0	0	0	0	10.989	-10.989	19.033	0	0	0	1	0	0	17.883	2.027	16.961	0	0	0	0	0	0	0	0	0	0	0	0	0	0	0	0	0	0	0	0	0	0	0	0	0	0	0	2
6909	69.09	0	0	0	0	0	0	0	0	0	0	0	0	0	0	0	0	0	0	0	0	0	0	0	0	10.989	-10.989	19.033	0	0	0	1	0	0	17.761	2.1499	16.789	0	0	0	0	0	0	0	0	0	0	0	0	0	-1	0	-2.0278	-17.891	16.968	0	0	0	1	0	0	17.47	2.0148	16.554	2
6910	69.1	0	0	0	0	0	0	0	0	0	0	0	0	0	0	0	0	0	0	0	0	0	0	0	0	10.989	-10.989	19.033	0	0	0	1	0	0	17.761	2.1499	16.789	0	0	0	0	0	0	0	0	0	0	0	0	0	0	0	0	0	0	0	0	0	0	0	0	0	0	0	2
6911	69.11	0	0	0	0	0	0	0	0	0	0	0	0	0	0	0	0	0	0	0	0	0	1	0	0	17.755	2.1475	16.785	0	0	0	1	0	0	17.883	2.027	16.961	0	0	0	0	0	0	0	0	0	0	0	0	0	0	0	0	0	0	0	0	0	1	0	0	17.47	2.0148	16.554	2
6912	69.12	0	0	0	0	0	0	0	0	0	0	0	0	0	0	0	0	0	0	0	0	0	0	0	0	10.989	-10.989	19.033	0	0	0	1	0	0	17.761	2.1499	16.789	0	0	0	0	0	0	0	0	0	0	0	0	0	-1	0	-2.0278	-17.891	16.968	0	0	0	0	0	0	0	0	0	2
6913	69.13	0	0	0	0	0	0	0	0	0	0	0	0	0	0	0	0	0	0	0	0	0	0	0	0	10.989	-10.989	19.033	0	0	0	1	0	0	17.761	2.1499	16.789	0	0	0	0	0	0	0	0	0	0	0	0	0	0	0	0	0	0	0	0	0	1	0	0	17.47	2.0148	16.554	2
6914	69.14	0	0	0	0	0	0	0	0	0	0	0	0	0	0	0	0	0	0	0	0	0	1	0	0	17.755	2.1475	16.785	0	0	0	1	0	0	17.883	2.027	16.961	0	0	0	0	0	0	0	0	0	0	0	0	0	0	0	0	0	0	0	0	0	0	0	0	0	0	0	2
6915	69.15	0	0	0	0	0	0	0	0	0	0	0	0	0	0	0	0	0	0	0	0	0	0	0	0	10.989	-10.989	19.033	0	0	0	1	0	0	17.883	2.027	16.961	0	0	0	0	0	0	0	0	0	0	0	0	0	-1	0	-2.0278	-17.891	16.968	0	0	0	0	0	0	0	0	0	2
6916	69.16	0	0	0	0	0	0	0	0	0	0	0	0	0	0	0	0	0	0	0	0	0	0	0	0	10.989	-10.989	19.033	0	0	0	1	0	0	17.883	2.027	16.961	0	0	0	0	0	0	0	0	0	0	0	0	0	-1	0	-2.0278	-17.891	16.968	0	0	0	0	0	0	0	0	0	2
6917	69.17	0	0	0	0	0	0	0	0	0	0	0	0	0	0	0	0	0	0	0	0	0	0	0	0	10.989	-10.989	19.033	0	0	0	1	0	0	17.761	2.1499	16.789	0	0	0	0	0	0	0	0	0	0	0	0	0	0	0	10.994	-10.994	19.042	0	0	0	1	0	0	17.47	2.0148	16.554	2
6918	69.18	0	0	0	0	0	0	10.917	-10.917	18.908	0	0	0	0	0	0	0	0	0	0	0	0	1	0	0	17.755	2.1475	16.785	0	0	0	1	0	0	17.761	2.1499	16.789	0	0	0	0	0	0	0	0	0	0	0	0	0	0	0	0	0	0	0	0	0	0	0	0	0	0	0	2
6919	69.19	0	0	0	0	0	0	0	0	0	0	0	0	0	0	0	0	0	0	0	0	0	0	0	0	10.989	-10.989	19.033	0	0	0	1	0	0	17.883	2.027	16.961	0	0	0	0	0	0	0	0	0	0	0	0	1	-1	0	7.5503	-27.469	31.921	0	0	0	1	0	0	17.47	2.0148	16.554	2
6920	69.2	0	0	0	0	0	0	0	0	0	0	0	0	0	0	0	0	0	0	0	0	0	0	0	0	10.989	-10.989	19.033	0	0	0	1	0	0	17.883	2.027	16.961	0	0	0	0	0	0	0	0	0	0	0	0	0	-1	0	-2.0278	-17.891	16.968	0	0	0	0	0	0	0	0	0	2
6921	69.21	0	0	0	0	0	0	0	0	0	0	0	0	0	0	0	0	0	0	0	0	0	0	0	0	10.989	-10.989	19.033	0	0	0	1	0	0	17.761	2.1499	16.789	0	0	0	0	0	0	0	0	0	0	0	0	0	-1	0	-2.0278	-17.891	16.968	0	0	0	0	0	0	0	0	0	2
6922	69.22	0	0	0	0	0	0	10.917	-10.917	18.908	0	0	0	0	0	0	0	0	0	0	0	0	0	0	0	10.989	-10.989	19.033	0	0	0	1	0	0	17.883	2.027	16.961	0	0	0	0	0	0	0	0	0	0	0	0	0	-1	0	-2.0278	-17.891	16.968	0	0	0	0	0	0	0	0	0	2
6923	69.23	0	0	0	0	0	0	0	0	0	0	0	0	0	0	0	0	0	0	0	0	0	0	0	0	10.989	-10.989	19.033	0	0	0	1	0	0	17.883	2.027	16.961	0	0	0	0	0	0	0	0	0	0	0	0	0	-1	0	-2.0278	-17.891	16.968	0	0	0	0	0	0	0	0	0	2
6924	69.24	0	0	0	0	0	0	0	0	0	0	0	0	0	0	0	0	0	0	0	0	0	0	0	0	10.989	-10.989	19.033	0	0	0	1	0	0	17.761	2.1499	16.789	0	0	0	0	0	0	0	0	0	0	0	0	0	-1	0	-2.0278	-17.891	16.968	0	0	0	0	0	0	0	0	0	2
6925	69.25	0	0	0	0	0	0	0	0	0	0	0	0	0	0	0	0	0	0	0	0	0	0	0	0	10.989	-10.989	19.033	0	0	0	1	0	0	17.883	2.027	16.961	0	0	0	0	0	0	0	0	0	0	0	0	0	-1	0	-2.0278	-17.891	16.968	0	0	0	0	0	0	0	0	0	2
6926	69.26	0	0	0	0	0	0	0	0	0	0	0	0	0	0	0	0	0	0	0	0	0	1	0	0	17.755	2.1475	16.785	0	0	0	1	0	0	17.761	2.1499	16.789	0	0	0	0	0	0	0	0	0	0	0	0	0	-1	0	-2.0278	-17.891	16.968	0	0	0	0	0	0	0	0	0	2
6927	69.27	0	0	0	0	0	0	0	0	0	0	0	0	0	0	0	0	0	0	0	0	0	0	0	0	10.989	-10.989	19.033	0	0	0	1	0	0	17.761	2.1499	16.789	0	0	0	0	0	0	0	0	0	0	0	0	0	-1	0	-2.0278	-17.891	16.968	0	0	0	0	0	0	0	0	0	2
6928	69.28	0	0	0	0	0	0	0	0	0	0	0	0	0	0	0	0	0	0	0	0	0	0	0	0	10.989	-10.989	19.033	0	0	0	1	0	0	17.883	2.027	16.961	0	0	0	0	0	0	0	0	0	0	0	0	0	-1	0	-2.0278	-17.891	16.968	0	0	0	0	0	0	0	0	0	2
6929	69.29	0	0	0	0	0	0	0	0	0	0	0	0	0	0	0	0	0	0	0	0	0	0	0	0	10.989	-10.989	19.033	0	0	0	1	0	0	17.761	2.1499	16.789	0	0	0	0	0	0	0	0	0	0	0	0	0	0	0	0	0	0	0	0	0	0	0	0	0	0	0	2
6930	69.3	0	0	0	0	0	0	0	0	0	0	0	0	0	0	0	0	0	0	0	0	0	0	0	0	10.989	-10.989	19.033	0	0	0	1	0	0	17.883	2.027	16.961	0	0	0	0	0	0	0	0	0	0	0	0	0	-1	0	-2.0278	-17.891	16.968	0	0	0	0	0	0	0	0	0	2
6931	69.31	0	0	0	0	0	0	0	0	0	0	0	0	0	0	0	0	0	0	0	0	0	0	0	0	10.989	-10.989	19.033	0	0	0	1	0	0	17.883	2.027	16.961	0	0	0	0	0	0	0	0	0	0	0	0	0	-1	0	-2.0278	-17.891	16.968	0	0	0	1	0	0	17.47	2.0148	16.554	2
6932	69.32	0	0	0	0	0	0	0	0	0	0	0	0	0	0	0	0	0	0	0	0	0	0	0	0	10.989	-10.989	19.033	0	0	0	1	0	0	17.761	2.1499	16.789	0	0	0	0	0	0	0	0	0	0	0	0	0	0	0	0	0	0	0	0	0	0	0	0	0	0	0	2
6933	69.33	0	0	0	0	0	0	0	0	0	0	0	0	0	0	0	0	0	0	0	0	0	0	0	0	10.989	-10.989	19.033	0	0	0	1	0	0	17.761	2.1499	16.789	0	0	0	0	0	0	0	0	0	0	0	0	0	-1	0	-2.0278	-17.891	16.968	0	0	0	0	0	0	0	0	0	2
6934	69.34	0	0	0	0	0	0	0	0	0	0	0	0	0	0	0	0	0	0	0	0	0	0	0	0	10.989	-10.989	19.033	0	0	0	1	0	0	17.761	2.1499	16.789	0	0	0	0	0	0	0	0	0	0	0	0	0	-1	0	-2.0278	-17.891	16.968	0	0	0	0	0	0	0	0	0	2
6935	69.35	0	0	0	0	0	0	10.917	-10.917	18.908	0	0	0	0	0	0	0	0	0	0	0	0	0	0	0	10.989	-10.989	19.033	0	0	0	1	0	0	17.761	2.1499	16.789	0	0	0	0	0	0	0	0	0	0	0	0	0	-1	0	-2.0278	-17.891	16.968	0	0	0	0	0	0	0	0	0	2
6936	69.36	0	0	0	0	0	0	10.917	-10.917	18.908	0	0	0	0	0	0	0	0	0	0	0	0	0	0	0	10.989	-10.989	19.033	0	0	0	1	0	0	17.883	2.027	16.961	0	0	0	1	0	0	17.883	2.027	16.961	0	0	0	0	0	0	0	0	0	0	0	0	0	0	0	0	0	0	2
6937	69.37	0	0	0	0	0	0	0	0	0	0	0	0	0	0	0	0	0	0	0	0	0	0	0	0	10.989	-10.989	19.033	0	0	0	1	0	0	17.761	2.1499	16.789	0	0	0	0	0	0	0	0	0	0	0	0	0	0	0	0	0	0	0	0	0	0	0	0	0	0	0	2
6938	69.38	0	0	0	0	0	0	0	0	0	0	0	0	0	0	0	0	0	0	0	0	0	0	0	0	10.989	-10.989	19.033	0	0	0	1	0	0	17.883	2.027	16.961	0	0	0	0	0	0	0	0	0	0	0	0	0	-1	0	-2.0278	-17.891	16.968	0	0	0	0	0	0	0	0	0	2
6939	69.39	0	0	0	0	0	0	0	0	0	0	0	0	0	0	0	0	0	0	0	0	0	0	0	0	10.989	-10.989	19.033	0	0	0	1	0	0	17.883	2.027	16.961	0	0	0	0	0	0	0	0	0	0	0	0	0	0	0	0	0	0	0	0	0	0	0	0	0	0	0	2
6940	69.4	0	0	0	0	0	0	0	0	0	0	0	0	0	0	0	0	0	0	0	0	0	0	0	0	10.989	-10.989	19.033	0	0	0	1	0	0	17.761	2.1499	16.789	0	0	0	0	0	0	0	0	0	0	0	0	0	-1	0	-2.0278	-17.891	16.968	0	0	0	0	0	0	0	0	0	2
6941	69.41	0	0	0	0	0	0	10.917	-10.917	18.908	0	0	0	0	0	0	0	0	0	0	0	0	0	0	0	10.989	-10.989	19.033	0	0	0	1	0	0	17.761	2.1499	16.789	0	0	0	0	0	0	0	0	0	0	0	0	1	-1	0	7.5503	-27.469	31.921	0	0	0	0	0	0	0	0	0	2
6942	69.42	0	0	0	0	0	0	0	0	0	0	0	0	0	0	0	0	0	0	0	0	0	0	0	0	10.989	-10.989	19.033	0	0	0	1	0	0	17.883	2.027	16.961	0	0	0	0	0	0	0	0	0	0	0	0	0	-1	0	-2.0278	-17.891	16.968	0	0	0	0	0	0	0	0	0	2
6943	69.43	0	0	0	0	0	0	10.917	-10.917	18.908	0	0	0	0	0	0	0	0	0	0	0	0	0	0	0	10.989	-10.989	19.033	0	0	0	1	0	0	17.761	2.1499	16.789	0	0	0	0	0	0	0	0	0	0	0	0	0	-1	0	-2.0278	-17.891	16.968	0	0	0	1	0	0	17.47	2.0148	16.554	2
6944	69.44	0	0	0	0	0	0	0	0	0	0	0	0	0	0	0	0	0	0	0	0	0	0	0	0	10.989	-10.989	19.033	0	0	0	1	0	0	17.883	2.027	16.961	0	0	0	0	0	0	0	0	0	0	0	0	1	-1	0	7.5503	-27.469	31.921	0	0	0	0	0	0	0	0	0	2
6945	69.45	0	0	0	0	0	0	0	0	0	0	0	0	0	0	0	0	0	0	0	0	0	0	0	0	10.989	-10.989	19.033	0	0	0	1	0	0	17.761	2.1499	16.789	0	0	0	0	0	0	0	0	0	0	0	0	0	-1	0	-2.0278	-17.891	16.968	0	0	0	0	0	0	0	0	0	0
6946	69.46	0	0	0	0	0	0	0	0	0	0	0	0	0	0	0	0	0	0	0	0	0	0	0	0	10.989	-10.989	19.033	0	0	0	1	0	0	17.761	2.1499	16.789	0	0	0	0	0	0	0	0	0	0	0	0	0	0	0	10.994	-10.994	19.042	0	0	0	1	0	0	17.47	2.0148	16.554	2
6947	69.47	0	0	0	0	0	0	0	0	0	0	0	0	0	0	0	0	0	0	0	0	0	0	0	0	10.989	-10.989	19.033	0	0	0	1	0	0	17.883	2.027	16.961	0	0	0	0	0	0	0	0	0	0	0	0	0	0	0	0	0	0	0	0	0	0	0	0	0	0	0	2
6948	69.48	0	0	0	0	0	0	0	0	0	0	0	0	0	0	0	0	0	0	0	0	0	0	0	0	10.989	-10.989	19.033	0	0	0	1	0	0	17.761	2.1499	16.789	0	0	0	0	0	0	0	0	0	0	0	0	0	-1	0	-2.0278	-17.891	16.968	0	0	0	0	0	0	0	0	0	2
6949	69.49	0	0	0	0	0	0	0	0	0	0	0	0	0	0	0	0	0	0	0	0	0	1	0	0	17.755	2.1475	16.785	0	0	0	1	0	0	17.883	2.027	16.961	0	0	0	0	0	0	0	0	0	0	0	0	1	-1	0	7.5503	-27.469	31.921	0	0	0	1	0	0	17.47	2.0148	16.554	2
6950	69.5	0	0	0	0	0	0	0	0	0	0	0	0	0	0	0	0	0	0	0	0	0	0	0	0	10.989	-10.989	19.033	0	0	0	1	0	0	17.883	2.027	16.961	0	0	0	0	0	0	0	0	0	0	0	0	0	-1	0	-2.0278	-17.891	16.968	0	0	0	0	0	0	0	0	0	2
6951	69.51	0	0	0	0	0	0	0	0	0	0	0	0	0	0	0	0	0	0	0	0	0	0	0	0	10.989	-10.989	19.033	0	0	0	1	0	0	17.883	2.027	16.961	0	0	0	0	0	0	0	0	0	0	0	0	0	-1	0	-2.0278	-17.891	16.968	0	0	0	0	0	0	0	0	0	2
6952	69.52	0	0	0	0	0	0	0	0	0	0	0	0	0	0	0	0	0	0	0	0	0	0	0	0	10.989	-10.989	19.033	0	0	0	1	0	0	17.883	2.027	16.961	0	0	0	0	0	0	0	0	0	0	0	0	1	-1	0	7.5503	-27.469	31.921	0	0	0	0	0	0	0	0	0	2
6953	69.53	0	0	0	0	0	0	0	0	0	0	0	0	0	0	0	0	0	0	0	0	0	0	0	0	10.989	-10.989	19.033	0	0	0	1	0	0	17.761	2.1499	16.789	0	0	0	0	0	0	0	0	0	0	0	0	0	-1	0	-2.0278	-17.891	16.968	0	0	0	0	0	0	0	0	0	2
6954	69.54	0	0	0	0	0	0	0	0	0	0	0	0	0	0	0	0	0	0	0	0	0	0	0	0	10.989	-10.989	19.033	0	0	0	1	0	0	17.761	2.1499	16.789	0	0	0	0	0	0	0	0	0	0	0	0	0	-1	0	-2.0278	-17.891	16.968	0	0	0	0	0	0	0	0	0	2
6955	69.55	0	0	0	0	0	0	0	0	0	0	0	0	0	0	0	0	0	0	0	0	0	0	0	0	10.989	-10.989	19.033	0	0	0	1	0	0	17.761	2.1499	16.789	0	0	0	0	0	0	0	0	0	0	0	0	1	-1	0	7.5503	-27.469	31.921	0	0	0	0	0	0	0	0	0	0
6956	69.56	0	0	0	0	0	0	0	0	0	0	0	0	0	0	0	0	0	0	0	0	0	0	0	0	10.989	-10.989	19.033	0	0	0	1	0	0	17.883	2.027	16.961	0	0	0	0	0	0	0	0	0	0	0	0	0	-1	0	-2.0278	-17.891	16.968	0	0	0	1	0	0	17.47	2.0148	16.554	2
6957	69.57	0	0	0	0	0	0	0	0	0	0	0	0	0	0	0	0	0	0	0	0	0	0	0	0	10.989	-10.989	19.033	0	0	0	0	0	0	0	0	0	0	0	0	0	0	0	0	0	0	0	0	0	0	0	0	0	0	0	0	0	0	0	0	0	0	0	0	2
6958	69.58	0	0	0	0	0	0	0	0	0	0	0	0	0	0	0	0	0	0	0	0	0	0	0	0	10.989	-10.989	19.033	0	0	0	1	0	0	17.761	2.1499	16.789	0	0	0	0	0	0	0	0	0	0	0	0	0	-1	0	-2.0278	-17.891	16.968	0	0	0	0	0	0	0	0	0	2
6959	69.59	0	0	0	0	-1	0	-2.0364	-17.814	16.888	0	0	0	0	0	0	0	0	0	0	0	0	0	0	0	10.989	-10.989	19.033	0	0	0	1	0	0	17.883	2.027	16.961	0	0	0	0	0	0	0	0	0	0	0	0	0	-1	0	-2.0278	-17.891	16.968	0	0	0	0	0	0	0	0	0	2
6960	69.6	0	0	0	0	0	0	0	0	0	0	0	0	0	0	0	0	0	0	0	0	0	0	0	0	10.989	-10.989	19.033	0	0	0	1	0	0	17.883	2.027	16.961	0	0	0	0	0	0	0	0	0	0	0	0	0	-1	0	-2.0278	-17.891	16.968	0	0	0	0	0	0	0	0	0	2
6961	69.61	0	0	0	0	0	0	0	0	0	0	0	0	0	0	0	0	0	0	0	0	0	0	0	0	10.989	-10.989	19.033	0	0	0	1	0	0	17.761	2.1499	16.789	0	0	0	0	0	0	0	0	0	0	0	0	1	-1	0	7.5503	-27.469	31.921	0	0	0	0	0	0	0	0	0	2
6962	69.62	0	0	0	0	0	0	10.917	-10.917	18.908	0	0	0	0	0	0	0	0	0	0	0	0	0	0	0	10.989	-10.989	19.033	0	0	0	1	0	0	17.883	2.027	16.961	0	0	0	0	0	0	0	0	0	0	0	0	0	-1	0	-2.0278	-17.891	16.968	0	0	0	0	0	0	0	0	0	2
6963	69.63	0	0	0	0	0	0	10.917	-10.917	18.908	0	0	0	0	0	0	0	0	0	0	0	0	0	0	0	10.989	-10.989	19.033	0	0	0	1	0	0	17.761	2.1499	16.789	0	0	0	0	0	0	0	0	0	0	0	0	1	-1	0	7.5503	-27.469	31.921	0	0	0	0	0	0	0	0	0	2
6964	69.64	0	0	0	0	0	0	0	0	0	0	0	0	0	0	0	0	0	0	0	0	0	1	0	0	17.755	2.1475	16.785	0	0	0	1	0	0	17.883	2.027	16.961	0	0	0	0	0	0	0	0	0	0	0	0	0	0	0	10.994	-10.994	19.042	0	0	0	0	0	0	0	0	0	2
6965	69.65	0	0	0	0	0	0	0	0	0	0	0	0	0	0	0	0	0	0	0	0	0	0	0	0	10.989	-10.989	19.033	0	0	0	1	0	0	17.883	2.027	16.961	0	0	0	0	0	0	0	0	0	0	0	0	0	-1	0	-2.0278	-17.891	16.968	0	0	0	0	0	0	0	0	0	2
6966	69.66	0	0	0	0	0	0	0	0	0	0	0	0	0	0	0	0	0	0	0	0	0	1	0	0	17.755	2.1475	16.785	0	0	0	1	0	0	17.883	2.027	16.961	0	0	0	0	0	0	0	0	0	0	0	0	0	0	0	0	0	0	0	0	0	0	0	0	10.93	-10.93	18.931	2
6967	69.67	0	0	0	0	0	0	0	0	0	0	0	0	0	0	0	0	0	0	0	0	0	0	0	0	10.989	-10.989	19.033	0	0	0	1	0	0	17.761	2.1499	16.789	0	0	0	0	0	0	0	0	0	0	0	0	1	-1	0	7.5503	-27.469	31.921	0	0	0	0	0	0	0	0	0	2
6968	69.68	0	0	0	0	0	0	0	0	0	0	0	0	0	0	0	0	0	0	0	0	0	0	0	0	10.989	-10.989	19.033	0	0	0	1	0	0	17.883	2.027	16.961	0	0	0	0	0	0	0	0	0	0	0	0	0	0	0	0	0	0	0	0	0	0	0	0	0	0	0	2
6969	69.69	0	0	0	0	0	0	0	0	0	0	0	0	0	0	0	0	0	0	0	0	0	1	0	0	17.755	2.1475	16.785	0	0	0	1	0	0	17.883	2.027	16.961	0	0	0	0	0	0	0	0	0	0	0	0	0	0	0	10.994	-10.994	19.042	0	0	0	0	0	0	0	0	0	2
6970	69.7	0	0	0	0	0	0	10.917	-10.917	18.908	0	0	0	0	0	0	0	0	0	0	0	0	0	0	0	10.989	-10.989	19.033	0	0	0	1	0	0	17.883	2.027	16.961	0	0	0	0	0	0	0	0	0	0	0	0	0	-1	0	-2.0278	-17.891	16.968	0	0	0	0	0	0	0	0	0	2
6971	69.71	0	0	0	0	0	0	0	0	0	0	0	0	0	0	0	0	0	0	0	0	0	1	0	0	17.755	2.1475	16.785	0	0	0	1	0	0	17.883	2.027	16.961	0	0	0	0	0	0	0	0	0	0	0	0	0	0	0	0	0	0	0	0	0	0	0	0	0	0	0	2
6972	69.72	0	0	0	0	0	0	10.917	-10.917	18.908	0	0	0	0	0	0	0	0	0	0	0	0	0	0	0	10.989	-10.989	19.033	0	0	0	1	0	0	17.883	2.027	16.961	0	0	0	0	0	0	0	0	0	0	0	0	1	-1	0	7.5503	-27.469	31.921	0	0	0	0	0	0	0	0	0	2
6973	69.73	0	0	0	0	0	0	0	0	0	0	0	0	0	0	0	0	0	0	0	0	0	0	0	0	10.989	-10.989	19.033	0	0	0	1	0	0	17.761	2.1499	16.789	0	0	0	0	0	0	0	0	0	0	0	0	0	0	0	0	0	0	0	0	0	1	0	0	17.47	2.0148	16.554	2
6974	69.74	0	0	0	0	0	0	0	0	0	0	0	0	0	0	0	0	0	0	0	0	0	0	0	0	10.989	-10.989	19.033	0	0	0	1	0	0	17.883	2.027	16.961	0	0	0	0	0	0	0	0	0	0	0	0	0	0	0	0	0	0	0	0	0	0	0	0	0	0	0	2
6975	69.75	0	0	0	0	0	0	0	0	0	0	0	0	0	0	0	0	0	0	0	0	0	0	0	0	10.989	-10.989	19.033	0	0	0	1	0	0	17.883	2.027	16.961	0	0	0	0	0	0	0	0	0	0	0	0	0	-1	0	-2.0278	-17.891	16.968	0	0	0	1	0	0	17.47	2.0148	16.554	2
6976	69.76	0	0	0	0	0	0	0	0	0	0	0	0	0	0	0	0	0	0	0	0	0	1	0	0	17.755	2.1475	16.785	0	0	0	0	0	0	10.991	-10.991	19.037	0	0	0	0	0	0	0	0	0	0	0	0	0	-1	0	-2.0278	-17.891	16.968	0	0	0	1	0	0	17.47	2.0148	16.554	2
6977	69.77	0	0	0	0	0	0	0	0	0	0	0	0	0	0	0	0	0	0	0	0	0	0	0	0	10.989	-10.989	19.033	0	0	0	1	0	0	17.883	2.027	16.961	0	0	0	0	0	0	0	0	0	0	0	0	0	0	0	10.994	-10.994	19.042	0	0	0	0	0	0	0	0	0	2
6978	69.78	0	0	0	0	0	0	0	0	0	0	0	0	0	0	0	0	0	0	0	0	0	0	0	0	10.989	-10.989	19.033	0	0	0	1	0	0	17.761	2.1499	16.789	0	0	0	0	0	0	0	0	0	0	0	0	0	-1	0	-2.0278	-17.891	16.968	0	0	0	0	0	0	0	0	0	2
6979	69.79	0	0	0	0	0	0	0	0	0	0	0	0	0	0	0	0	0	0	0	0	0	0	0	0	10.989	-10.989	19.033	0	0	0	1	0	0	17.883	2.027	16.961	0	0	0	0	0	0	0	0	0	0	0	0	1	-1	0	7.5503	-27.469	31.921	0	0	0	1	0	0	17.47	2.0148	16.554	2
6980	69.8	0	0	0	0	0	0	0	0	0	0	0	0	0	0	0	0	0	0	0	0	0	0	0	0	10.989	-10.989	19.033	0	0	0	1	0	0	17.761	2.1499	16.789	0	0	0	0	0	0	0	0	0	0	0	0	0	-1	0	-2.0278	-17.891	16.968	0	0	0	0	0	0	0	0	0	2
6981	69.81	0	0	0	0	0	0	0	0	0	0	0	0	0	0	0	0	0	0	0	0	0	1	0	0	17.755	2.1475	16.785	0	0	0	1	0	0	17.761	2.1499	16.789	0	0	0	0	0	0	0	0	0	0	0	0	0	-1	0	-2.0278	-17.891	16.968	0	0	0	1	0	0	17.47	2.0148	16.554	2
6982	69.82	0	0	0	0	0	0	10.917	-10.917	18.908	0	0	0	0	0	0	0	0	0	0	0	0	0	0	0	10.989	-10.989	19.033	0	0	0	1	0	0	17.883	2.027	16.961	0	0	0	0	0	0	0	0	0	0	0	0	0	-1	0	-2.0278	-17.891	16.968	0	0	0	0	0	0	0	0	0	2
6983	69.83	0	0	0	0	0	0	0	0	0	0	0	0	0	0	0	0	0	0	0	0	0	0	0	0	10.989	-10.989	19.033	0	0	0	1	0	0	17.761	2.1499	16.789	0	0	0	0	0	0	0	0	0	0	0	0	0	-1	0	-2.0278	-17.891	16.968	0	0	0	0	0	0	0	0	0	2
6984	69.84	0	0	0	0	0	0	10.917	-10.917	18.908	0	0	0	0	0	0	0	0	0	0	0	0	1	0	0	17.755	2.1475	16.785	0	0	0	1	0	0	17.761	2.1499	16.789	0	0	0	0	0	0	0	0	0	0	0	0	0	0	0	0	0	0	0	0	0	1	0	0	17.47	2.0148	16.554	2
6985	69.85	0	0	0	0	0	0	0	0	0	0	0	0	0	0	0	0	0	0	0	0	0	0	0	0	10.989	-10.989	19.033	0	0	0	1	0	0	17.883	2.027	16.961	0	0	0	0	0	0	0	0	0	0	0	0	0	0	0	10.994	-10.994	19.042	0	0	0	0	0	0	0	0	0	2
6986	69.86	0	0	0	0	0	0	0	0	0	0	0	0	0	0	0	0	0	0	0	0	0	1	0	0	17.755	2.1475	16.785	0	0	0	1	0	0	17.761	2.1499	16.789	0	0	0	0	0	0	0	0	0	0	0	0	1	-1	0	7.5503	-27.469	31.921	0	0	0	0	0	0	0	0	0	2
6987	69.87	0	0	0	0	0	0	0	0	0	0	0	0	0	0	0	0	0	0	0	0	0	0	0	0	10.989	-10.989	19.033	0	0	0	1	0	0	17.883	2.027	16.961	0	0	0	0	0	0	0	0	0	0	0	0	0	0	0	0	0	0	0	0	0	0	0	0	0	0	0	2
6988	69.88	0	0	0	0	0	0	0	0	0	0	0	0	0	0	0	0	0	0	0	0	0	0	0	0	10.989	-10.989	19.033	0	0	0	1	0	0	17.883	2.027	16.961	0	0	0	0	0	0	0	0	0	0	0	0	1	-1	0	7.5503	-27.469	31.921	0	0	0	0	0	0	0	0	0	2
6989	69.89	0	0	0	0	0	0	0	0	0	0	0	0	0	0	0	0	0	0	0	0	0	1	0	0	17.755	2.1475	16.785	0	0	0	1	0	0	17.883	2.027	16.961	0	0	0	1	0	0	17.883	2.027	16.961	0	0	0	1	-1	0	7.5503	-27.469	31.921	0	0	0	1	0	0	17.47	2.0148	16.554	2
6990	69.9	0	0	0	0	0	0	0	0	0	0	0	0	0	0	0	0	0	0	0	0	0	0	0	0	10.989	-10.989	19.033	0	0	0	1	0	0	17.883	2.027	16.961	0	0	0	0	0	0	0	0	0	0	0	0	0	-1	0	-2.0278	-17.891	16.968	0	0	0	0	0	0	0	0	0	2
6991	69.91	0	0	0	0	0	0	0	0	0	0	0	0	0	0	0	0	0	0	0	0	0	0	0	0	10.989	-10.989	19.033	0	0	0	1	0	0	17.883	2.027	16.961	0	0	0	0	0	0	0	0	0	0	0	0	1	-1	0	7.5503	-27.469	31.921	0	0	0	0	0	0	0	0	0	2
6992	69.92	0	0	0	0	0	0	10.917	-10.917	18.908	0	0	0	0	0	0	0	0	0	0	0	0	0	0	0	10.989	-10.989	19.033	0	0	0	1	0	0	17.883	2.027	16.961	0	0	0	0	0	0	0	0	0	0	0	0	0	-1	0	-2.0278	-17.891	16.968	0	0	0	0	0	0	0	0	0	2
6993	69.93	0	0	0	0	0	0	0	0	0	0	0	0	0	0	0	0	0	0	0	0	0	0	0	0	10.989	-10.989	19.033	0	0	0	1	0	0	17.883	2.027	16.961	0	0	0	0	0	0	0	0	0	0	0	0	0	-1	0	-2.0278	-17.891	16.968	0	0	0	0	0	0	0	0	0	2
6994	69.94	0	0	0	0	0	0	0	0	0	0	0	0	0	0	0	0	0	0	0	0	0	0	0	0	10.989	-10.989	19.033	0	0	0	1	0	0	17.761	2.1499	16.789	0	0	0	0	0	0	0	0	0	0	0	0	1	-1	0	7.5503	-27.469	31.921	0	0	0	0	0	0	0	0	0	2
6995	69.95	0	0	0	0	0	0	0	0	0	0	0	0	0	0	0	0	0	0	0	0	0	0	0	0	10.989	-10.989	19.033	0	0	0	1	0	0	17.883	2.027	16.961	0	0	0	0	0	0	0	0	0	0	0	0	1	-1	0	7.5503	-27.469	31.921	0	0	0	0	0	0	0	0	0	2
6996	69.96	0	0	0	0	0	0	0	0	0	0	0	0	0	0	0	0	0	0	0	0	0	1	0	0	17.755	2.1475	16.785	0	0	0	1	0	0	17.761	2.1499	16.789	0	0	0	0	0	0	0	0	0	0	0	0	1	-1	0	7.5503	-27.469	31.921	0	0	0	1	0	0	17.47	2.0148	16.554	2
6997	69.97	0	0	0	0	0	0	0	0	0	0	0	0	0	0	0	0	0	0	0	0	0	0	0	0	10.989	-10.989	19.033	0	0	0	1	0	0	17.883	2.027	16.961	0	0	0	0	0	0	0	0	0	0	0	0	0	0	0	10.994	-10.994	19.042	0	0	0	1	0	0	17.47	2.0148	16.554	2
6998	69.98	0	0	0	0	0	0	10.917	-10.917	18.908	0	0	0	0	0	0	0	0	0	0	0	0	0	0	0	10.989	-10.989	19.033	0	0	0	1	0	0	17.883	2.027	16.961	0	0	0	0	0	0	0	0	0	0	0	0	0	-1	0	-2.0278	-17.891	16.968	0	0	0	0	0	0	0	0	0	2
6999	69.99	0	0	0	0	0	0	0	0	0	0	0	0	0	0	0	0	0	0	0	0	0	1	0	0	17.755	2.1475	16.785	0	0	0	1	0	0	17.761	2.1499	16.789	0	0	0	0	0	0	0	0	0	0	0	0	0	0	0	0	0	0	0	0	0	1	0	0	17.47	2.0148	16.554	2
7000	70	0	0	0	0	0	0	0	0	0	0	0	0	0	0	0	0	0	0	0	0	0	0	0	0	10.989	-10.989	19.033	0	0	0	1	0	0	17.883	2.027	16.961	0	0	0	0	0	0	0	0	0	0	0	0	0	-1	0	-2.0278	-17.891	16.968	0	0	0	1	0	0	17.47	2.0148	16.554	2
7001	70.01	0	0	0	0	0	0	0	0	0	0	0	0	0	0	0	0	0	0	0	0	0	1	0	0	17.755	2.1475	16.785	0	0	0	1	0	0	17.761	2.1499	16.789	0	0	0	0	0	0	0	0	0	0	0	0	0	-1	0	-2.0278	-17.891	16.968	0	0	0	0	0	0	0	0	0	2
7002	70.02	0	0	0	0	0	0	0	0	0	0	0	0	0	0	0	0	0	0	0	0	0	0	0	0	10.989	-10.989	19.033	0	0	0	1	0	0	17.883	2.027	16.961	0	0	0	0	0	0	0	0	0	0	0	0	0	-1	0	-2.0278	-17.891	16.968	0	0	0	0	0	0	0	0	0	2
7003	70.03	0	0	0	0	0	0	0	0	0	0	0	0	0	0	0	0	0	0	0	0	0	0	0	0	10.989	-10.989	19.033	0	0	0	1	0	0	17.761	2.1499	16.789	0	0	0	0	0	0	0	0	0	0	0	0	0	-1	0	-2.0278	-17.891	16.968	0	0	0	1	0	0	17.47	2.0148	16.554	2
7004	70.04	0	0	0	0	0	0	0	0	0	0	0	0	0	0	0	0	0	0	0	0	0	0	0	0	10.989	-10.989	19.033	0	0	0	1	0	0	17.883	2.027	16.961	0	0	0	0	0	0	0	0	0	0	0	0	1	-1	0	7.5503	-27.469	31.921	0	0	0	1	0	0	17.47	2.0148	16.554	2
7005	70.05	0	0	0	0	0	0	0	0	0	0	0	0	0	0	0	0	0	0	0	0	0	0	0	0	10.989	-10.989	19.033	0	0	0	1	0	0	17.761	2.1499	16.789	0	0	0	0	0	0	0	0	0	0	0	0	0	-1	0	-2.0278	-17.891	16.968	0	0	0	0	0	0	0	0	0	2
7006	70.06	0	0	0	0	0	0	0	0	0	0	0	0	0	0	0	0	0	0	0	0	0	1	0	0	17.755	2.1475	16.785	0	0	0	1	0	0	17.761	2.1499	16.789	0	0	0	1	0	0	17.883	2.027	16.961	0	0	0	1	-1	0	7.5503	-27.469	31.921	0	0	0	0	0	0	0	0	0	2
7007	70.07	0	0	0	0	0	0	0	0	0	0	0	0	0	0	0	0	0	0	0	0	0	0	0	0	10.989	-10.989	19.033	0	0	0	1	0	0	17.883	2.027	16.961	0	0	0	0	0	0	0	0	0	0	0	0	0	-1	0	-2.0278	-17.891	16.968	0	0	0	0	0	0	0	0	0	2
7008	70.08	0	0	0	0	0	0	0	0	0	0	0	0	0	0	0	0	0	0	0	0	0	0	0	0	10.989	-10.989	19.033	0	0	0	1	0	0	17.883	2.027	16.961	0	0	0	0	0	0	0	0	0	0	0	0	1	-1	0	7.5503	-27.469	31.921	0	0	0	0	0	0	0	0	0	2
7009	70.09	0	0	0	0	0	0	0	0	0	0	0	0	0	0	0	0	0	0	0	0	0	0	0	0	10.989	-10.989	19.033	0	0	0	1	0	0	17.761	2.1499	16.789	0	0	0	0	0	0	0	0	0	0	0	0	1	-1	0	7.5503	-27.469	31.921	0	0	0	0	0	0	0	0	0	0
7010	70.1	0	0	0	0	0	0	0	0	0	0	0	0	0	0	0	0	0	0	0	0	0	0	0	0	10.989	-10.989	19.033	0	0	0	1	0	0	17.883	2.027	16.961	0	0	0	0	0	0	0	0	0	0	0	0	0	-1	0	-2.0278	-17.891	16.968	0	0	0	0	0	0	0	0	0	2
7011	70.11	0	0	0	0	0	0	0	0	0	0	0	0	0	0	0	0	0	0	0	0	0	1	0	0	17.755	2.1475	16.785	0	0	0	1	0	0	17.761	2.1499	16.789	0	0	0	0	0	0	0	0	0	0	0	0	1	-1	0	7.5503	-27.469	31.921	0	0	0	0	0	0	0	0	0	2
7012	70.12	0	0	0	0	0	0	10.917	-10.917	18.908	0	0	0	0	0	0	0	0	0	0	0	0	0	0	0	10.989	-10.989	19.033	0	0	0	1	0	0	17.883	2.027	16.961	0	0	0	0	0	0	0	0	0	0	0	0	0	-1	0	-2.0278	-17.891	16.968	0	0	0	1	0	0	17.47	2.0148	16.554	2
7013	70.13	0	0	0	0	0	0	0	0	0	0	0	0	0	0	0	0	0	0	0	0	0	0	0	0	10.989	-10.989	19.033	0	0	0	1	0	0	17.761	2.1499	16.789	0	0	0	0	0	0	0	0	0	0	0	0	1	-1	0	7.5503	-27.469	31.921	0	0	0	1	0	0	17.47	2.0148	16.554	2
7014	70.14	0	0	0	0	0	0	0	0	0	0	0	0	0	0	0	0	0	0	0	0	0	0	0	0	10.989	-10.989	19.033	0	0	0	1	0	0	17.883	2.027	16.961	0	0	0	0	0	0	0	0	0	0	0	0	0	-1	0	-2.0278	-17.891	16.968	0	0	0	0	0	0	0	0	0	2
7015	70.15	0	0	0	0	0	0	0	0	0	0	0	0	0	0	0	0	0	0	0	0	0	0	0	0	10.989	-10.989	19.033	0	0	0	1	0	0	17.883	2.027	16.961	0	0	0	0	0	0	0	0	0	0	0	0	0	0	0	0	0	0	0	0	0	0	0	0	0	0	0	2
7016	70.16	0	0	0	0	0	0	0	0	0	0	0	0	0	0	0	0	0	0	0	0	0	1	0	0	17.755	2.1475	16.785	0	0	0	1	0	0	17.883	2.027	16.961	0	0	0	0	0	0	0	0	0	0	0	0	0	0	0	10.994	-10.994	19.042	0	0	0	1	0	0	17.47	2.0148	16.554	2
7017	70.17	0	0	0	0	0	0	0	0	0	0	0	0	0	0	0	0	0	0	0	0	0	0	0	0	10.989	-10.989	19.033	0	0	0	1	0	0	17.883	2.027	16.961	0	0	0	0	0	0	0	0	0	0	0	0	0	-1	0	-2.0278	-17.891	16.968	0	0	0	0	0	0	0	0	0	2
7018	70.18	0	0	0	0	0	0	0	0	0	0	0	0	0	0	0	0	0	0	0	0	0	0	0	0	10.989	-10.989	19.033	0	0	0	1	0	0	17.883	2.027	16.961	0	0	0	0	0	0	0	0	0	0	0	0	0	-1	0	-2.0278	-17.891	16.968	0	0	0	0	0	0	0	0	0	2
7019	70.19	0	0	0	0	0	0	0	0	0	0	0	0	0	0	0	0	0	0	0	0	0	0	0	0	10.989	-10.989	19.033	0	0	0	1	0	0	17.883	2.027	16.961	0	0	0	0	0	0	0	0	0	0	0	0	0	0	0	10.994	-10.994	19.042	0	0	0	1	0	0	17.47	2.0148	16.554	2
7020	70.2	0	0	0	0	0	0	0	0	0	0	0	0	0	0	0	0	0	0	0	0	0	0	0	0	10.989	-10.989	19.033	0	0	0	1	0	0	17.883	2.027	16.961	0	0	0	0	0	0	0	0	0	0	0	0	1	-1	0	7.5503	-27.469	31.921	0	0	0	1	0	0	17.47	2.0148	16.554	2
7021	70.21	0	0	0	0	0	0	0	0	0	0	0	0	0	0	0	0	0	0	0	0	0	0	0	0	10.989	-10.989	19.033	0	0	0	1	0	0	17.761	2.1499	16.789	0	0	0	0	0	0	0	0	0	0	0	0	0	-1	0	-2.0278	-17.891	16.968	0	0	0	1	0	0	17.47	2.0148	16.554	2
7022	70.22	0	0	0	0	0	0	0	0	0	0	0	0	0	0	0	0	0	0	0	0	0	0	0	0	10.989	-10.989	19.033	0	0	0	1	0	0	17.883	2.027	16.961	0	0	0	0	0	0	0	0	0	0	0	0	0	-1	0	-2.0278	-17.891	16.968	0	0	0	0	0	0	0	0	0	2
7023	70.23	0	0	0	0	0	0	0	0	0	0	0	0	0	0	0	0	0	0	0	0	0	1	0	0	17.755	2.1475	16.785	0	0	0	1	0	0	17.883	2.027	16.961	0	0	0	0	0	0	0	0	0	0	0	0	0	0	0	10.994	-10.994	19.042	0	0	0	1	0	0	17.47	2.0148	16.554	2
7024	70.24	0	0	0	0	0	0	0	0	0	0	0	0	0	0	0	0	0	0	0	0	0	0	0	0	10.989	-10.989	19.033	0	0	0	1	0	0	17.761	2.1499	16.789	0	0	0	0	0	0	0	0	0	0	0	0	0	-1	0	-2.0278	-17.891	16.968	0	0	0	0	0	0	10.93	-10.93	18.931	2
7025	70.25	0	0	0	0	0	0	0	0	0	0	0	0	0	0	0	0	0	0	0	0	0	0	0	0	10.989	-10.989	19.033	0	0	0	1	0	0	17.883	2.027	16.961	0	0	0	0	0	0	0	0	0	0	0	0	0	-1	0	-2.0278	-17.891	16.968	0	0	0	0	0	0	0	0	0	2
7026	70.26	0	0	0	0	0	0	0	0	0	0	0	0	0	0	0	0	0	0	0	0	0	1	0	0	17.755	2.1475	16.785	0	0	0	1	0	0	17.761	2.1499	16.789	0	0	0	0	0	0	0	0	0	0	0	0	0	0	0	10.994	-10.994	19.042	0	0	0	1	0	0	17.47	2.0148	16.554	2
7027	70.27	0	0	0	0	0	0	0	0	0	0	0	0	0	0	0	0	0	0	0	0	0	0	0	0	10.989	-10.989	19.033	0	0	0	1	0	0	17.883	2.027	16.961	0	0	0	0	0	0	0	0	0	0	0	0	0	-1	0	-2.0278	-17.891	16.968	0	0	0	0	0	0	0	0	0	2
7028	70.28	0	0	0	0	0	0	0	0	0	0	0	0	0	0	0	0	0	0	0	0	0	1	0	0	17.755	2.1475	16.785	0	0	0	1	0	0	17.883	2.027	16.961	0	0	0	0	0	0	0	0	0	0	0	0	0	0	0	11.266	-11.261	19.508	0	0	0	0	0	0	0	0	0	2
7029	70.29	0	0	0	0	0	0	0	0	0	0	0	0	0	0	0	0	0	0	0	0	0	1	0	0	17.755	2.1475	16.785	0	0	0	1	0	0	17.883	2.027	16.961	0	0	0	0	0	0	0	0	0	0	0	0	0	-1	0	-2.0278	-17.891	16.968	0	0	0	1	0	0	17.47	2.0148	16.554	2
7030	70.3	0	0	0	0	0	0	0	0	0	0	0	0	0	0	0	0	0	0	0	0	0	0	0	0	10.989	-10.989	19.033	0	0	0	0	0	0	10.991	-10.991	19.037	0	0	0	0	0	0	0	0	0	0	0	0	0	-1	0	-2.0278	-17.891	16.968	0	0	0	0	0	0	0	0	0	2
7031	70.31	0	0	0	0	0	0	0	0	0	0	0	0	0	0	0	0	0	0	0	0	0	0	0	0	10.989	-10.989	19.033	0	0	0	1	0	0	17.883	2.027	16.961	0	0	0	0	0	0	0	0	0	0	0	0	0	-1	0	-2.0278	-17.891	16.968	0	0	0	0	0	0	0	0	0	2
7032	70.32	0	0	0	0	0	0	0	0	0	0	0	0	0	0	0	0	0	0	0	0	0	0	0	0	10.989	-10.989	19.033	0	0	0	1	0	0	17.883	2.027	16.961	0	0	0	0	0	0	0	0	0	0	0	0	0	0	0	10.994	-10.994	19.042	0	0	0	0	0	0	0	0	0	2
7033	70.33	0	0	0	0	0	0	0	0	0	0	0	0	0	0	0	0	0	0	0	0	0	0	0	0	10.989	-10.989	19.033	0	0	0	1	0	0	17.761	2.1499	16.789	0	0	0	0	0	0	0	0	0	0	0	0	1	-1	0	7.5503	-27.469	31.921	0	0	0	0	0	0	0	0	0	2
7034	70.34	0	0	0	0	0	0	0	0	0	0	0	0	0	0	0	0	0	0	0	0	0	1	0	0	17.755	2.1475	16.785	0	0	0	1	0	0	17.883	2.027	16.961	0	0	0	0	0	0	0	0	0	0	0	0	0	0	0	0	0	0	0	0	0	0	0	0	0	0	0	2
7035	70.35	0	0	0	0	0	0	0	0	0	0	0	0	0	0	0	0	0	0	0	0	0	0	0	0	10.989	-10.989	19.033	0	0	0	1	0	0	17.883	2.027	16.961	0	0	0	0	0	0	0	0	0	0	0	0	0	0	0	0	0	0	0	0	0	1	0	0	17.47	2.0148	16.554	2
7036	70.36	0	0	0	0	0	0	0	0	0	0	0	0	0	0	0	0	0	0	0	0	0	1	0	0	17.755	2.1475	16.785	0	0	0	1	0	0	17.761	2.1499	16.789	0	0	0	0	0	0	0	0	0	0	0	0	0	-1	0	-2.0278	-17.891	16.968	0	0	0	0	0	0	10.93	-10.93	18.931	2
7037	70.37	0	0	0	0	0	0	0	0	0	0	0	0	0	0	0	0	0	0	0	0	0	0	0	0	10.989	-10.989	19.033	0	0	0	1	0	0	17.883	2.027	16.961	0	0	0	0	0	0	0	0	0	0	0	0	0	-1	0	-2.0278	-17.891	16.968	0	0	0	1	0	0	17.47	2.0148	16.554	2
7038	70.38	0	0	0	0	0	0	0	0	0	0	0	0	0	0	0	0	0	0	0	0	0	1	0	0	17.755	2.1475	16.785	0	0	0	1	0	0	17.883	2.027	16.961	0	0	0	0	0	0	0	0	0	0	0	0	0	-1	0	-2.0278	-17.891	16.968	0	0	0	0	0	0	0	0	0	2
7039	70.39	0	0	0	0	0	0	10.917	-10.917	18.908	0	0	0	0	0	0	0	0	0	0	0	0	0	0	0	10.989	-10.989	19.033	0	0	0	1	0	0	17.883	2.027	16.961	0	0	0	0	0	0	0	0	0	0	0	0	0	-1	0	-2.0278	-17.891	16.968	0	0	0	0	0	0	0	0	0	2
7040	70.4	0	0	0	0	0	0	0	0	0	0	0	0	0	0	0	0	0	0	0	0	0	0	0	0	10.989	-10.989	19.033	0	0	0	0	0	0	0	0	0	0	0	0	0	0	0	0	0	0	0	0	0	0	-1	0	-2.0278	-17.891	16.968	0	0	0	0	0	0	0	0	0	2
7041	70.41	0	0	0	0	0	0	10.917	-10.917	18.908	0	0	0	0	0	0	0	0	0	0	0	0	0	0	0	10.989	-10.989	19.033	0	0	0	1	0	0	17.761	2.1499	16.789	0	0	0	0	0	0	0	0	0	0	0	0	0	0	0	0	0	0	0	0	0	0	0	0	0	0	0	2
7042	70.42	0	0	0	0	0	0	0	0	0	0	0	0	0	0	0	0	0	0	0	0	0	0	0	0	10.989	-10.989	19.033	0	0	0	1	0	0	17.883	2.027	16.961	0	0	0	0	0	0	0	0	0	0	0	0	0	-1	0	-2.0278	-17.891	16.968	0	0	0	0	0	0	0	0	0	2
7043	70.43	0	0	0	0	0	0	0	0	0	0	0	0	0	0	0	0	0	0	0	0	0	1	0	0	17.755	2.1475	16.785	0	0	0	1	0	0	17.883	2.027	16.961	0	0	0	0	0	0	0	0	0	0	0	0	0	0	0	0	0	0	0	0	0	0	0	0	0	0	0	2
7044	70.44	0	0	0	0	0	0	0	0	0	0	0	0	0	0	0	0	0	0	0	0	0	1	0	0	17.755	2.1475	16.785	0	0	0	1	0	0	17.761	2.1499	16.789	0	0	0	0	0	0	0	0	0	0	0	0	1	-1	0	7.5503	-27.469	31.921	0	0	0	1	0	0	17.47	2.0148	16.554	2
7045	70.45	0	0	0	0	0	0	0	0	0	0	0	0	0	0	0	0	0	0	0	0	0	0	0	0	10.989	-10.989	19.033	0	0	0	1	0	0	17.883	2.027	16.961	0	0	0	0	0	0	0	0	0	0	0	0	0	-1	0	-2.0278	-17.891	16.968	0	0	0	0	0	0	0	0	0	2
7046	70.46	0	0	0	0	0	0	0	0	0	0	0	0	0	0	0	0	0	0	0	0	0	1	0	0	17.755	2.1475	16.785	0	0	0	1	0	0	17.761	2.1499	16.789	0	0	0	0	0	0	0	0	0	0	0	0	0	0	0	10.994	-10.994	19.042	0	0	0	0	0	0	0	0	0	2
7047	70.47	0	0	0	0	0	0	0	0	0	0	0	0	0	0	0	0	0	0	0	0	0	0	0	0	10.989	-10.989	19.033	0	0	0	1	0	0	17.883	2.027	16.961	0	0	0	0	0	0	0	0	0	0	0	0	0	0	0	11.266	-11.261	19.508	0	0	0	0	0	0	0	0	0	2
7048	70.48	0	0	0	0	0	0	0	0	0	0	0	0	0	0	0	0	0	0	0	0	0	1	0	0	17.755	2.1475	16.785	0	0	0	1	0	0	17.761	2.1499	16.789	0	0	0	0	0	0	0	0	0	0	0	0	1	-1	0	7.5503	-27.469	31.921	0	0	0	0	0	0	0	0	0	2
7049	70.49	0	0	0	0	0	0	0	0	0	0	0	0	0	0	0	0	0	0	0	0	0	1	0	0	17.755	2.1475	16.785	0	0	0	1	0	0	17.761	2.1499	16.789	0	0	0	0	0	0	0	0	0	0	0	0	0	-1	0	-2.0278	-17.891	16.968	0	0	0	1	0	0	17.47	2.0148	16.554	2
7050	70.5	0	0	0	0	0	0	0	0	0	0	0	0	0	0	0	0	0	0	0	0	0	0	0	0	10.989	-10.989	19.033	0	0	0	1	0	0	17.761	2.1499	16.789	0	0	0	0	0	0	0	0	0	0	0	0	0	-1	0	-2.0278	-17.891	16.968	0	0	0	0	0	0	0	0	0	2
7051	70.51	0	0	0	0	0	0	0	0	0	0	0	0	0	0	0	0	0	0	0	0	0	0	0	0	10.989	-10.989	19.033	0	0	0	1	0	0	17.761	2.1499	16.789	0	0	0	0	0	0	0	0	0	0	0	0	0	-1	0	-2.0278	-17.891	16.968	0	0	0	0	0	0	0	0	0	2
7052	70.52	0	0	0	0	0	0	10.917	-10.917	18.908	0	0	0	0	0	0	0	0	0	0	0	0	0	0	0	10.989	-10.989	19.033	0	0	0	1	0	0	17.761	2.1499	16.789	0	0	0	0	0	0	0	0	0	0	0	0	1	-1	0	7.5503	-27.469	31.921	0	0	0	0	0	0	0	0	0	2
7053	70.53	0	0	0	0	0	0	0	0	0	0	0	0	0	0	0	0	0	0	0	0	0	0	0	0	10.989	-10.989	19.033	0	0	0	1	0	0	17.883	2.027	16.961	0	0	0	0	0	0	0	0	0	0	0	0	0	-1	0	-2.0278	-17.891	16.968	0	0	0	0	0	0	0	0	0	2
7054	70.54	0	0	0	0	0	0	0	0	0	0	0	0	0	0	0	0	0	0	0	0	0	0	0	0	10.989	-10.989	19.033	0	0	0	1	0	0	17.761	2.1499	16.789	0	0	0	0	0	0	0	0	0	0	0	0	1	-1	0	7.5503	-27.469	31.921	0	0	0	1	0	0	17.47	2.0148	16.554	2
7055	70.55	0	0	0	0	0	0	0	0	0	0	0	0	0	0	0	0	0	0	0	0	0	0	0	0	10.989	-10.989	19.033	0	0	0	1	0	0	17.761	2.1499	16.789	0	0	0	0	0	0	0	0	0	0	0	0	0	-1	0	-2.0278	-17.891	16.968	0	0	0	1	0	0	17.47	2.0148	16.554	2
7056	70.56	0	0	0	0	0	0	0	0	0	0	0	0	0	0	0	0	0	0	0	0	0	0	0	0	10.989	-10.989	19.033	0	0	0	1	0	0	17.761	2.1499	16.789	0	0	0	0	0	0	0	0	0	0	0	0	1	-1	0	7.5503	-27.469	31.921	0	0	0	1	0	0	17.47	2.0148	16.554	2
7057	70.57	0	0	0	0	0	0	0	0	0	0	0	0	0	0	0	0	0	0	0	0	0	0	0	0	10.989	-10.989	19.033	0	0	0	1	0	0	17.883	2.027	16.961	0	0	0	0	0	0	0	0	0	0	0	0	0	-1	0	-2.0278	-17.891	16.968	0	0	0	1	0	0	17.47	2.0148	16.554	2
7058	70.58	0	0	0	0	0	0	0	0	0	0	0	0	0	0	0	0	0	0	0	0	0	0	0	0	10.989	-10.989	19.033	0	0	0	1	0	0	17.761	2.1499	16.789	0	0	0	0	0	0	0	0	0	0	0	0	0	-1	0	-2.0278	-17.891	16.968	0	0	0	0	0	0	0	0	0	2
7059	70.59	0	0	0	0	0	0	0	0	0	0	0	0	0	0	0	0	0	0	0	0	0	0	0	0	10.989	-10.989	19.033	0	0	0	1	0	0	17.883	2.027	16.961	0	0	0	0	0	0	0	0	0	0	0	0	0	0	0	10.994	-10.994	19.042	0	0	0	1	0	0	17.47	2.0148	16.554	2
7060	70.6	0	0	0	0	0	0	0	0	0	0	0	0	0	0	0	0	0	0	0	0	0	0	0	0	10.989	-10.989	19.033	0	0	0	1	0	0	17.883	2.027	16.961	0	0	0	0	0	0	0	0	0	0	0	0	0	-1	0	-2.0278	-17.891	16.968	0	0	0	0	0	0	0	0	0	2
7061	70.61	0	0	0	0	0	0	0	0	0	0	0	0	0	0	0	0	0	0	0	0	0	1	0	0	17.755	2.1475	16.785	0	0	0	1	0	0	17.761	2.1499	16.789	0	0	0	0	0	0	0	0	0	0	0	0	1	-1	0	7.5503	-27.469	31.921	0	0	0	1	0	0	17.47	2.0148	16.554	2
7062	70.62	0	0	0	0	0	0	0	0	0	0	0	0	0	0	0	0	0	0	0	0	0	0	0	0	10.989	-10.989	19.033	0	0	0	1	0	0	17.883	2.027	16.961	0	0	0	0	0	0	0	0	0	0	0	0	0	0	0	10.994	-10.994	19.042	0	0	0	0	0	0	0	0	0	2
7063	70.63	0	0	0	0	0	0	0	0	0	0	0	0	0	0	0	0	0	0	0	0	0	0	0	0	10.989	-10.989	19.033	0	0	0	1	0	0	17.761	2.1499	16.789	0	0	0	0	0	0	0	0	0	0	0	0	1	-1	0	7.5503	-27.469	31.921	0	0	0	0	0	0	10.93	-10.93	18.931	2
7064	70.64	0	0	0	0	0	0	10.917	-10.917	18.908	0	0	0	0	0	0	0	0	0	0	0	0	1	0	0	17.755	2.1475	16.785	0	0	0	1	0	0	17.761	2.1499	16.789	0	0	0	0	0	0	0	0	0	0	0	0	0	-1	0	-2.0278	-17.891	16.968	0	0	0	0	0	0	0	0	0	2
7065	70.65	0	0	0	0	0	0	0	0	0	0	0	0	0	0	0	0	0	0	0	0	0	0	0	0	10.989	-10.989	19.033	0	0	0	1	0	0	17.761	2.1499	16.789	0	0	0	0	0	0	0	0	0	0	0	0	1	-1	0	7.5503	-27.469	31.921	0	0	0	0	0	0	0	0	0	2
7066	70.66	0	0	0	0	0	0	10.917	-10.917	18.908	0	0	0	0	0	0	0	0	0	0	0	0	1	0	0	17.755	2.1475	16.785	0	0	0	1	0	0	17.761	2.1499	16.789	0	0	0	0	0	0	0	0	0	0	0	0	1	-1	0	7.5503	-27.469	31.921	0	0	0	1	0	0	17.47	2.0148	16.554	2
7067	70.67	0	0	0	0	0	0	0	0	0	0	0	0	0	0	0	0	0	0	0	0	0	1	0	0	17.755	2.1475	16.785	0	0	0	1	0	0	17.883	2.027	16.961	0	0	0	0	0	0	0	0	0	0	0	0	1	-1	0	7.5503	-27.469	31.921	0	0	0	0	0	0	0	0	0	2
7068	70.68	0	0	0	0	0	0	0	0	0	0	0	0	0	0	0	0	0	0	0	0	0	0	0	0	10.989	-10.989	19.033	0	0	0	1	0	0	17.761	2.1499	16.789	0	0	0	0	0	0	0	0	0	0	0	0	1	-1	0	7.5503	-27.469	31.921	0	0	0	0	0	0	0	0	0	2
7069	70.69	0	0	0	0	0	0	0	0	0	0	0	0	0	0	0	0	0	0	0	0	0	1	0	0	17.755	2.1475	16.785	0	0	0	1	0	0	17.761	2.1499	16.789	0	0	0	0	0	0	0	0	0	0	0	0	1	-1	0	7.5503	-27.469	31.921	0	0	0	1	0	0	17.47	2.0148	16.554	2
7070	70.7	0	0	0	0	0	0	0	0	0	0	0	0	0	0	0	0	0	0	0	0	0	1	0	0	17.755	2.1475	16.785	0	0	0	1	0	0	17.883	2.027	16.961	0	0	0	0	0	0	0	0	0	0	0	0	0	-1	0	-2.0278	-17.891	16.968	0	0	0	1	0	0	17.47	2.0148	16.554	2
7071	70.71	0	0	0	0	0	0	0	0	0	0	0	0	0	0	0	0	0	0	0	0	0	0	0	0	10.989	-10.989	19.033	0	0	0	1	0	0	17.761	2.1499	16.789	0	0	0	0	0	0	0	0	0	0	0	0	1	-1	0	7.5503	-27.469	31.921	0	0	0	0	0	0	0	0	0	2
7072	70.72	0	0	0	0	0	0	0	0	0	0	0	0	0	0	0	0	0	0	0	0	0	0	0	0	10.989	-10.989	19.033	0	0	0	1	0	0	17.883	2.027	16.961	0	0	0	0	0	0	0	0	0	0	0	0	1	-1	0	7.5503	-27.469	31.921	0	0	0	0	0	0	0	0	0	2
7073	70.73	0	0	0	0	0	0	0	0	0	0	0	0	0	0	0	0	0	0	0	0	0	0	0	0	10.989	-10.989	19.033	0	0	0	1	0	0	17.883	2.027	16.961	0	0	0	0	0	0	0	0	0	0	0	0	0	-1	0	-2.0278	-17.891	16.968	0	0	0	0	0	0	0	0	0	0
7074	70.74	0	0	0	0	0	0	0	0	0	0	0	0	0	0	0	0	0	0	0	0	0	0	0	0	10.989	-10.989	19.033	0	0	0	1	0	0	17.761	2.1499	16.789	0	0	0	0	0	0	0	0	0	0	0	0	1	-1	0	7.5503	-27.469	31.921	0	0	0	1	0	0	17.47	2.0148	16.554	2
7075	70.75	0	0	0	0	0	0	0	0	0	0	0	0	0	0	0	0	0	0	0	0	0	0	0	0	10.989	-10.989	19.033	0	0	0	1	0	0	17.883	2.027	16.961	0	0	0	0	0	0	0	0	0	0	0	0	0	-1	0	-2.0278	-17.891	16.968	0	0	0	0	0	0	0	0	0	2
7076	70.76	0	0	0	0	0	0	10.917	-10.917	18.908	0	0	0	0	0	0	0	0	0	0	0	0	1	0	0	17.755	2.1475	16.785	0	0	0	1	0	0	17.761	2.1499	16.789	0	0	0	0	0	0	0	0	0	0	0	0	1	-1	0	15.741	-15.736	27.259	0	0	0	1	0	0	17.47	2.0148	16.554	2
7077	70.77	0	0	0	0	0	0	0	0	0	0	0	0	0	0	0	0	0	0	0	0	0	0	0	0	10.989	-10.989	19.033	0	0	0	1	0	0	17.761	2.1499	16.789	0	0	0	0	0	0	0	0	0	0	0	0	0	0	0	0	0	0	0	0	0	0	0	0	0	0	0	2
7078	70.78	0	0	0	0	0	0	10.917	-10.917	18.908	0	0	0	0	0	0	0	0	0	0	0	0	0	0	0	10.989	-10.989	19.033	0	0	0	0	0	0	0	0	0	0	0	0	0	0	0	0	0	0	0	0	0	0	-1	0	-2.0278	-17.891	16.968	0	0	0	1	0	0	17.47	2.0148	16.554	2
7079	70.79	0	0	0	0	0	0	0	0	0	0	0	0	0	0	0	0	0	0	0	0	0	1	0	0	17.755	2.1475	16.785	0	0	0	1	0	0	17.883	2.027	16.961	0	0	0	0	0	0	0	0	0	0	0	0	0	-1	0	-2.0278	-17.891	16.968	0	0	0	1	0	0	17.47	2.0148	16.554	2
7080	70.8	0	0	0	0	0	0	0	0	0	0	0	0	0	0	0	0	0	0	0	0	0	0	0	0	10.989	-10.989	19.033	0	0	0	1	0	0	17.883	2.027	16.961	0	0	0	0	0	0	0	0	0	0	0	0	0	-1	0	-2.0278	-17.891	16.968	0	0	0	0	0	0	0	0	0	2
7081	70.81	0	0	0	0	0	0	0	0	0	0	0	0	0	0	0	0	0	0	0	0	0	1	0	0	17.755	2.1475	16.785	0	0	0	1	0	0	17.761	2.1499	16.789	0	0	0	0	0	0	0	0	0	0	0	0	1	-1	0	7.5503	-27.469	31.921	0	0	0	1	0	0	17.47	2.0148	16.554	2
7082	70.82	0	0	0	0	0	0	10.917	-10.917	18.908	0	0	0	0	0	0	0	0	0	0	0	0	0	0	0	10.989	-10.989	19.033	0	0	0	1	0	0	17.883	2.027	16.961	0	0	0	0	0	0	0	0	0	0	0	0	0	0	0	0	0	0	0	0	0	0	0	0	0	0	0	2
7083	70.83	0	0	0	0	0	0	0	0	0	0	0	0	0	0	0	0	0	0	0	0	0	0	0	0	10.989	-10.989	19.033	0	0	0	1	0	0	17.883	2.027	16.961	0	0	0	0	0	0	0	0	0	0	0	0	0	0	0	10.994	-10.994	19.042	0	0	0	1	0	0	17.47	2.0148	16.554	2
7084	70.84	0	0	0	0	0	0	0	0	0	0	0	0	0	0	0	0	0	0	0	0	0	1	0	0	17.755	2.1475	16.785	0	0	0	1	0	0	17.761	2.1499	16.789	0	0	0	0	0	0	0	0	0	0	0	0	0	0	0	10.994	-10.994	19.042	0	0	0	0	0	0	0	0	0	2
7085	70.85	0	0	0	0	0	0	0	0	0	0	0	0	0	0	0	0	0	0	0	0	0	0	0	0	10.989	-10.989	19.033	0	0	0	1	0	0	17.761	2.1499	16.789	0	0	0	0	0	0	0	0	0	0	0	0	0	0	0	0	0	0	0	0	0	0	0	0	0	0	0	2
7086	70.86	0	0	0	0	0	0	0	0	0	0	0	0	0	0	0	0	0	0	0	0	0	1	0	0	17.755	2.1475	16.785	0	0	0	1	0	0	17.761	2.1499	16.789	0	0	0	0	0	0	0	0	0	0	0	0	0	-1	0	-2.0278	-17.891	16.968	0	0	0	1	0	0	17.47	2.0148	16.554	2
7087	70.87	0	0	0	0	0	0	0	0	0	0	0	0	0	0	0	0	0	0	0	0	0	0	0	0	10.989	-10.989	19.033	0	0	0	0	0	0	0	0	0	0	0	0	0	0	0	0	0	0	0	0	0	0	-1	0	-2.0278	-17.891	16.968	0	0	0	1	0	0	17.47	2.0148	16.554	2
7088	70.88	0	0	0	0	0	0	0	0	0	0	0	0	0	0	0	0	0	0	0	0	0	0	0	0	10.989	-10.989	19.033	0	0	0	1	0	0	17.883	2.027	16.961	0	0	0	1	0	0	17.883	2.027	16.961	0	0	0	0	-1	0	-2.0278	-17.891	16.968	0	0	0	0	0	0	0	0	0	2
7089	70.89	0	0	0	0	0	0	10.917	-10.917	18.908	0	0	0	0	0	0	0	0	0	0	0	0	0	0	0	10.989	-10.989	19.033	0	0	0	1	0	0	17.761	2.1499	16.789	0	0	0	0	0	0	0	0	0	0	0	0	0	-1	0	-2.0278	-17.891	16.968	0	0	0	1	0	0	17.47	2.0148	16.554	2
7090	70.9	0	0	0	0	0	0	0	0	0	0	0	0	0	0	0	0	0	0	0	0	0	0	0	0	10.989	-10.989	19.033	0	0	0	1	0	0	17.761	2.1499	16.789	0	0	0	0	0	0	0	0	0	0	0	0	1	-1	0	7.5503	-27.469	31.921	0	0	0	0	0	0	0	0	0	2
7091	70.91	0	0	0	0	0	0	0	0	0	0	0	0	0	0	0	0	0	0	0	0	0	1	0	0	17.755	2.1475	16.785	0	0	0	1	0	0	17.883	2.027	16.961	0	0	0	0	0	0	0	0	0	0	0	0	1	-1	0	7.5503	-27.469	31.921	0	0	0	0	0	0	10.93	-10.93	18.931	2
7092	70.92	0	0	0	0	0	0	0	0	0	0	0	0	0	0	0	0	0	0	0	0	0	0	0	0	10.989	-10.989	19.033	0	0	0	1	0	0	17.883	2.027	16.961	0	0	0	0	0	0	0	0	0	0	0	0	1	-1	0	7.5503	-27.469	31.921	0	0	0	0	0	0	0	0	0	2
7093	70.93	0	0	0	0	0	0	10.917	-10.917	18.908	0	0	0	0	0	0	0	0	0	0	0	0	0	0	0	10.989	-10.989	19.033	0	0	0	1	0	0	17.883	2.027	16.961	0	0	0	0	0	0	0	0	0	0	0	0	0	0	0	0	0	0	0	0	0	1	0	0	17.47	2.0148	16.554	2
7094	70.94	0	0	0	0	0	0	0	0	0	0	0	0	0	0	0	0	0	0	0	0	0	1	0	0	17.755	2.1475	16.785	0	0	0	1	0	0	17.761	2.1499	16.789	0	0	0	0	0	0	0	0	0	0	0	0	0	0	0	0	0	0	0	0	0	0	0	0	0	0	0	2
7095	70.95	0	0	0	0	0	0	0	0	0	0	0	0	0	0	0	0	0	0	0	0	0	0	0	0	10.989	-10.989	19.033	0	0	0	1	0	0	17.883	2.027	16.961	0	0	0	0	0	0	0	0	0	0	0	0	0	0	0	0	0	0	0	0	0	0	0	0	0	0	0	2
7096	70.96	0	0	0	0	0	0	0	0	0	0	0	0	0	0	0	0	0	0	0	0	0	1	0	0	17.755	2.1475	16.785	0	0	0	1	0	0	17.761	2.1499	16.789	0	0	0	0	0	0	0	0	0	0	0	0	0	0	0	10.994	-10.994	19.042	0	0	0	1	0	0	17.47	2.0148	16.554	2
7097	70.97	0	0	0	0	0	0	0	0	0	0	0	0	0	0	0	0	0	0	0	0	0	0	0	0	10.989	-10.989	19.033	0	0	0	1	0	0	17.883	2.027	16.961	0	0	0	0	0	0	0	0	0	0	0	0	1	-1	0	7.5503	-27.469	31.921	0	0	0	0	0	0	0	0	0	2
7098	70.98	0	0	0	0	0	0	0	0	0	0	0	0	0	0	0	0	0	0	0	0	0	0	0	0	10.989	-10.989	19.033	0	0	0	1	0	0	17.761	2.1499	16.789	0	0	0	1	0	0	17.883	2.027	16.961	0	0	0	0	0	0	0	0	0	0	0	0	1	0	0	17.47	2.0148	16.554	2
7099	70.99	0	0	0	0	0	0	0	0	0	0	0	0	0	0	0	0	0	0	0	0	0	0	0	0	10.989	-10.989	19.033	0	0	0	1	0	0	17.883	2.027	16.961	0	0	0	0	0	0	0	0	0	0	0	0	0	-1	0	-2.0278	-17.891	16.968	0	0	0	0	0	0	0	0	0	2
7100	71	0	0	0	0	0	0	0	0	0	0	0	0	0	0	0	0	0	0	0	0	0	0	0	0	10.989	-10.989	19.033	0	0	0	1	0	0	17.883	2.027	16.961	0	0	0	0	0	0	0	0	0	0	0	0	1	-1	0	7.5503	-27.469	31.921	0	0	0	0	0	0	0	0	0	2
7101	71.01	0	0	0	0	0	0	0	0	0	0	0	0	0	0	0	0	0	0	0	0	0	1	0	0	17.755	2.1475	16.785	0	0	0	1	0	0	17.761	2.1499	16.789	0	0	0	0	0	0	0	0	0	0	0	0	0	-1	0	-2.0278	-17.891	16.968	0	0	0	1	0	0	17.47	2.0148	16.554	2
7102	71.02	0	0	0	0	0	0	0	0	0	0	0	0	0	0	0	0	0	0	0	0	0	0	0	0	10.989	-10.989	19.033	0	0	0	1	0	0	17.883	2.027	16.961	0	0	0	0	0	0	0	0	0	0	0	0	1	-1	0	7.5503	-27.469	31.921	0	0	0	0	0	0	0	0	0	2
7103	71.03	0	0	0	0	0	0	0	0	0	0	0	0	0	0	0	0	0	0	0	0	0	0	0	0	10.989	-10.989	19.033	0	0	0	1	0	0	17.761	2.1499	16.789	0	0	0	0	0	0	0	0	0	0	0	0	0	0	0	0	0	0	0	0	0	0	0	0	0	0	0	2
7104	71.04	0	0	0	0	0	0	0	0	0	0	0	0	0	0	0	0	0	0	0	0	0	0	0	0	10.989	-10.989	19.033	0	0	0	1	0	0	17.883	2.027	16.961	0	0	0	0	0	0	0	0	0	0	0	0	0	-1	0	-2.0278	-17.891	16.968	0	0	0	1	0	0	17.47	2.0148	16.554	2
7105	71.05	0	0	0	0	0	0	0	0	0	0	0	0	0	0	0	0	0	0	0	0	0	0	0	0	10.989	-10.989	19.033	0	0	0	1	0	0	17.761	2.1499	16.789	0	0	0	0	0	0	0	0	0	0	0	0	0	-1	0	-2.0278	-17.891	16.968	0	0	0	0	0	0	0	0	0	2
7106	71.06	0	0	0	0	0	0	0	0	0	0	0	0	0	0	0	0	0	0	0	0	0	1	0	0	17.755	2.1475	16.785	0	0	0	1	0	0	17.761	2.1499	16.789	0	0	0	0	0	0	0	0	0	0	0	0	0	-1	0	-2.0278	-17.891	16.968	0	0	0	1	0	0	17.47	2.0148	16.554	2
7107	71.07	0	0	0	0	0	0	0	0	0	0	0	0	0	0	0	0	0	0	0	0	0	0	0	0	10.989	-10.989	19.033	0	0	0	1	0	0	17.883	2.027	16.961	0	0	0	0	0	0	0	0	0	0	0	0	1	-1	0	7.5503	-27.469	31.921	0	0	0	0	0	0	0	0	0	2
7108	71.08	0	0	0	0	0	0	0	0	0	0	0	0	0	0	0	0	0	0	0	0	0	0	0	0	10.989	-10.989	19.033	0	0	0	1	0	0	17.761	2.1499	16.789	0	0	0	0	0	0	0	0	0	0	0	0	1	-1	0	7.5503	-27.469	31.921	0	0	0	0	0	0	0	0	0	2
7109	71.09	0	0	0	0	0	0	0	0	0	0	0	0	0	0	0	0	0	0	0	0	0	1	0	0	17.755	2.1475	16.785	0	0	0	1	0	0	17.761	2.1499	16.789	0	0	0	0	0	0	0	0	0	0	0	0	0	-1	0	-2.0278	-17.891	16.968	0	0	0	1	0	0	17.47	2.0148	16.554	2
7110	71.1	0	0	0	0	0	0	0	0	0	0	0	0	0	0	0	0	0	0	0	0	0	0	0	0	10.989	-10.989	19.033	0	0	0	1	0	0	17.883	2.027	16.961	0	0	0	0	0	0	0	0	0	0	0	0	0	-1	0	-2.0278	-17.891	16.968	0	0	0	0	0	0	0	0	0	2
7111	71.11	0	0	0	0	0	0	0	0	0	0	0	0	0	0	0	0	0	0	0	0	0	0	0	0	10.989	-10.989	19.033	0	0	0	1	0	0	17.761	2.1499	16.789	0	0	0	0	0	0	0	0	0	0	0	0	0	0	0	0	0	0	0	0	0	0	0	0	0	0	0	2
7112	71.12	0	0	0	0	0	0	0	0	0	0	0	0	0	0	0	0	0	0	0	0	0	0	0	0	10.989	-10.989	19.033	0	0	0	1	0	0	17.883	2.027	16.961	0	0	0	0	0	0	0	0	0	0	0	0	0	-1	0	-2.0278	-17.891	16.968	0	0	0	0	0	0	0	0	0	2
7113	71.13	0	0	0	0	0	0	0	0	0	0	0	0	0	0	0	0	0	0	0	0	0	0	0	0	10.989	-10.989	19.033	0	0	0	1	0	0	17.883	2.027	16.961	0	0	0	0	0	0	0	0	0	0	0	0	1	-1	0	7.5503	-27.469	31.921	0	0	0	0	0	0	0	0	0	2
7114	71.14	0	0	0	0	0	0	0	0	0	0	0	0	0	0	0	0	0	0	0	0	0	0	0	0	10.989	-10.989	19.033	0	0	0	1	0	0	17.761	2.1499	16.789	0	0	0	0	0	0	0	0	0	0	0	0	0	-1	0	-2.0278	-17.891	16.968	0	0	0	1	0	0	17.47	2.0148	16.554	2
7115	71.15	0	0	0	0	0	0	0	0	0	0	0	0	0	0	0	0	0	0	0	0	0	0	0	0	10.989	-10.989	19.033	0	0	0	1	0	0	17.883	2.027	16.961	0	0	0	0	0	0	0	0	0	0	0	0	0	0	0	0	0	0	0	0	0	0	0	0	0	0	0	2
7116	71.16	0	0	0	0	0	0	0	0	0	0	0	0	0	0	0	0	0	0	0	0	0	1	0	0	17.755	2.1475	16.785	0	0	0	1	0	0	17.761	2.1499	16.789	0	0	0	0	0	0	0	0	0	0	0	0	0	-1	0	-2.0278	-17.891	16.968	0	0	0	1	0	0	17.47	2.0148	16.554	2
7117	71.17	0	0	0	0	0	0	0	0	0	0	0	0	0	0	0	0	0	0	0	0	0	0	0	0	10.989	-10.989	19.033	0	0	0	0	0	0	10.991	-10.991	19.037	0	0	0	0	0	0	0	0	0	0	0	0	0	-1	0	-2.0278	-17.891	16.968	0	0	0	0	0	0	0	0	0	2
7118	71.18	0	0	0	0	0	0	0	0	0	0	0	0	0	0	0	0	0	0	0	0	0	0	0	0	10.989	-10.989	19.033	0	0	0	1	0	0	17.761	2.1499	16.789	0	0	0	0	0	0	0	0	0	0	0	0	0	0	0	10.994	-10.994	19.042	0	0	0	0	0	0	0	0	0	2
7119	71.19	0	0	0	0	0	0	0	0	0	0	0	0	0	0	0	0	0	0	0	0	0	0	0	0	10.989	-10.989	19.033	0	0	0	1	0	0	17.761	2.1499	16.789	0	0	0	0	0	0	0	0	0	0	0	0	0	0	0	0	0	0	0	0	0	1	0	0	17.47	2.0148	16.554	2
7120	71.2	0	0	0	0	0	0	10.917	-10.917	18.908	0	0	0	0	0	0	0	0	0	0	0	0	0	0	0	10.989	-10.989	19.033	0	0	0	1	0	0	17.883	2.027	16.961	0	0	0	0	0	0	0	0	0	0	0	0	0	0	0	0	0	0	0	0	0	0	0	0	0	0	0	3
7121	71.21	0	0	0	0	0	0	0	0	0	0	0	0	0	0	0	0	0	0	0	0	0	1	0	0	17.755	2.1475	16.785	0	0	0	1	0	0	17.761	2.1499	16.789	0	0	0	0	0	0	0	0	0	0	0	0	1	-1	0	7.5503	-27.469	31.921	0	0	0	0	0	0	0	0	0	2
7122	71.22	0	0	0	0	0	0	0	0	0	0	0	0	0	0	0	0	0	0	0	0	0	0	0	0	10.989	-10.989	19.033	0	0	0	1	0	0	17.883	2.027	16.961	0	0	0	0	0	0	0	0	0	0	0	0	0	-1	0	-2.0278	-17.891	16.968	0	0	0	0	0	0	0	0	0	2
7123	71.23	0	0	0	0	0	0	10.917	-10.917	18.908	0	0	0	0	0	0	0	0	0	0	0	0	0	0	0	10.989	-10.989	19.033	0	0	0	1	0	0	17.761	2.1499	16.789	0	0	0	0	0	0	0	0	0	0	0	0	0	0	0	10.994	-10.994	19.042	0	0	0	0	0	0	0	0	0	2
7124	71.24	0	0	0	0	0	0	0	0	0	0	0	0	0	0	0	0	0	0	0	0	0	0	0	0	10.989	-10.989	19.033	0	0	0	1	0	0	17.761	2.1499	16.789	0	0	0	0	0	0	0	0	0	0	0	0	0	-1	0	-2.0278	-17.891	16.968	0	0	0	1	0	0	17.47	2.0148	16.554	2
7125	71.25	0	0	0	0	0	0	0	0	0	0	0	0	0	0	0	0	0	0	0	0	0	0	0	0	10.989	-10.989	19.033	0	0	0	1	0	0	17.883	2.027	16.961	0	0	0	0	0	0	0	0	0	0	0	0	0	0	0	10.994	-10.994	19.042	0	0	0	0	0	0	0	0	0	2
7126	71.26	0	0	0	0	0	0	10.917	-10.917	18.908	0	0	0	0	0	0	0	0	0	0	0	0	0	0	0	10.989	-10.989	19.033	0	0	0	1	0	0	17.761	2.1499	16.789	0	0	0	0	0	0	0	0	0	0	0	0	1	-1	0	7.5503	-27.469	31.921	0	0	0	0	0	0	0	0	0	2
7127	71.27	0	0	0	0	0	0	10.917	-10.917	18.908	0	0	0	0	0	0	0	0	0	0	0	0	1	0	0	17.755	2.1475	16.785	0	0	0	1	0	0	17.761	2.1499	16.789	0	0	0	0	0	0	0	0	0	0	0	0	0	0	0	0	0	0	0	0	0	1	0	0	17.47	2.0148	16.554	2
7128	71.28	0	0	0	0	0	0	10.917	-10.917	18.908	0	0	0	0	0	0	0	0	0	0	0	0	0	0	0	10.989	-10.989	19.033	0	0	0	1	0	0	17.761	2.1499	16.789	0	0	0	0	0	0	0	0	0	0	0	0	0	-1	0	-2.0278	-17.891	16.968	0	0	0	0	0	0	0	0	0	2
7129	71.29	0	0	0	0	0	0	0	0	0	0	0	0	0	0	0	0	0	0	0	0	0	0	0	0	10.989	-10.989	19.033	0	0	0	1	0	0	17.761	2.1499	16.789	0	0	0	0	0	0	0	0	0	0	0	0	0	-1	0	-2.0278	-17.891	16.968	0	0	0	1	0	0	17.47	2.0148	16.554	2
7130	71.3	0	0	0	0	0	0	10.917	-10.917	18.908	0	0	0	0	0	0	0	0	0	0	0	0	0	0	0	10.989	-10.989	19.033	0	0	0	1	0	0	17.761	2.1499	16.789	0	0	0	0	0	0	0	0	0	0	0	0	0	-1	0	-2.0278	-17.891	16.968	0	0	0	0	0	0	0	0	0	2
7131	71.31	0	0	0	0	0	0	0	0	0	0	0	0	0	0	0	0	0	0	0	0	0	1	0	0	17.755	2.1475	16.785	0	0	0	1	0	0	17.761	2.1499	16.789	0	0	0	0	0	0	0	0	0	0	0	0	1	-1	0	7.5503	-27.469	31.921	0	0	0	1	0	0	17.47	2.0148	16.554	2
7132	71.32	0	0	0	0	0	0	10.917	-10.917	18.908	0	0	0	0	0	0	0	0	0	0	0	0	0	0	0	10.989	-10.989	19.033	0	0	0	1	0	0	17.883	2.027	16.961	0	0	0	0	0	0	0	0	0	0	0	0	0	-1	0	-2.0278	-17.891	16.968	0	0	0	0	0	0	0	0	0	2
7133	71.33	0	0	0	0	0	0	0	0	0	0	0	0	0	0	0	0	0	0	0	0	0	0	0	0	10.989	-10.989	19.033	0	0	0	1	0	0	17.761	2.1499	16.789	0	0	0	0	0	0	0	0	0	0	0	0	1	-1	0	7.5503	-27.469	31.921	0	0	0	0	0	0	0	0	0	2
7134	71.34	0	0	0	0	0	0	0	0	0	0	0	0	0	0	0	0	0	0	0	0	0	0	0	0	10.989	-10.989	19.033	0	0	0	1	0	0	17.761	2.1499	16.789	0	0	0	0	0	0	0	0	0	0	0	0	0	-1	0	-2.0278	-17.891	16.968	0	0	0	1	0	0	17.47	2.0148	16.554	2
7135	71.35	0	0	0	0	0	0	0	0	0	0	0	0	0	0	0	0	0	0	0	0	0	0	0	0	10.989	-10.989	19.033	0	0	0	1	0	0	17.761	2.1499	16.789	0	0	0	0	0	0	0	0	0	0	0	0	0	-1	0	-2.0278	-17.891	16.968	0	0	0	0	0	0	0	0	0	2
7136	71.36	0	0	0	0	0	0	10.917	-10.917	18.908	0	0	0	0	0	0	0	0	0	0	0	0	1	0	0	17.755	2.1475	16.785	0	0	0	1	0	0	17.761	2.1499	16.789	0	0	0	1	0	0	17.883	2.027	16.961	0	0	0	0	-1	0	-2.0278	-17.891	16.968	0	0	0	1	0	0	17.47	2.0148	16.554	2
7137	71.37	0	0	0	0	0	0	0	0	0	0	0	0	0	0	0	0	0	0	0	0	0	0	0	0	10.989	-10.989	19.033	0	0	0	1	0	0	17.761	2.1499	16.789	0	0	0	0	0	0	0	0	0	0	0	0	0	-1	0	-2.0278	-17.891	16.968	0	0	0	1	0	0	17.47	2.0148	16.554	2
7138	71.38	0	0	0	0	0	0	0	0	0	0	0	0	0	0	0	0	0	0	0	0	0	0	0	0	10.989	-10.989	19.033	0	0	0	1	0	0	17.761	2.1499	16.789	0	0	0	0	0	0	0	0	0	0	0	0	1	-1	0	7.5503	-27.469	31.921	0	0	0	0	0	0	0	0	0	2
7139	71.39	0	0	0	0	0	0	0	0	0	0	0	0	0	0	0	0	0	0	0	0	0	0	0	0	10.989	-10.989	19.033	0	0	0	1	0	0	17.761	2.1499	16.789	0	0	0	0	0	0	0	0	0	0	0	0	0	-1	0	-2.0278	-17.891	16.968	0	0	0	0	0	0	0	0	0	2
7140	71.4	0	0	0	0	0	0	0	0	0	0	0	0	0	0	0	0	0	0	0	0	0	0	0	0	10.989	-10.989	19.033	0	0	0	1	0	0	17.761	2.1499	16.789	0	0	0	0	0	0	0	0	0	0	0	0	0	-1	0	-2.0278	-17.891	16.968	0	0	0	0	0	0	0	0	0	2
7141	71.41	0	0	0	0	0	0	0	0	0	0	0	0	0	0	0	0	0	0	0	0	0	1	0	0	17.755	2.1475	16.785	0	0	0	1	0	0	17.761	2.1499	16.789	0	0	0	0	0	0	0	0	0	0	0	0	1	-1	0	7.5503	-27.469	31.921	0	0	0	0	0	0	0	0	0	2
7142	71.42	0	0	0	0	0	0	0	0	0	0	0	0	0	0	0	0	0	0	0	0	0	0	0	0	10.989	-10.989	19.033	0	0	0	1	0	0	17.883	2.027	16.961	0	0	0	0	0	0	0	0	0	0	0	0	0	-1	0	-2.0278	-17.891	16.968	0	0	0	0	0	0	0	0	0	2
7143	71.43	0	0	0	0	0	0	10.917	-10.917	18.908	0	0	0	0	0	0	0	0	0	0	0	0	0	0	0	10.989	-10.989	19.033	0	0	0	1	0	0	17.883	2.027	16.961	0	0	0	0	0	0	0	0	0	0	0	0	0	0	0	0	0	0	0	0	0	0	0	0	0	0	0	2
7144	71.44	0	0	0	0	0	0	0	0	0	0	0	0	0	0	0	0	0	0	0	0	0	0	0	0	10.989	-10.989	19.033	0	0	0	1	0	0	17.883	2.027	16.961	0	0	0	0	0	0	0	0	0	0	0	0	0	0	0	10.994	-10.994	19.042	0	0	0	1	0	0	17.47	2.0148	16.554	2
7145	71.45	0	0	0	0	0	0	10.917	-10.917	18.908	0	0	0	0	0	0	0	0	0	0	0	0	0	0	0	10.989	-10.989	19.033	0	0	0	1	0	0	17.883	2.027	16.961	0	0	0	0	0	0	0	0	0	0	0	0	1	-1	0	7.5503	-27.469	31.921	0	0	0	0	0	0	0	0	0	2
7146	71.46	0	0	0	0	0	0	10.917	-10.917	18.908	0	0	0	0	0	0	0	0	0	0	0	0	0	0	0	10.989	-10.989	19.033	0	0	0	1	0	0	17.883	2.027	16.961	0	0	0	0	0	0	0	0	0	0	0	0	0	-1	0	-2.0278	-17.891	16.968	0	0	0	1	0	0	17.47	2.0148	16.554	2
7147	71.47	0	0	0	0	0	0	0	0	0	0	0	0	0	0	0	0	0	0	0	0	0	0	0	0	10.989	-10.989	19.033	0	0	0	1	0	0	17.883	2.027	16.961	0	0	0	0	0	0	0	0	0	0	0	0	0	-1	0	-2.0278	-17.891	16.968	0	0	0	1	0	0	17.47	2.0148	16.554	2
7148	71.48	0	0	0	0	0	0	10.917	-10.917	18.908	0	0	0	0	0	0	0	0	0	0	0	0	0	0	0	10.989	-10.989	19.033	0	0	0	1	0	0	17.761	2.1499	16.789	0	0	0	0	0	0	0	0	0	0	0	0	0	-1	0	-2.0278	-17.891	16.968	0	0	0	0	0	0	0	0	0	2
7149	71.49	0	0	0	0	0	0	0	0	0	0	0	0	0	0	0	0	0	0	0	0	0	0	0	0	10.989	-10.989	19.033	0	0	0	1	0	0	17.883	2.027	16.961	0	0	0	0	0	0	0	0	0	0	0	0	0	-1	0	-2.0278	-17.891	16.968	0	0	0	0	0	0	0	0	0	2
7150	71.5	0	0	0	0	0	0	0	0	0	0	0	0	0	0	0	0	0	0	0	0	0	0	0	0	10.989	-10.989	19.033	0	0	0	1	0	0	17.761	2.1499	16.789	0	0	0	0	0	0	0	0	0	0	0	0	1	-1	0	7.5503	-27.469	31.921	0	0	0	1	0	0	30.423	8.5595	27.174	2
7151	71.51	0	0	0	0	0	0	0	0	0	0	0	0	0	0	0	0	0	0	0	0	0	0	0	0	10.989	-10.989	19.033	0	0	0	1	0	0	17.761	2.1499	16.789	0	0	0	1	0	0	17.883	2.027	16.961	0	0	0	0	-1	0	-2.0278	-17.891	16.968	0	0	0	1	0	0	17.47	2.0148	16.554	2
7152	71.52	0	0	0	0	0	0	0	0	0	0	0	0	0	0	0	0	0	0	0	0	0	0	0	0	10.989	-10.989	19.033	0	0	0	1	0	0	17.883	2.027	16.961	0	0	0	0	0	0	0	0	0	0	0	0	0	-1	0	-2.0278	-17.891	16.968	0	0	0	1	0	0	17.47	2.0148	16.554	2
7153	71.53	0	0	0	0	0	0	0	0	0	0	0	0	0	0	0	0	0	0	0	0	0	0	0	0	10.989	-10.989	19.033	0	0	0	1	0	0	17.761	2.1499	16.789	0	0	0	0	0	0	0	0	0	0	0	0	1	-1	0	7.5503	-27.469	31.921	0	0	0	0	0	0	0	0	0	2
7154	71.54	0	0	0	0	0	0	0	0	0	0	0	0	0	0	0	0	0	0	0	0	0	0	0	0	10.989	-10.989	19.033	0	0	0	1	0	0	17.883	2.027	16.961	0	0	0	0	0	0	0	0	0	0	0	0	0	-1	0	-2.0278	-17.891	16.968	0	0	0	0	0	0	0	0	0	2
7155	71.55	0	0	0	0	0	0	0	0	0	0	0	0	0	0	0	0	0	0	0	0	0	0	0	0	10.989	-10.989	19.033	0	0	0	1	0	0	17.761	2.1499	16.789	0	0	0	0	0	0	0	0	0	0	0	0	0	-1	0	-2.0278	-17.891	16.968	0	0	0	0	0	0	0	0	0	2
7156	71.56	0	0	0	0	0	0	0	0	0	0	0	0	0	0	0	0	0	0	0	0	0	1	0	0	17.755	2.1475	16.785	0	0	0	1	0	0	17.761	2.1499	16.789	0	0	0	0	0	0	0	0	0	0	0	0	0	0	0	10.994	-10.994	19.042	0	0	0	1	0	0	17.47	2.0148	16.554	2
7157	71.57	0	0	0	0	0	0	0	0	0	0	0	0	0	0	0	0	0	0	0	0	0	0	0	0	10.989	-10.989	19.033	0	0	0	1	0	0	17.883	2.027	16.961	0	0	0	0	0	0	0	0	0	0	0	0	0	0	0	0	0	0	0	0	0	1	0	0	17.482	2.0162	16.566	2
7158	71.58	0	0	0	0	0	0	0	0	0	0	0	0	0	0	0	0	0	0	0	0	0	0	0	0	10.989	-10.989	19.033	0	0	0	1	0	0	17.883	2.027	16.961	0	0	0	0	0	0	0	0	0	0	0	0	0	-1	0	-2.0278	-17.891	16.968	0	0	0	1	0	0	17.47	2.0148	16.554	2
7159	71.59	0	0	0	0	0	0	0	0	0	0	0	0	0	0	0	0	0	0	0	0	0	0	0	0	10.989	-10.989	19.033	0	0	0	1	0	0	17.761	2.1499	16.789	0	0	0	0	0	0	0	0	0	0	0	0	0	-1	0	-2.0278	-17.891	16.968	0	0	0	0	0	0	0	0	0	3
7160	71.6	0	0	0	0	0	0	10.917	-10.917	18.908	0	0	0	0	0	0	0	0	0	0	0	0	0	0	0	10.989	-10.989	19.033	0	0	0	0	0	0	0	0	0	0	0	0	0	0	0	0	0	0	0	0	0	1	-1	0	7.5503	-27.469	31.921	0	0	0	0	0	0	0	0	0	2
7161	71.61	0	0	0	0	0	0	0	0	0	0	0	0	0	0	0	0	0	0	0	0	0	1	0	0	17.755	2.1475	16.785	0	0	0	1	0	0	17.761	2.1499	16.789	0	0	0	0	0	0	0	0	0	0	0	0	0	-1	0	-2.0278	-17.891	16.968	0	0	0	1	0	0	17.47	2.0148	16.554	2
7162	71.62	0	0	0	0	0	0	0	0	0	0	0	0	0	0	0	0	0	0	0	0	0	0	0	0	10.989	-10.989	19.033	0	0	0	1	0	0	17.761	2.1499	16.789	0	0	0	0	0	0	0	0	0	0	0	0	1	-1	0	7.5503	-27.469	31.921	0	0	0	1	0	0	17.47	2.0148	16.554	2
7163	71.63	0	0	0	0	0	0	10.917	-10.917	18.908	0	0	0	0	0	0	0	0	0	0	0	0	0	0	0	10.989	-10.989	19.033	0	0	0	1	0	0	17.883	2.027	16.961	0	0	0	0	0	0	0	0	0	0	0	0	0	0	0	0	0	0	0	0	0	1	0	0	17.47	2.0148	16.554	2
7164	71.64	0	0	0	0	0	0	0	0	0	0	0	0	0	0	0	0	0	0	0	0	0	1	0	0	17.755	2.1475	16.785	0	0	0	1	0	0	17.761	2.1499	16.789	0	0	0	1	0	0	17.883	2.027	16.961	0	0	0	0	-1	0	-2.0278	-17.891	16.968	0	0	0	1	0	0	17.47	2.0148	16.554	2
7165	71.65	0	0	0	0	0	0	0	0	0	0	0	0	0	0	0	0	0	0	0	0	0	0	0	0	10.989	-10.989	19.033	0	0	0	1	0	0	17.761	2.1499	16.789	0	0	0	0	0	0	0	0	0	0	0	0	0	-1	0	-2.0278	-17.891	16.968	0	0	0	0	0	0	0	0	0	2
7166	71.66	0	0	0	0	0	0	0	0	0	0	0	0	0	0	0	0	0	0	0	0	0	1	0	0	17.755	2.1475	16.785	0	0	0	1	0	0	17.761	2.1499	16.789	0	0	0	0	0	0	0	0	0	0	0	0	0	0	0	10.994	-10.994	19.042	0	0	0	1	0	0	17.47	2.0148	16.554	2
7167	71.67	0	0	0	0	0	0	0	0	0	0	0	0	0	0	0	0	0	0	0	0	0	0	0	0	10.989	-10.989	19.033	0	0	0	1	0	0	17.761	2.1499	16.789	0	0	0	0	0	0	0	0	0	0	0	0	0	-1	0	-2.0278	-17.891	16.968	0	0	0	0	0	0	0	0	0	2
7168	71.68	0	0	0	0	0	0	0	0	0	0	0	0	0	0	0	0	0	0	0	0	0	0	0	0	10.989	-10.989	19.033	0	0	0	1	0	0	17.761	2.1499	16.789	0	0	0	0	0	0	0	0	0	0	0	0	0	0	0	0	0	0	0	0	0	0	0	0	0	0	0	2
7169	71.69	0	0	0	0	0	0	10.917	-10.917	18.908	0	0	0	0	0	0	0	0	0	0	0	0	0	0	0	10.989	-10.989	19.033	0	0	0	1	0	0	17.761	2.1499	16.789	0	0	0	0	0	0	0	0	0	0	0	0	0	-1	0	-2.0278	-17.891	16.968	0	0	0	1	0	0	17.47	2.0148	16.554	2
7170	71.7	0	0	0	0	0	0	0	0	0	0	0	0	0	0	0	0	0	0	0	0	0	0	0	0	10.989	-10.989	19.033	0	0	0	1	0	0	17.883	2.027	16.961	0	0	0	0	0	0	0	0	0	0	0	0	0	-1	0	-2.0278	-17.891	16.968	0	0	0	0	0	0	0	0	0	2
7171	71.71	0	0	0	0	0	0	0	0	0	0	0	0	0	0	0	0	0	0	0	0	0	0	0	0	10.989	-10.989	19.033	0	0	0	1	0	0	17.761	2.1499	16.789	0	0	0	1	0	0	17.883	2.027	16.961	0	0	0	0	0	0	10.994	-10.994	19.042	0	0	0	1	0	0	17.47	2.0148	16.554	2
7172	71.72	0	0	0	0	0	0	0	0	0	0	0	0	0	0	0	0	0	0	0	0	0	0	0	0	10.989	-10.989	19.033	0	0	0	1	0	0	17.761	2.1499	16.789	0	0	0	0	0	0	0	0	0	0	0	0	1	-1	0	7.5503	-27.469	31.921	0	0	0	0	0	0	0	0	0	2
7173	71.73	0	0	0	0	0	0	0	0	0	0	0	0	0	0	0	0	0	0	0	0	0	0	0	0	10.989	-10.989	19.033	0	0	0	1	0	0	17.883	2.027	16.961	0	0	0	0	0	0	0	0	0	0	0	0	0	0	0	0	0	0	0	0	0	1	0	0	17.47	2.0148	16.554	2
7174	71.74	0	0	0	0	0	0	0	0	0	0	0	0	0	0	0	0	0	0	0	0	0	0	0	0	10.989	-10.989	19.033	0	0	0	1	0	0	17.761	2.1499	16.789	0	0	0	0	0	0	0	0	0	0	0	0	1	-1	0	7.5503	-27.469	31.921	0	0	0	1	0	0	17.47	2.0148	16.554	2
7175	71.75	0	0	0	0	0	0	0	0	0	0	0	0	0	0	0	0	0	0	0	0	0	0	0	0	10.989	-10.989	19.033	0	0	0	1	0	0	17.883	2.027	16.961	0	0	0	0	0	0	0	0	0	0	0	0	0	-1	0	-2.0278	-17.891	16.968	0	0	0	0	0	0	0	0	0	2
7176	71.76	0	0	0	0	0	0	0	0	0	0	0	0	0	0	0	0	0	0	0	0	0	1	0	0	17.755	2.1475	16.785	0	0	0	1	0	0	17.883	2.027	16.961	0	0	0	1	0	0	17.883	2.027	16.961	0	0	0	0	0	0	10.994	-10.994	19.042	0	0	0	0	0	0	0	0	0	2
7177	71.77	0	0	0	0	0	0	0	0	0	0	0	0	0	0	0	0	0	0	0	0	0	0	0	0	10.989	-10.989	19.033	0	0	0	1	0	0	17.883	2.027	16.961	0	0	0	0	0	0	0	0	0	0	0	0	0	-1	0	-2.0278	-17.891	16.968	0	0	0	0	0	0	0	0	0	2
7178	71.78	0	0	0	0	0	0	0	0	0	0	0	0	0	0	0	0	0	0	0	0	0	0	0	0	10.989	-10.989	19.033	0	0	0	1	0	0	17.761	2.1499	16.789	0	0	0	0	0	0	0	0	0	0	0	0	1	-1	0	7.5503	-27.469	31.921	0	0	0	1	0	0	17.47	2.0148	16.554	2
7179	71.79	0	0	0	0	0	0	10.917	-10.917	18.908	0	0	0	0	0	0	0	0	0	0	0	0	1	0	0	17.755	2.1475	16.785	0	0	0	1	0	0	17.883	2.027	16.961	0	0	0	0	0	0	0	0	0	0	0	0	0	0	0	0	0	0	0	0	0	0	0	0	0	0	0	2
7180	71.8	0	0	0	0	0	0	0	0	0	0	0	0	0	0	0	0	0	0	0	0	0	0	0	0	10.989	-10.989	19.033	0	0	0	1	0	0	17.883	2.027	16.961	0	0	0	0	0	0	0	0	0	0	0	0	1	-1	0	7.5503	-27.469	31.921	0	0	0	1	0	0	17.47	2.0148	16.554	2
7181	71.81	0	0	0	0	0	0	10.917	-10.917	18.908	0	0	0	0	0	0	0	0	0	0	0	0	1	0	0	17.755	2.1475	16.785	0	0	0	1	0	0	17.761	2.1499	16.789	0	0	0	0	0	0	0	0	0	0	0	0	0	0	0	10.994	-10.994	19.042	0	0	0	0	0	0	0	0	0	2
7182	71.82	0	0	0	0	0	0	0	0	0	0	0	0	0	0	0	0	0	0	0	0	0	0	0	0	10.989	-10.989	19.033	0	0	0	1	0	0	17.761	2.1499	16.789	0	0	0	0	0	0	0	0	0	0	0	0	0	-1	0	-2.0278	-17.891	16.968	0	0	0	0	0	0	0	0	0	2
7183	71.83	0	0	0	0	0	0	10.917	-10.917	18.908	0	0	0	0	0	0	0	0	0	0	0	0	0	0	0	10.989	-10.989	19.033	0	0	0	1	0	0	17.761	2.1499	16.789	0	0	0	0	0	0	0	0	0	0	0	0	0	-1	0	-2.0278	-17.891	16.968	0	0	0	1	0	0	17.47	2.0148	16.554	3
7184	71.84	0	0	0	0	0	0	0	0	0	0	0	0	0	0	0	0	0	0	0	0	0	0	0	0	10.989	-10.989	19.033	0	0	0	1	0	0	17.761	2.1499	16.789	0	0	0	0	0	0	0	0	0	0	0	0	0	0	0	0	0	0	0	0	0	0	0	0	0	0	0	2
7185	71.85	0	0	0	0	0	0	0	0	0	0	0	0	0	0	0	0	0	0	0	0	0	0	0	0	10.989	-10.989	19.033	0	0	0	1	0	0	17.761	2.1499	16.789	0	0	0	0	0	0	0	0	0	0	0	0	0	0	0	0	0	0	0	0	0	0	0	0	0	0	0	2
7186	71.86	0	0	0	0	0	0	0	0	0	0	0	0	0	0	0	0	0	0	0	0	0	0	0	0	10.989	-10.989	19.033	0	0	0	1	0	0	17.761	2.1499	16.789	0	0	0	1	0	0	17.883	2.027	16.961	0	0	0	0	0	0	0	0	0	0	0	0	1	0	0	17.47	2.0148	16.554	2
7187	71.87	0	0	0	0	0	0	0	0	0	0	0	0	0	0	0	0	0	0	0	0	0	0	0	0	10.989	-10.989	19.033	0	0	0	1	0	0	17.883	2.027	16.961	0	0	0	0	0	0	0	0	0	0	0	0	0	-1	0	-2.0278	-17.891	16.968	0	0	0	0	0	0	0	0	0	2
7188	71.88	0	0	0	0	0	0	0	0	0	0	0	0	0	0	0	0	0	0	0	0	0	0	0	0	10.989	-10.989	19.033	0	0	0	1	0	0	17.761	2.1499	16.789	0	0	0	0	0	0	0	0	0	0	0	0	0	-1	0	-2.0278	-17.891	16.968	0	0	0	1	0	0	17.47	2.0148	16.554	2
7189	71.89	0	0	0	0	0	0	10.917	-10.917	18.908	0	0	0	0	0	0	0	0	0	0	0	0	0	0	0	10.989	-10.989	19.033	0	0	0	1	0	0	17.761	2.1499	16.789	0	0	0	0	0	0	0	0	0	0	0	0	0	-1	0	-2.0278	-17.891	16.968	0	0	0	1	0	0	17.47	2.0148	16.554	2
7190	71.9	0	0	0	0	0	0	10.917	-10.917	18.908	0	0	0	0	0	0	0	0	0	0	0	0	0	0	0	10.989	-10.989	19.033	0	0	0	1	0	0	17.761	2.1499	16.789	0	0	0	0	0	0	0	0	0	0	0	0	0	-1	0	-2.0278	-17.891	16.968	0	0	0	0	0	0	0	0	0	2
7191	71.91	0	0	0	0	0	0	0	0	0	0	0	0	0	0	0	0	0	0	0	0	0	1	0	0	17.755	2.1475	16.785	0	0	0	1	0	0	17.761	2.1499	16.789	0	0	0	1	0	0	17.883	2.027	16.961	0	0	0	0	-1	0	-2.0278	-17.891	16.968	0	0	0	1	0	0	30.423	8.5595	27.174	2
7192	71.92	0	0	0	0	0	0	0	0	0	0	0	0	0	0	0	0	0	0	0	0	0	0	0	0	10.989	-10.989	19.033	0	0	0	1	0	0	17.883	2.027	16.961	0	0	0	0	0	0	0	0	0	0	0	0	0	-1	0	-2.0278	-17.891	16.968	0	0	0	0	0	0	0	0	0	2
7193	71.93	0	0	0	0	0	0	0	0	0	0	0	0	0	0	0	0	0	0	0	0	0	0	0	0	10.989	-10.989	19.033	0	0	0	1	0	0	17.761	2.1499	16.789	0	0	0	0	0	0	0	0	0	0	0	0	1	-1	0	7.5503	-27.469	31.921	0	0	0	0	0	0	0	0	0	2
7194	71.94	0	0	0	0	0	0	10.917	-10.917	18.908	0	0	0	0	0	0	0	0	0	0	0	0	0	0	0	10.989	-10.989	19.033	0	0	0	1	0	0	17.883	2.027	16.961	0	0	0	0	0	0	0	0	0	0	0	0	1	-1	0	7.5503	-27.469	31.921	0	0	0	0	0	0	0	0	0	2
7195	71.95	0	0	0	0	0	0	0	0	0	0	0	0	0	0	0	0	0	0	0	0	0	0	0	0	10.989	-10.989	19.033	0	0	0	1	0	0	17.761	2.1499	16.789	0	0	0	0	0	0	0	0	0	0	0	0	0	-1	0	-2.0278	-17.891	16.968	0	0	0	1	0	0	17.47	2.0148	16.554	2
7196	71.96	0	0	0	0	0	0	0	0	0	0	0	0	0	0	0	0	0	0	0	0	0	1	0	0	17.755	2.1475	16.785	0	0	0	1	0	0	17.761	2.1499	16.789	0	0	0	0	0	0	0	0	0	0	0	0	0	-1	0	-2.0278	-17.891	16.968	0	0	0	1	0	0	17.47	2.0148	16.554	2
7197	71.97	0	0	0	0	0	0	0	0	0	0	0	0	0	0	0	0	0	0	0	0	0	0	0	0	10.989	-10.989	19.033	0	0	0	1	0	0	17.761	2.1499	16.789	0	0	0	0	0	0	0	0	0	0	0	0	0	-1	0	-2.0278	-17.891	16.968	0	0	0	1	0	0	17.47	2.0148	16.554	2
7198	71.98	0	0	0	0	0	0	0	0	0	0	0	0	0	0	0	0	0	0	0	0	0	0	0	0	10.989	-10.989	19.033	0	0	0	1	0	0	17.761	2.1499	16.789	0	0	0	0	0	0	0	0	0	0	0	0	0	0	0	0	0	0	0	0	0	0	0	0	0	0	0	2
7199	71.99	0	0	0	0	0	0	0	0	0	0	0	0	0	0	0	0	0	0	0	0	0	1	0	0	17.755	2.1475	16.785	0	0	0	1	0	0	17.761	2.1499	16.789	0	0	0	0	0	0	0	0	0	0	0	0	1	-1	0	7.5503	-27.469	31.921	0	0	0	0	0	0	0	0	0	2
7200	72	0	0	0	0	0	0	0	0	0	0	0	0	0	0	0	0	0	0	0	0	0	0	0	0	10.989	-10.989	19.033	0	0	0	1	0	0	17.761	2.1499	16.789	0	0	0	0	0	0	0	0	0	0	0	0	0	-1	0	-2.0278	-17.891	16.968	0	0	0	0	0	0	0	0	0	2
7201	72.01	0	0	0	0	0	0	0	0	0	0	0	0	0	0	0	0	0	0	0	0	0	0	0	0	10.989	-10.989	19.033	0	0	0	1	0	0	17.761	2.1499	16.789	0	0	0	1	0	0	17.883	2.027	16.961	0	0	0	1	-1	0	7.5503	-27.469	31.921	0	0	0	1	0	0	17.47	2.0148	16.554	0
7202	72.02	0	0	0	0	0	0	0	0	0	0	0	0	0	0	0	0	0	0	0	0	0	0	0	0	10.989	-10.989	19.033	0	0	0	1	0	0	17.883	2.027	16.961	0	0	0	0	0	0	0	0	0	0	0	0	0	-1	0	-2.0278	-17.891	16.968	0	0	0	0	0	0	0	0	0	2
7203	72.03	0	0	0	0	0	0	0	0	0	0	0	0	0	0	0	0	0	0	0	0	0	0	0	0	10.989	-10.989	19.033	0	0	0	1	0	0	17.761	2.1499	16.789	0	0	0	0	0	0	0	0	0	0	0	0	0	0	0	0	0	0	0	0	0	1	0	0	17.47	2.0148	16.554	2
7204	72.04	0	0	0	0	0	0	10.917	-10.917	18.908	0	0	0	0	0	0	0	0	0	0	0	0	0	0	0	10.989	-10.989	19.033	0	0	0	1	0	0	17.761	2.1499	16.789	0	0	0	0	0	0	0	0	0	0	0	0	1	-1	0	7.5503	-27.469	31.921	0	0	0	0	0	0	0	0	0	3
7205	72.05	0	0	0	0	0	0	0	0	0	0	0	0	0	0	0	0	0	0	0	0	0	0	0	0	10.989	-10.989	19.033	0	0	0	1	0	0	17.883	2.027	16.961	0	0	0	0	0	0	0	0	0	0	0	0	0	-1	0	-2.0278	-17.891	16.968	0	0	0	0	0	0	0	0	0	2
7206	72.06	0	0	0	0	0	0	0	0	0	0	0	0	0	0	0	0	0	0	0	0	0	0	0	0	10.989	-10.989	19.033	0	0	0	1	0	0	17.883	2.027	16.961	0	0	0	1	0	0	17.883	2.027	16.961	0	0	0	0	0	0	0	0	0	0	0	0	1	0	0	17.47	2.0148	16.554	2
7207	72.07	0	0	0	0	0	0	0	0	0	0	0	0	0	0	0	0	0	0	0	0	0	0	0	0	10.989	-10.989	19.033	0	0	0	1	0	0	17.883	2.027	16.961	0	0	0	0	0	0	0	0	0	0	0	0	0	-1	0	-2.0278	-17.891	16.968	0	0	0	0	0	0	0	0	0	2
7208	72.08	0	0	0	0	0	0	0	0	0	0	0	0	0	0	0	0	0	0	0	0	0	1	0	0	17.755	2.1475	16.785	0	0	0	1	0	0	17.761	2.1499	16.789	0	0	0	0	0	0	0	0	0	0	0	0	0	-1	0	-2.0278	-17.891	16.968	0	0	0	1	0	0	17.47	2.0148	16.554	2
7209	72.09	0	0	0	0	0	0	0	0	0	0	0	0	0	0	0	0	0	0	0	0	0	1	0	0	17.755	2.1475	16.785	0	0	0	1	0	0	17.761	2.1499	16.789	0	0	0	0	0	0	0	0	0	0	0	0	0	0	0	0	0	0	0	0	0	1	0	0	17.47	2.0148	16.554	2
7210	72.1	0	0	0	0	0	0	0	0	0	0	0	0	0	0	0	0	0	0	0	0	0	0	0	0	10.989	-10.989	19.033	0	0	0	0	0	0	10.991	-10.991	19.037	0	0	0	0	0	0	0	0	0	0	0	0	1	-1	0	7.5503	-27.469	31.921	0	0	0	0	0	0	0	0	0	2
7211	72.11	0	0	0	0	0	0	0	0	0	0	0	0	0	0	0	0	0	0	0	0	0	0	0	0	10.989	-10.989	19.033	0	0	0	1	0	0	17.761	2.1499	16.789	0	0	0	0	0	0	0	0	0	0	0	0	0	0	0	10.994	-10.994	19.042	0	0	0	0	0	0	0	0	0	2
7212	72.12	0	0	0	0	0	0	0	0	0	0	0	0	0	0	0	0	0	0	0	0	0	1	0	0	17.755	2.1475	16.785	0	0	0	1	0	0	17.761	2.1499	16.789	0	0	0	0	0	0	0	0	0	0	0	0	0	0	0	10.994	-10.994	19.042	0	0	0	0	0	0	0	0	0	2
7213	72.13	0	0	0	0	0	0	0	0	0	0	0	0	0	0	0	0	0	0	0	0	0	0	0	0	10.989	-10.989	19.033	0	0	0	1	0	0	17.761	2.1499	16.789	0	0	0	0	0	0	0	0	0	0	0	0	0	-1	0	-2.0278	-17.891	16.968	0	0	0	0	0	0	0	0	0	2
7214	72.14	0	0	0	0	0	0	10.917	-10.917	18.908	0	0	0	0	0	0	0	0	0	0	0	0	0	0	0	10.989	-10.989	19.033	0	0	0	1	0	0	17.883	2.027	16.961	0	0	0	0	0	0	0	0	0	0	0	0	0	-1	0	-2.0278	-17.891	16.968	0	0	0	0	0	0	0	0	0	2
7215	72.15	0	0	0	0	0	0	0	0	0	0	0	0	0	0	0	0	0	0	0	0	0	1	0	0	17.755	2.1475	16.785	0	0	0	1	0	0	17.761	2.1499	16.789	0	0	0	0	0	0	0	0	0	0	0	0	0	-1	0	-2.0278	-17.891	16.968	0	0	0	0	0	0	0	0	0	2
7216	72.16	0	0	0	0	0	0	10.917	-10.917	18.908	0	0	0	0	0	0	0	0	0	0	0	0	1	0	0	17.755	2.1475	16.785	0	0	0	1	0	0	17.761	2.1499	16.789	0	0	0	0	0	0	0	0	0	0	0	0	0	-1	0	-2.0278	-17.891	16.968	0	0	0	1	0	0	17.47	2.0148	16.554	2
7217	72.17	0	0	0	0	0	0	0	0	0	0	0	0	0	0	0	0	0	0	0	0	0	0	0	0	10.989	-10.989	19.033	0	0	0	1	0	0	17.883	2.027	16.961	0	0	0	0	0	0	0	0	0	0	0	0	0	-1	0	-2.0278	-17.891	16.968	0	0	0	0	0	0	0	0	0	2
7218	72.18	0	0	0	0	0	0	0	0	0	0	0	0	0	0	0	0	0	0	0	0	0	0	0	0	10.989	-10.989	19.033	0	0	0	1	0	0	17.761	2.1499	16.789	0	0	0	0	0	0	0	0	0	0	0	0	0	-1	0	-2.0278	-17.891	16.968	0	0	0	0	0	0	0	0	0	2
7219	72.19	0	0	0	0	0	0	0	0	0	0	0	0	0	0	0	0	0	0	0	0	0	0	0	0	10.989	-10.989	19.033	0	0	0	1	0	0	17.883	2.027	16.961	0	0	0	0	0	0	0	0	0	0	0	0	0	-1	0	-2.0278	-17.891	16.968	0	0	0	0	0	0	0	0	0	2
7220	72.2	0	0	0	0	0	0	10.917	-10.917	18.908	0	0	0	0	0	0	0	0	0	0	0	0	1	0	0	17.755	2.1475	16.785	0	0	0	1	0	0	17.761	2.1499	16.789	0	0	0	0	0	0	0	0	0	0	0	0	0	-1	0	-2.0278	-17.891	16.968	0	0	0	0	0	0	0	0	0	2
7221	72.21	0	0	0	0	0	0	0	0	0	0	0	0	0	0	0	0	0	0	0	0	0	0	0	0	10.989	-10.989	19.033	0	0	0	1	0	0	17.761	2.1499	16.789	0	0	0	0	0	0	0	0	0	0	0	0	1	-1	0	7.5503	-27.469	31.921	0	0	0	1	0	0	30.423	8.5595	27.174	2
7222	72.22	0	0	0	0	0	0	10.917	-10.917	18.908	0	0	0	0	0	0	0	0	0	0	0	0	0	0	0	10.989	-10.989	19.033	0	0	0	1	0	0	17.883	2.027	16.961	0	0	0	0	0	0	0	0	0	0	0	0	0	0	0	0	0	0	0	0	0	1	0	0	17.47	2.0148	16.554	2
7223	72.23	0	0	0	0	0	0	0	0	0	0	0	0	0	0	0	0	0	0	0	0	0	0	0	0	10.989	-10.989	19.033	0	0	0	1	0	0	17.761	2.1499	16.789	0	0	0	0	0	0	0	0	0	0	0	0	0	0	0	0	0	0	0	0	0	0	0	0	0	0	0	2
7224	72.24	0	0	0	0	0	0	10.917	-10.917	18.908	0	0	0	0	0	0	0	0	0	0	0	0	1	0	0	17.755	2.1475	16.785	0	0	0	1	0	0	17.761	2.1499	16.789	0	0	0	0	0	0	0	0	0	0	0	0	0	-1	0	-2.0278	-17.891	16.968	0	0	0	1	0	0	17.482	2.0162	16.566	3
7225	72.25	0	0	0	0	0	0	0	0	0	0	0	0	0	0	0	0	0	0	0	0	0	0	0	0	10.989	-10.989	19.033	0	0	0	1	0	0	17.883	2.027	16.961	0	0	0	0	0	0	0	0	0	0	0	0	0	-1	0	-2.0278	-17.891	16.968	0	0	0	0	0	0	0	0	0	2
7226	72.26	0	0	0	0	0	0	0	0	0	0	0	0	0	0	0	0	0	0	0	0	0	0	0	0	10.989	-10.989	19.033	0	0	0	1	0	0	17.761	2.1499	16.789	0	0	0	0	0	0	0	0	0	0	0	0	1	-1	0	7.5503	-27.469	31.921	0	0	0	1	0	0	17.471	2.0135	16.556	2
7227	72.27	0	0	0	0	0	0	0	0	0	0	0	0	0	0	0	0	0	0	0	0	0	0	0	0	10.989	-10.989	19.033	0	0	0	1	0	0	17.761	2.1499	16.789	0	0	0	0	0	0	0	0	0	0	0	0	0	0	0	0	0	0	0	0	0	0	0	0	0	0	0	2
7228	72.28	0	0	0	0	0	0	0	0	0	0	0	0	0	0	0	0	0	0	0	0	0	0	0	0	10.989	-10.989	19.033	0	0	0	1	0	0	17.761	2.1499	16.789	0	0	0	0	0	0	0	0	0	0	0	0	0	-1	0	-2.0278	-17.891	16.968	0	0	0	0	0	0	0	0	0	2
7229	72.29	0	0	0	0	0	0	10.917	-10.917	18.908	0	0	0	0	0	0	0	0	0	0	0	0	0	0	0	10.989	-10.989	19.033	0	0	0	1	0	0	17.761	2.1499	16.789	0	0	0	0	0	0	0	0	0	0	0	0	1	-1	0	7.5503	-27.469	31.921	0	0	0	0	0	0	0	0	0	3
7230	72.3	0	0	0	0	0	0	0	0	0	0	0	0	0	0	0	0	0	0	0	0	0	0	0	0	10.989	-10.989	19.033	0	0	0	1	0	0	17.883	2.027	16.961	0	0	0	0	0	0	0	0	0	0	0	0	0	-1	0	-2.0278	-17.891	16.968	0	0	0	0	0	0	0	0	0	2
7231	72.31	0	0	0	0	0	0	10.917	-10.917	18.908	0	0	0	0	0	0	0	0	0	0	0	0	1	0	0	17.755	2.1475	16.785	0	0	0	1	0	0	17.761	2.1499	16.789	0	0	0	0	0	0	0	0	0	0	0	0	0	-1	0	-2.0278	-17.891	16.968	0	0	0	0	0	0	0	0	0	2
7232	72.32	0	0	0	0	0	0	0	0	0	0	0	0	0	0	0	0	0	0	0	0	0	0	0	0	10.989	-10.989	19.033	0	0	0	1	0	0	17.883	2.027	16.961	0	0	0	0	0	0	0	0	0	0	0	0	0	-1	0	-2.0278	-17.891	16.968	0	0	0	1	0	0	17.47	2.0148	16.554	2
7233	72.33	0	0	0	0	0	0	10.917	-10.917	18.908	0	0	0	0	0	0	0	0	0	0	0	0	1	0	0	17.755	2.1475	16.785	0	0	0	1	0	0	17.761	2.1499	16.789	0	0	0	1	0	0	17.883	2.027	16.961	0	0	0	0	0	0	0	0	0	0	0	0	1	0	0	17.47	2.0148	16.554	0
7234	72.34	0	0	0	0	0	0	0	0	0	0	0	0	0	0	0	0	0	0	0	0	0	1	0	0	17.755	2.1475	16.785	0	0	0	1	0	0	17.883	2.027	16.961	0	0	0	0	0	0	0	0	0	0	0	0	0	0	0	10.994	-10.994	19.042	0	0	0	1	0	0	17.47	2.0148	16.554	2
7235	72.35	0	0	0	0	0	0	10.917	-10.917	18.908	0	0	0	0	0	0	0	0	0	0	0	0	0	0	0	10.989	-10.989	19.033	0	0	0	1	0	0	17.883	2.027	16.961	0	0	0	0	0	0	0	0	0	0	0	0	0	-1	0	-2.0278	-17.891	16.968	0	0	0	0	0	0	0	0	0	2
7236	72.36	0	0	0	0	0	0	10.917	-10.917	18.908	0	0	0	0	0	0	0	0	0	0	0	0	0	0	0	10.989	-10.989	19.033	0	0	0	1	0	0	17.761	2.1499	16.789	0	0	0	0	0	0	0	0	0	0	0	0	0	0	0	0	0	0	0	0	0	1	0	0	17.47	2.0148	16.554	2
7237	72.37	0	0	0	0	0	0	0	0	0	0	0	0	0	0	0	0	0	0	0	0	0	0	0	0	10.989	-10.989	19.033	0	0	0	1	0	0	17.883	2.027	16.961	0	0	0	0	0	0	0	0	0	0	0	0	0	-1	0	-2.0278	-17.891	16.968	0	0	0	0	0	0	0	0	0	2
7238	72.38	0	0	0	0	0	0	10.917	-10.917	18.908	0	0	0	0	0	0	0	0	0	0	0	0	0	0	0	10.989	-10.989	19.033	0	0	0	1	0	0	17.761	2.1499	16.789	0	0	0	0	0	0	0	0	0	0	0	0	0	0	0	10.994	-10.994	19.042	0	0	0	1	0	0	17.47	2.0148	16.554	2
7239	72.39	0	0	0	0	0	0	10.917	-10.917	18.908	0	0	0	0	0	0	0	0	0	0	0	0	0	0	0	10.989	-10.989	19.033	0	0	0	1	0	0	17.883	2.027	16.961	0	0	0	0	0	0	0	0	0	0	0	0	0	0	0	0	0	0	0	0	0	0	0	0	0	0	0	2
7240	72.4	0	0	0	0	0	0	10.917	-10.917	18.908	0	0	0	0	0	0	0	0	0	0	0	0	0	0	0	10.989	-10.989	19.033	0	0	0	1	0	0	17.883	2.027	16.961	0	0	0	0	0	0	0	0	0	0	0	0	0	0	0	0	0	0	0	0	0	0	0	0	0	0	0	2
7241	72.41	0	0	0	0	0	0	10.917	-10.917	18.908	0	0	0	0	0	0	0	0	0	0	0	0	1	0	0	17.755	2.1475	16.785	0	0	0	1	0	0	17.761	2.1499	16.789	0	0	0	0	0	0	0	0	0	0	0	0	0	-1	0	-2.0278	-17.891	16.968	0	0	0	1	0	0	17.47	2.0148	16.554	2
7242	72.42	0	0	0	0	0	0	0	0	0	0	0	0	0	0	0	0	0	0	0	0	0	0	0	0	10.989	-10.989	19.033	0	0	0	1	0	0	17.761	2.1499	16.789	0	0	0	0	0	0	0	0	0	0	0	0	0	-1	0	-2.0278	-17.891	16.968	0	0	0	0	0	0	0	0	0	2
7243	72.43	0	0	0	0	0	0	10.917	-10.917	18.908	0	0	0	0	0	0	0	0	0	0	0	0	1	0	0	17.755	2.1475	16.785	0	0	0	1	0	0	17.883	2.027	16.961	0	0	0	0	0	0	0	0	0	0	0	0	0	-1	0	-2.0278	-17.891	16.968	0	0	0	0	0	0	0	0	0	2
7244	72.44	0	0	0	0	0	0	0	0	0	0	0	0	0	0	0	0	0	0	0	0	0	0	0	0	10.989	-10.989	19.033	0	0	0	1	0	0	17.761	2.1499	16.789	0	0	0	0	0	0	0	0	0	0	0	0	0	-1	0	-2.0278	-17.891	16.968	0	0	0	1	0	0	17.47	2.0148	16.554	2
7245	72.45	0	0	0	0	0	0	0	0	0	0	0	0	0	0	0	0	0	0	0	0	0	0	0	0	10.989	-10.989	19.033	0	0	0	1	0	0	17.883	2.027	16.961	0	0	0	0	0	0	0	0	0	0	0	0	0	0	0	0	0	0	0	0	0	0	0	0	0	0	0	2
7246	72.46	0	0	0	0	0	0	0	0	0	0	0	0	0	0	0	0	0	0	0	0	0	1	0	0	17.755	2.1475	16.785	0	0	0	1	0	0	17.761	2.1499	16.789	0	0	0	0	0	0	0	0	0	0	0	0	1	-1	0	7.5503	-27.469	31.921	0	0	0	1	0	0	17.47	2.0148	16.554	2
7247	72.47	0	0	0	0	0	0	0	0	0	0	0	0	0	0	0	0	0	0	0	0	0	0	0	0	10.989	-10.989	19.033	0	0	0	1	0	0	17.761	2.1499	16.789	0	0	0	1	0	0	17.883	2.027	16.961	0	0	0	0	0	0	0	0	0	0	0	0	1	0	0	17.47	2.0148	16.554	2
7248	72.48	0	0	0	0	0	0	0	0	0	0	0	0	0	0	0	0	0	0	0	0	0	1	0	0	17.755	2.1475	16.785	0	0	0	1	0	0	17.761	2.1499	16.789	0	0	0	0	0	0	0	0	0	0	0	0	0	-1	0	-2.0278	-17.891	16.968	0	0	0	0	0	0	0	0	0	2
7249	72.49	0	0	0	0	0	0	0	0	0	0	0	0	0	0	0	0	0	0	0	0	0	0	0	0	10.989	-10.989	19.033	0	0	0	1	0	0	17.883	2.027	16.961	0	0	0	0	0	0	0	0	0	0	0	0	0	-1	0	-2.0278	-17.891	16.968	0	0	0	0	0	0	0	0	0	2
7250	72.5	0	0	0	0	0	0	10.917	-10.917	18.908	0	0	0	0	0	0	0	0	0	0	0	0	0	0	0	10.989	-10.989	19.033	0	0	0	1	0	0	17.761	2.1499	16.789	0	0	0	0	0	0	0	0	0	0	0	0	1	-1	0	7.5503	-27.469	31.921	0	0	0	0	0	0	0	0	0	2
7251	72.51	0	0	0	0	0	0	0	0	0	0	0	0	0	0	0	0	0	0	0	0	0	0	0	0	10.989	-10.989	19.033	0	0	0	1	0	0	17.761	2.1499	16.789	0	0	0	0	0	0	0	0	0	0	0	0	0	-1	0	-2.0278	-17.891	16.968	0	0	0	0	0	0	0	0	0	2
7252	72.52	0	0	0	0	0	0	0	0	0	0	0	0	0	0	0	0	0	0	0	0	0	0	0	0	10.989	-10.989	19.033	0	0	0	1	0	0	17.883	2.027	16.961	0	0	0	0	0	0	0	0	0	0	0	0	0	-1	0	-2.0278	-17.891	16.968	0	0	0	0	0	0	0	0	0	2
7253	72.53	0	0	0	0	0	0	0	0	0	0	0	0	0	0	0	0	0	0	0	0	0	1	0	0	17.755	2.1475	16.785	0	0	0	1	0	0	17.761	2.1499	16.789	0	0	0	0	0	0	0	0	0	0	0	0	0	0	0	10.994	-10.994	19.042	0	0	0	0	0	0	0	0	0	2
7254	72.54	0	0	0	0	0	0	0	0	0	0	0	0	0	0	0	0	0	0	0	0	0	0	0	0	10.989	-10.989	19.033	0	0	0	1	0	0	17.883	2.027	16.961	0	0	0	1	0	0	17.883	2.027	16.961	0	0	0	0	-1	0	-2.0278	-17.891	16.968	0	0	0	0	0	0	0	0	0	2
7255	72.55	0	0	0	0	0	0	10.917	-10.917	18.908	0	0	0	0	0	0	0	0	0	0	0	0	0	0	0	10.989	-10.989	19.033	0	0	0	1	0	0	17.761	2.1499	16.789	0	0	0	0	0	0	0	0	0	0	0	0	0	-1	0	-2.0278	-17.891	16.968	0	0	0	0	0	0	0	0	0	2
7256	72.56	0	0	0	0	0	0	0	0	0	0	0	0	0	0	0	0	0	0	0	0	0	0	0	0	10.989	-10.989	19.033	0	0	0	1	0	0	17.883	2.027	16.961	0	0	0	0	0	0	0	0	0	0	0	0	0	0	0	10.994	-10.994	19.042	0	0	0	1	0	0	17.47	2.0148	16.554	2
7257	72.57	0	0	0	0	0	0	0	0	0	0	0	0	0	0	0	0	0	0	0	0	0	0	0	0	10.989	-10.989	19.033	0	0	0	1	0	0	17.761	2.1499	16.789	0	0	0	0	0	0	0	0	0	0	0	0	0	-1	0	-2.0278	-17.891	16.968	0	0	0	0	0	0	0	0	0	2
7258	72.58	0	0	0	0	0	0	0	0	0	0	0	0	0	0	0	0	0	0	0	0	0	0	0	0	10.989	-10.989	19.033	0	0	0	1	0	0	17.761	2.1499	16.789	0	0	0	0	0	0	0	0	0	0	0	0	0	-1	0	-2.0278	-17.891	16.968	0	0	0	0	0	0	0	0	0	2
7259	72.59	0	0	0	0	0	0	0	0	0	0	0	0	0	0	0	0	0	0	0	0	0	0	0	0	10.989	-10.989	19.033	0	0	0	1	0	0	17.761	2.1499	16.789	0	0	0	0	0	0	0	0	0	0	0	0	0	-1	0	-2.0278	-17.891	16.968	0	0	0	1	0	0	17.47	2.0148	16.554	2
7260	72.6	0	0	0	0	0	0	0	0	0	0	0	0	0	0	0	0	0	0	0	0	0	0	0	0	10.989	-10.989	19.033	0	0	0	1	0	0	17.883	2.027	16.961	0	0	0	0	0	0	0	0	0	0	0	0	0	-1	0	-2.0278	-17.891	16.968	0	0	0	0	0	0	0	0	0	2
7261	72.61	0	0	0	0	0	0	0	0	0	0	0	0	0	0	0	0	0	0	0	0	0	0	0	0	10.989	-10.989	19.033	0	0	0	1	0	0	17.761	2.1499	16.789	0	0	0	1	0	0	17.883	2.027	16.961	0	0	0	1	-1	0	7.5503	-27.469	31.921	0	0	0	1	0	0	17.47	2.0148	16.554	2
7262	72.62	0	0	0	0	0	0	0	0	0	0	0	0	0	0	0	0	0	0	0	0	0	0	0	0	10.989	-10.989	19.033	0	0	0	1	0	0	17.883	2.027	16.961	0	0	0	0	0	0	0	0	0	0	0	0	0	-1	0	-2.0278	-17.891	16.968	0	0	0	0	0	0	0	0	0	2
7263	72.63	0	0	0	0	0	0	10.917	-10.917	18.908	0	0	0	0	0	0	0	0	0	0	0	0	0	0	0	10.989	-10.989	19.033	0	0	0	1	0	0	17.761	2.1499	16.789	0	0	0	0	0	0	0	0	0	0	0	0	0	0	0	0	0	0	0	0	0	1	0	0	17.47	2.0148	16.554	2
7264	72.64	0	0	0	0	0	0	0	0	0	0	0	0	0	0	0	0	0	0	0	0	0	0	0	0	10.989	-10.989	19.033	0	0	0	1	0	0	17.883	2.027	16.961	0	0	0	0	0	0	0	0	0	0	0	0	0	-1	0	-2.0278	-17.891	16.968	0	0	0	0	0	0	0	0	0	2
7265	72.65	0	0	0	0	0	0	0	0	0	0	0	0	0	0	0	0	0	0	0	0	0	0	0	0	10.989	-10.989	19.033	0	0	0	1	0	0	17.883	2.027	16.961	0	0	0	0	0	0	0	0	0	0	0	0	0	-1	0	-2.0278	-17.891	16.968	0	0	0	1	0	0	17.47	2.0148	16.554	0
7266	72.66	0	0	0	0	0	0	0	0	0	0	0	0	0	0	0	0	0	0	0	0	0	1	0	0	17.755	2.1475	16.785	0	0	0	1	0	0	17.883	2.027	16.961	0	0	0	0	0	0	0	0	0	0	0	0	0	-1	0	-2.0278	-17.891	16.968	0	0	0	0	0	0	0	0	0	2
7267	72.67	0	0	0	0	0	0	10.917	-10.917	18.908	0	0	0	0	0	0	0	0	0	0	0	0	0	0	0	10.989	-10.989	19.033	0	0	0	1	0	0	17.883	2.027	16.961	0	0	0	0	0	0	0	0	0	0	0	0	0	-1	0	-2.0278	-17.891	16.968	0	0	0	0	0	0	0	0	0	2
7268	72.68	0	0	0	0	0	0	0	0	0	0	0	0	0	0	0	0	0	0	0	0	0	0	0	0	10.989	-10.989	19.033	0	0	0	1	0	0	17.761	2.1499	16.789	0	0	0	0	0	0	0	0	0	0	0	0	0	-1	0	-2.0278	-17.891	16.968	0	0	0	1	0	0	17.47	2.0148	16.554	2
7269	72.69	0	0	0	0	0	0	0	0	0	0	0	0	0	0	0	0	0	0	0	0	0	1	0	0	17.755	2.1475	16.785	0	0	0	1	0	0	17.761	2.1499	16.789	0	0	0	0	0	0	0	0	0	0	0	0	0	0	0	10.994	-10.994	19.042	0	0	0	0	0	0	0	0	0	2
7270	72.7	0	0	0	0	0	0	0	0	0	0	0	0	0	0	0	0	0	0	0	0	0	0	0	0	10.989	-10.989	19.033	0	0	0	1	0	0	17.883	2.027	16.961	0	0	0	0	0	0	0	0	0	0	0	0	0	-1	0	-2.0278	-17.891	16.968	0	0	0	0	0	0	0	0	0	2
7271	72.71	0	0	0	0	0	0	10.917	-10.917	18.908	0	0	0	0	0	0	0	0	0	0	0	0	1	0	0	17.755	2.1475	16.785	0	0	0	1	0	0	17.883	2.027	16.961	0	0	0	0	0	0	0	0	0	0	0	0	0	0	0	0	0	0	0	0	0	1	0	0	17.47	2.0148	16.554	2
7272	72.72	0	0	0	0	0	0	10.917	-10.917	18.908	0	0	0	0	0	0	0	0	0	0	0	0	0	0	0	10.989	-10.989	19.033	0	0	0	1	0	0	17.761	2.1499	16.789	0	0	0	0	0	0	0	0	0	0	0	0	0	-1	0	-2.0278	-17.891	16.968	0	0	0	0	0	0	0	0	0	2
7273	72.73	0	0	0	0	0	0	0	0	0	0	0	0	0	0	0	0	0	0	0	0	0	1	0	0	17.755	2.1475	16.785	0	0	0	1	0	0	17.883	2.027	16.961	0	0	0	0	0	0	0	0	0	0	0	0	0	0	0	0	0	0	0	0	0	1	0	0	17.47	2.0148	16.554	2
7274	72.74	0	0	0	0	0	0	10.917	-10.917	18.908	0	0	0	0	0	0	0	0	0	0	0	0	1	0	0	17.755	2.1475	16.785	0	0	0	1	0	0	17.761	2.1499	16.789	0	0	0	0	0	0	0	0	0	0	0	0	0	-1	0	-2.0278	-17.891	16.968	0	0	0	1	0	0	17.47	2.0148	16.554	2
7275	72.75	0	0	0	0	0	0	0	0	0	0	0	0	0	0	0	0	0	0	0	0	0	0	0	0	10.989	-10.989	19.033	0	0	0	1	0	0	17.761	2.1499	16.789	0	0	0	0	0	0	0	0	0	0	0	0	1	-1	0	7.5503	-27.469	31.921	0	0	0	0	0	0	0	0	0	2
7276	72.76	0	0	0	0	0	0	0	0	0	0	0	0	0	0	0	0	0	0	0	0	0	1	0	0	17.755	2.1475	16.785	0	0	0	1	0	0	17.761	2.1499	16.789	0	0	0	1	0	0	17.883	2.027	16.961	0	0	0	0	-1	0	-2.0278	-17.891	16.968	0	0	0	0	0	0	0	0	0	2
7277	72.77	0	0	0	0	0	0	0	0	0	0	0	0	0	-1	0	-2.0366	-17.816	16.89	0	0	0	0	0	0	10.989	-10.989	19.033	0	0	0	1	0	0	17.761	2.1499	16.789	0	0	0	0	0	0	0	0	0	0	0	0	0	-1	0	-2.0278	-17.891	16.968	0	0	0	0	0	0	0	0	0	2
7278	72.78	0	0	0	0	0	0	10.917	-10.917	18.908	0	0	0	0	0	0	0	0	0	0	0	0	0	0	0	10.989	-10.989	19.033	0	0	0	1	0	0	17.761	2.1499	16.789	0	0	0	0	0	0	0	0	0	0	0	0	0	-1	0	-2.0278	-17.891	16.968	0	0	0	1	0	0	17.47	2.0148	16.554	0
7279	72.79	0	0	0	0	0	0	0	0	0	0	0	0	0	0	0	0	0	0	0	0	0	0	0	0	10.989	-10.989	19.033	0	0	0	1	0	0	17.883	2.027	16.961	0	0	0	0	0	0	0	0	0	0	0	0	1	-1	0	7.5503	-27.469	31.921	0	0	0	1	0	0	17.47	2.0148	16.554	2
7280	72.8	0	0	0	0	0	0	0	0	0	0	0	0	0	0	0	0	0	0	0	0	0	0	0	0	10.989	-10.989	19.033	0	0	0	1	0	0	17.883	2.027	16.961	0	0	0	0	0	0	0	0	0	0	0	0	0	0	0	0	0	0	0	0	0	0	0	0	0	0	0	2
7281	72.81	0	0	0	0	0	0	0	0	0	0	0	0	0	0	0	0	0	0	0	0	0	1	0	0	17.755	2.1475	16.785	0	0	0	1	0	0	17.761	2.1499	16.789	0	0	0	0	0	0	0	0	0	0	0	0	0	-1	0	-2.0278	-17.891	16.968	0	0	0	1	0	0	17.47	2.0148	16.554	2
7282	72.82	0	0	0	0	0	0	0	0	0	0	0	0	0	0	0	0	0	0	0	0	0	0	0	0	10.989	-10.989	19.033	0	0	0	1	0	0	17.883	2.027	16.961	0	0	0	0	0	0	0	0	0	0	0	0	1	-1	0	7.5503	-27.469	31.921	0	0	0	0	0	0	0	0	0	2
7283	72.83	0	0	0	0	0	0	0	0	0	0	0	0	0	0	0	0	0	0	0	0	0	1	0	0	17.755	2.1475	16.785	0	0	0	1	0	0	17.761	2.1499	16.789	0	0	0	0	0	0	0	0	0	0	0	0	0	-1	0	-2.0278	-17.891	16.968	0	0	0	0	0	0	0	0	0	2
7284	72.84	0	0	0	0	0	0	0	0	0	0	0	0	0	0	0	0	0	0	0	0	0	0	0	0	10.989	-10.989	19.033	0	0	0	1	0	0	17.761	2.1499	16.789	0	0	0	0	0	0	0	0	0	0	0	0	1	-1	0	7.5503	-27.469	31.921	0	0	0	0	0	0	0	0	0	2
7285	72.85	0	0	0	0	0	0	0	0	0	0	0	0	0	0	0	0	0	0	0	0	0	0	0	0	10.989	-10.989	19.033	0	0	0	1	0	0	17.883	2.027	16.961	0	0	0	0	0	0	0	0	0	0	0	0	0	0	0	0	0	0	0	0	0	0	0	0	0	0	0	2
7286	72.86	0	0	0	0	0	0	10.917	-10.917	18.908	0	0	0	0	0	0	0	0	0	0	0	0	1	0	0	17.755	2.1475	16.785	0	0	0	1	0	0	17.761	2.1499	16.789	0	0	0	1	0	0	17.883	2.027	16.961	0	0	0	0	-1	0	-2.0278	-17.891	16.968	0	0	0	0	0	0	0	0	0	2
7287	72.87	0	0	0	0	0	0	0	0	0	0	0	0	0	0	0	0	0	0	0	0	0	0	0	0	10.989	-10.989	19.033	0	0	0	1	0	0	17.883	2.027	16.961	0	0	0	0	0	0	0	0	0	0	0	0	1	-1	0	7.5503	-27.469	31.921	0	0	0	0	0	0	0	0	0	2
7288	72.88	0	0	0	0	0	0	0	0	0	0	0	0	0	0	0	0	0	0	0	0	0	0	0	0	10.989	-10.989	19.033	0	0	0	1	0	0	17.761	2.1499	16.789	0	0	0	0	0	0	0	0	0	0	0	0	0	-1	0	-2.0278	-17.891	16.968	0	0	0	1	0	0	17.47	2.0148	16.554	2
7289	72.89	0	0	0	0	0	0	10.917	-10.917	18.908	0	0	0	0	0	0	0	0	0	0	0	0	0	0	0	10.989	-10.989	19.033	0	0	0	1	0	0	17.883	2.027	16.961	0	0	0	0	0	0	0	0	0	0	0	0	0	-1	0	-2.0278	-17.891	16.968	0	0	0	1	0	0	17.47	2.0148	16.554	2
7290	72.9	0	0	0	0	0	0	0	0	0	0	0	0	0	0	0	0	0	0	0	0	0	0	0	0	10.989	-10.989	19.033	0	0	0	1	0	0	17.761	2.1499	16.789	0	0	0	0	0	0	0	0	0	0	0	0	0	-1	0	-2.0278	-17.891	16.968	0	0	0	0	0	0	0	0	0	2
7291	72.91	0	0	0	0	0	0	10.917	-10.917	18.908	0	0	0	0	0	0	0	0	0	0	0	0	0	0	0	10.989	-10.989	19.033	0	0	0	1	0	0	17.761	2.1499	16.789	0	0	0	1	0	0	17.883	2.027	16.961	0	0	0	0	-1	0	-2.0278	-17.891	16.968	0	0	0	0	0	0	0	0	0	2
7292	72.92	0	0	0	0	0	0	0	0	0	0	0	0	0	0	0	0	0	0	0	0	0	0	0	0	10.989	-10.989	19.033	0	0	0	1	0	0	17.883	2.027	16.961	0	0	0	0	0	0	0	0	0	0	0	0	0	-1	0	-2.0278	-17.891	16.968	0	0	0	0	0	0	0	0	0	2
7293	72.93	0	0	0	0	0	0	10.917	-10.917	18.908	0	0	0	0	0	0	0	0	0	0	0	0	0	0	0	10.989	-10.989	19.033	0	0	0	1	0	0	17.883	2.027	16.961	0	0	0	0	0	0	0	0	0	0	0	0	0	-1	0	-2.0278	-17.891	16.968	0	0	0	1	0	0	17.47	2.0148	16.554	2
7294	72.94	0	0	0	0	0	0	0	0	0	0	0	0	0	0	0	0	0	0	0	0	0	1	0	0	17.755	2.1475	16.785	0	0	0	1	0	0	17.883	2.027	16.961	0	0	0	0	0	0	0	0	0	0	0	0	0	-1	0	-2.0278	-17.891	16.968	0	0	0	0	0	0	0	0	0	2
7295	72.95	0	0	0	0	0	0	0	0	0	0	0	0	0	0	0	0	0	0	0	0	0	0	0	0	10.989	-10.989	19.033	0	0	0	1	0	0	17.883	2.027	16.961	0	0	0	0	0	0	0	0	0	0	0	0	0	-1	0	-2.0278	-17.891	16.968	0	0	0	1	0	0	17.47	2.0148	16.554	2
7296	72.96	0	0	0	0	0	0	10.917	-10.917	18.908	0	0	0	0	0	0	0	0	0	0	0	0	0	0	0	10.989	-10.989	19.033	0	0	0	1	0	0	17.761	2.1499	16.789	0	0	0	0	0	0	0	0	0	0	0	0	0	0	0	0	0	0	0	0	0	0	0	0	0	0	0	2
7297	72.97	0	0	0	0	0	0	0	0	0	0	0	0	0	0	0	0	0	0	0	0	0	0	0	0	10.989	-10.989	19.033	0	0	0	1	0	0	17.761	2.1499	16.789	0	0	0	0	0	0	0	0	0	0	0	0	0	-1	0	-2.0278	-17.891	16.968	0	0	0	0	0	0	0	0	0	2
7298	72.98	0	0	0	0	0	0	0	0	0	0	0	0	0	0	0	0	0	0	0	0	0	0	0	0	10.989	-10.989	19.033	0	0	0	1	0	0	17.761	2.1499	16.789	0	0	0	0	0	0	0	0	0	0	0	0	0	-1	0	-2.0278	-17.891	16.968	0	0	0	0	0	0	0	0	0	2
7299	72.99	0	0	0	0	0	0	0	0	0	0	0	0	0	0	0	0	0	0	0	0	0	1	0	0	17.755	2.1475	16.785	0	0	0	1	0	0	17.761	2.1499	16.789	0	0	0	1	0	0	17.883	2.027	16.961	0	0	0	0	-1	0	-2.0278	-17.891	16.968	0	0	0	1	0	0	17.47	2.0148	16.554	2
7300	73	0	0	0	0	0	0	0	0	0	0	0	0	0	0	0	0	0	0	0	0	0	0	0	0	10.989	-10.989	19.033	0	0	0	1	0	0	17.761	2.1499	16.789	0	0	0	0	0	0	0	0	0	0	0	0	0	-1	0	-2.0278	-17.891	16.968	0	0	0	1	0	0	17.47	2.0148	16.554	2
7301	73.01	0	0	0	0	0	0	0	0	0	0	0	0	0	0	0	0	0	0	0	0	0	1	0	0	17.755	2.1475	16.785	0	0	0	1	0	0	17.761	2.1499	16.789	0	0	0	0	0	0	0	0	0	0	0	0	0	0	0	0	0	0	0	0	0	1	0	0	17.482	2.0162	16.566	2
7302	73.02	0	0	0	0	0	0	0	0	0	0	0	0	0	0	0	0	0	0	0	0	0	0	0	0	10.989	-10.989	19.033	0	0	0	1	0	0	17.883	2.027	16.961	0	0	0	0	0	0	0	0	0	0	0	0	1	-1	0	7.5503	-27.469	31.921	0	0	0	1	0	0	17.47	2.0148	16.554	2
7303	73.03	0	0	0	0	0	0	0	0	0	0	0	0	0	0	0	0	0	0	0	0	0	0	0	0	10.989	-10.989	19.033	0	0	0	1	0	0	17.883	2.027	16.961	0	0	0	0	0	0	0	0	0	0	0	0	0	0	0	0	0	0	0	0	0	0	0	0	0	0	0	2
7304	73.04	0	0	0	0	0	0	0	0	0	0	0	0	0	0	0	0	0	0	0	0	0	0	0	0	10.989	-10.989	19.033	0	0	0	1	0	0	17.761	2.1499	16.789	0	0	0	0	0	0	0	0	0	0	0	0	0	-1	0	-2.0278	-17.891	16.968	0	0	0	1	0	0	17.47	2.0148	16.554	2
7305	73.05	0	0	0	0	0	0	0	0	0	0	0	0	0	0	0	0	0	0	0	0	0	0	0	0	10.989	-10.989	19.033	0	0	0	1	0	0	17.761	2.1499	16.789	0	0	0	0	0	0	0	0	0	0	0	0	0	-1	0	-2.0278	-17.891	16.968	0	0	0	1	0	0	17.47	2.0148	16.554	2
7306	73.06	0	0	0	0	0	0	0	0	0	0	0	0	0	0	0	10.918	-10.918	18.911	0	0	0	0	0	0	10.989	-10.989	19.033	0	0	0	1	0	0	17.761	2.1499	16.789	0	0	0	1	0	0	17.883	2.027	16.961	0	0	0	0	-1	0	-2.0278	-17.891	16.968	0	0	0	1	0	0	17.47	2.0148	16.554	2
7307	73.07	0	0	0	0	0	0	0	0	0	0	0	0	0	0	0	0	0	0	0	0	0	0	0	0	10.989	-10.989	19.033	0	0	0	1	0	0	17.883	2.027	16.961	0	0	0	0	0	0	0	0	0	0	0	0	0	-1	0	-2.0278	-17.891	16.968	0	0	0	0	0	0	0	0	0	2
7308	73.08	0	0	0	0	0	0	0	0	0	0	0	0	0	0	0	0	0	0	0	0	0	1	0	0	17.755	2.1475	16.785	0	0	0	1	0	0	17.761	2.1499	16.789	0	0	0	0	0	0	0	0	0	0	0	0	0	0	0	0	0	0	0	0	0	1	0	0	17.47	2.0148	16.554	2
7309	73.09	0	0	0	0	0	0	0	0	0	0	0	0	0	0	0	0	0	0	0	0	0	0	0	0	10.989	-10.989	19.033	0	0	0	1	0	0	17.883	2.027	16.961	0	0	0	0	0	0	0	0	0	0	0	0	0	-1	0	-2.0278	-17.891	16.968	0	0	0	0	0	0	0	0	0	3
7310	73.1	0	0	0	0	0	0	0	0	0	0	0	0	0	0	0	0	0	0	0	0	0	0	0	0	10.989	-10.989	19.033	0	0	0	1	0	0	17.883	2.027	16.961	0	0	0	0	0	0	0	0	0	0	0	0	0	0	0	0	0	0	0	0	0	0	0	0	0	0	0	2
7311	73.11	0	0	0	0	0	0	10.917	-10.917	18.908	0	0	0	0	0	0	0	0	0	0	0	0	0	0	0	10.989	-10.989	19.033	0	0	0	1	0	0	17.761	2.1499	16.789	0	0	0	0	0	0	0	0	0	0	0	0	0	-1	0	-2.0278	-17.891	16.968	0	0	0	0	0	0	10.93	-10.93	18.931	2
7312	73.12	0	0	0	0	0	0	10.917	-10.917	18.908	0	0	0	0	0	0	0	0	0	0	0	0	0	0	0	10.989	-10.989	19.033	0	0	0	1	0	0	17.883	2.027	16.961	0	0	0	0	0	0	0	0	0	0	0	0	0	-1	0	-2.0278	-17.891	16.968	0	0	0	0	0	0	0	0	0	2
7313	73.13	0	0	0	0	0	0	0	0	0	0	0	0	0	0	0	0	0	0	0	0	0	0	0	0	10.989	-10.989	19.033	0	0	0	1	0	0	17.883	2.027	16.961	0	0	0	0	0	0	0	0	0	0	0	0	0	0	0	0	0	0	0	0	0	0	0	0	0	0	0	2
7314	73.14	0	0	0	0	0	0	0	0	0	0	0	0	0	0	0	0	0	0	0	0	0	0	0	0	10.989	-10.989	19.033	0	0	0	1	0	0	17.761	2.1499	16.789	0	0	0	0	0	0	0	0	0	0	0	0	0	0	0	0	0	0	0	0	0	1	0	0	17.47	2.0148	16.554	2
7315	73.15	0	0	0	0	0	0	0	0	0	0	0	0	0	0	0	0	0	0	0	0	0	0	0	0	10.989	-10.989	19.033	0	0	0	1	0	0	17.883	2.027	16.961	0	0	0	0	0	0	0	0	0	0	0	0	0	-1	0	-2.0278	-17.891	16.968	0	0	0	0	0	0	0	0	0	2
7316	73.16	0	0	0	0	0	0	10.917	-10.917	18.908	0	0	0	0	0	0	0	0	0	0	0	0	0	0	0	10.989	-10.989	19.033	0	0	0	1	0	0	17.761	2.1499	16.789	0	0	0	0	0	0	0	0	0	0	0	0	0	-1	0	-2.0278	-17.891	16.968	0	0	0	1	0	0	17.47	2.0148	16.554	2
7317	73.17	0	0	0	0	0	0	0	0	0	0	0	0	0	0	0	0	0	0	0	0	0	0	0	0	10.989	-10.989	19.033	0	0	0	1	0	0	17.761	2.1499	16.789	0	0	0	0	0	0	0	0	0	0	0	0	0	-1	0	-2.0278	-17.891	16.968	0	0	0	0	0	0	0	0	0	2
7318	73.18	0	0	0	0	0	0	10.917	-10.917	18.908	0	0	0	0	0	0	0	0	0	0	0	0	0	0	0	10.989	-10.989	19.033	0	0	0	1	0	0	17.883	2.027	16.961	0	0	0	0	0	0	0	0	0	0	0	0	0	-1	0	-2.0278	-17.891	16.968	0	0	0	1	0	0	17.47	2.0148	16.554	2
7319	73.19	0	0	0	0	0	0	0	0	0	0	0	0	0	0	0	0	0	0	0	0	0	1	0	0	17.755	2.1475	16.785	0	0	0	1	0	0	17.761	2.1499	16.789	0	0	0	0	0	0	0	0	0	0	0	0	0	-1	0	-2.0278	-17.891	16.968	0	0	0	1	0	0	17.47	2.0148	16.554	3
7320	73.2	0	0	0	0	0	0	10.917	-10.917	18.908	0	0	0	0	0	0	0	0	0	0	0	0	0	0	0	10.989	-10.989	19.033	0	0	0	1	0	0	17.761	2.1499	16.789	0	0	0	0	0	0	0	0	0	0	0	0	0	-1	0	-2.0278	-17.891	16.968	0	0	0	1	0	0	17.47	2.0148	16.554	2
7321	73.21	0	0	0	0	0	0	10.917	-10.917	18.908	0	0	0	0	0	0	0	0	0	0	0	0	1	0	0	17.755	2.1475	16.785	0	0	0	1	0	0	17.761	2.1499	16.789	0	0	0	0	0	0	0	0	0	0	0	0	0	-1	0	-2.0278	-17.891	16.968	0	0	0	1	0	0	17.47	2.0148	16.554	2
7322	73.22	0	0	0	0	0	0	0	0	0	0	0	0	0	0	0	0	0	0	0	0	0	0	0	0	10.989	-10.989	19.033	0	0	0	1	0	0	17.761	2.1499	16.789	0	0	0	0	0	0	0	0	0	0	0	0	0	-1	0	-2.0278	-17.891	16.968	0	0	0	1	0	0	17.47	2.0148	16.554	2
7323	73.23	0	0	0	0	0	0	0	0	0	0	0	0	0	0	0	0	0	0	0	0	0	0	0	0	10.989	-10.989	19.033	0	0	0	1	0	0	17.761	2.1499	16.789	0	0	0	0	0	0	0	0	0	0	0	0	0	-1	0	-2.0278	-17.891	16.968	0	0	0	1	0	0	17.47	2.0148	16.554	2
7324	73.24	0	0	0	0	0	0	0	0	0	0	0	0	0	0	0	0	0	0	0	0	0	0	0	0	10.989	-10.989	19.033	0	0	0	1	0	0	17.883	2.027	16.961	0	0	0	0	0	0	0	0	0	0	0	0	0	-1	0	-2.0278	-17.891	16.968	0	0	0	0	0	0	0	0	0	2
7325	73.25	0	0	0	0	0	0	10.917	-10.917	18.908	0	0	0	0	0	0	0	0	0	0	0	0	0	0	0	10.989	-10.989	19.033	0	0	0	1	0	0	17.761	2.1499	16.789	0	0	0	0	0	0	0	0	0	0	0	0	0	-1	0	-2.0278	-17.891	16.968	0	0	0	1	0	0	17.47	2.0148	16.554	2
7326	73.26	0	0	0	0	0	0	10.917	-10.917	18.908	0	0	0	0	0	0	0	0	0	0	0	0	1	0	0	17.755	2.1475	16.785	0	0	0	1	0	0	17.761	2.1499	16.789	0	0	0	0	0	0	0	0	0	0	0	0	0	0	0	0	0	0	0	0	0	1	0	0	17.47	2.0148	16.554	2
7327	73.27	0	0	0	0	0	0	0	0	0	0	0	0	0	0	0	0	0	0	0	0	0	0	0	0	10.989	-10.989	19.033	0	0	0	1	0	0	17.883	2.027	16.961	0	0	0	0	0	0	0	0	0	0	0	0	0	-1	0	-2.0278	-17.891	16.968	0	0	0	0	0	0	0	0	0	2
7328	73.28	0	0	0	0	0	0	0	0	0	0	0	0	0	0	0	0	0	0	0	0	0	1	0	0	17.755	2.1475	16.785	0	0	0	1	0	0	17.761	2.1499	16.789	0	0	0	0	0	0	0	0	0	0	0	0	0	0	0	0	0	0	0	0	0	1	0	0	17.47	2.0148	16.554	2
7329	73.29	0	0	0	0	0	0	10.917	-10.917	18.908	0	0	0	0	0	0	0	0	0	0	0	0	0	0	0	10.989	-10.989	19.033	0	0	0	1	0	0	17.761	2.1499	16.789	0	0	0	0	0	0	0	0	0	0	0	0	0	-1	0	-2.0278	-17.891	16.968	0	0	0	1	0	0	17.47	2.0148	16.554	2
7330	73.3	0	0	0	0	0	0	0	0	0	0	0	0	0	0	0	0	0	0	0	0	0	0	0	0	10.989	-10.989	19.033	0	0	0	1	0	0	17.883	2.027	16.961	0	0	0	0	0	0	0	0	0	0	0	0	0	-1	0	-2.0278	-17.891	16.968	0	0	0	1	0	0	17.47	2.0148	16.554	2
7331	73.31	0	0	0	0	0	0	10.917	-10.917	18.908	0	0	0	0	0	0	0	0	0	0	0	0	0	0	0	10.989	-10.989	19.033	0	0	0	1	0	0	17.761	2.1499	16.789	0	0	0	0	0	0	0	0	0	0	0	0	0	0	0	0	0	0	0	0	0	0	0	0	0	0	0	2
7332	73.32	0	0	0	0	0	0	0	0	0	0	0	0	0	0	0	0	0	0	0	0	0	0	0	0	10.989	-10.989	19.033	0	0	0	1	0	0	17.761	2.1499	16.789	0	0	0	0	0	0	0	0	0	0	0	0	0	-1	0	-2.0278	-17.891	16.968	0	0	0	1	0	0	17.47	2.0148	16.554	2
7333	73.33	0	0	0	0	0	0	10.917	-10.917	18.908	0	0	0	0	0	0	0	0	0	0	0	0	0	0	0	10.989	-10.989	19.033	0	0	0	1	0	0	17.761	2.1499	16.789	0	0	0	0	0	0	0	0	0	0	0	0	0	-1	0	-2.0278	-17.891	16.968	0	0	0	1	0	0	17.47	2.0148	16.554	2
7334	73.34	0	0	0	0	0	0	0	0	0	0	0	0	0	0	0	0	0	0	0	0	0	1	0	0	17.755	2.1475	16.785	0	0	0	1	0	0	17.761	2.1499	16.789	0	0	0	0	0	0	0	0	0	0	0	0	0	-1	0	-2.0278	-17.891	16.968	0	0	0	0	0	0	0	0	0	2
7335	73.35	0	0	0	0	0	0	0	0	0	0	0	0	0	-1	0	-2.0366	-17.816	16.89	0	0	0	0	0	0	10.989	-10.989	19.033	0	0	0	1	0	0	17.761	2.1499	16.789	0	0	0	0	0	0	0	0	0	0	0	0	0	-1	0	-2.0278	-17.891	16.968	0	0	0	1	0	0	17.47	2.0148	16.554	2
7336	73.36	0	0	0	0	0	0	0	0	0	0	0	0	0	0	0	0	0	0	0	0	0	1	0	0	17.755	2.1475	16.785	0	0	0	1	0	0	17.761	2.1499	16.789	0	0	0	0	0	0	0	0	0	0	0	0	0	-1	0	-2.0278	-17.891	16.968	0	0	0	1	0	0	17.47	2.0148	16.554	2
7337	73.37	0	0	0	0	0	0	0	0	0	0	0	0	0	0	0	0	0	0	0	0	0	0	0	0	10.989	-10.989	19.033	0	0	0	1	0	0	17.883	2.027	16.961	0	0	0	0	0	0	0	0	0	0	0	0	0	-1	0	-2.0278	-17.891	16.968	0	0	0	0	0	0	0	0	0	2
7338	73.38	0	0	0	0	0	0	0	0	0	0	0	0	0	0	0	0	0	0	0	0	0	0	0	0	10.989	-10.989	19.033	0	0	0	1	0	0	17.761	2.1499	16.789	0	0	0	1	0	0	17.883	2.027	16.961	0	0	0	0	-1	0	-2.0278	-17.891	16.968	0	0	0	1	0	0	17.47	2.0148	16.554	2
7339	73.39	0	0	0	0	0	0	0	0	0	0	0	0	0	0	0	0	0	0	0	0	0	0	0	0	10.989	-10.989	19.033	0	0	0	1	0	0	17.883	2.027	16.961	0	0	0	0	0	0	0	0	0	0	0	0	0	-1	0	-2.0278	-17.891	16.968	0	0	0	1	0	0	17.47	2.0148	16.554	2
7340	73.4	0	0	0	0	0	0	0	0	0	0	0	0	0	0	0	0	0	0	0	0	0	0	0	0	10.989	-10.989	19.033	0	0	0	1	0	0	17.883	2.027	16.961	0	0	0	0	0	0	0	0	0	0	0	0	0	-1	0	-2.0278	-17.891	16.968	0	0	0	0	0	0	0	0	0	2
7341	73.41	0	0	0	0	0	0	0	0	0	0	0	0	0	0	0	0	0	0	0	0	0	0	0	0	10.989	-10.989	19.033	0	0	0	1	0	0	17.883	2.027	16.961	0	0	0	0	0	0	0	0	0	0	0	0	0	-1	0	-2.0278	-17.891	16.968	0	0	0	1	0	0	17.47	2.0148	16.554	2
7342	73.42	0	0	0	0	0	0	10.917	-10.917	18.908	0	0	0	0	0	0	0	0	0	0	0	0	0	0	0	10.989	-10.989	19.033	0	0	0	1	0	0	17.883	2.027	16.961	0	0	0	0	0	0	0	0	0	0	0	0	0	-1	0	-2.0278	-17.891	16.968	0	0	0	1	0	0	17.47	2.0148	16.554	2
7343	73.43	0	0	0	0	0	0	0	0	0	0	0	0	0	0	0	0	0	0	0	0	0	1	0	0	17.755	2.1475	16.785	0	0	0	1	0	0	17.761	2.1499	16.789	0	0	0	0	0	0	0	0	0	0	0	0	0	-1	0	-2.0278	-17.891	16.968	0	0	0	0	0	0	0	0	0	2
7344	73.44	0	0	0	0	0	0	0	0	0	0	0	0	0	0	0	0	0	0	0	0	0	0	0	0	10.989	-10.989	19.033	0	0	0	1	0	0	17.761	2.1499	16.789	0	0	0	0	0	0	0	0	0	0	0	0	0	-1	0	-2.0278	-17.891	16.968	0	0	0	1	0	0	17.47	2.0148	16.554	2
7345	73.45	0	0	0	0	0	0	0	0	0	0	0	0	0	0	0	0	0	0	0	0	0	0	0	0	10.989	-10.989	19.033	0	0	0	1	0	0	17.883	2.027	16.961	0	0	0	0	0	0	0	0	0	0	0	0	0	0	0	0	0	0	0	0	0	1	0	0	17.47	2.0148	16.554	2
7346	73.46	0	0	0	0	0	0	10.917	-10.917	18.908	0	0	0	0	0	0	0	0	0	0	0	0	0	0	0	10.989	-10.989	19.033	0	0	0	1	0	0	17.761	2.1499	16.789	0	0	0	0	0	0	0	0	0	0	0	0	0	-1	0	-2.0278	-17.891	16.968	0	0	0	1	0	0	17.47	2.0148	16.554	2
7347	73.47	0	0	0	0	0	0	0	0	0	0	0	0	0	0	0	0	0	0	0	0	0	0	0	0	10.989	-10.989	19.033	0	0	0	1	0	0	17.883	2.027	16.961	0	0	0	0	0	0	0	0	0	0	0	0	0	-1	0	-2.0278	-17.891	16.968	0	0	0	0	0	0	0	0	0	2
7348	73.48	0	0	0	0	0	0	0	0	0	0	0	0	0	0	0	0	0	0	0	0	0	0	0	0	10.989	-10.989	19.033	0	0	0	1	0	0	17.761	2.1499	16.789	0	0	0	0	0	0	0	0	0	0	0	0	0	-1	0	-2.0278	-17.891	16.968	0	0	0	0	0	0	0	0	0	2
7349	73.49	0	0	0	0	0	0	0	0	0	0	0	0	0	0	0	0	0	0	0	0	0	0	0	0	10.989	-10.989	19.033	0	0	0	1	0	0	17.761	2.1499	16.789	0	0	0	0	0	0	0	0	0	0	0	0	0	-1	0	-2.0278	-17.891	16.968	0	0	0	1	0	0	17.47	2.0148	16.554	3
7350	73.5	0	0	0	0	0	0	0	0	0	0	0	0	0	0	0	0	0	0	0	0	0	1	0	0	17.755	2.1475	16.785	0	0	0	1	0	0	17.883	2.027	16.961	0	0	0	0	0	0	0	0	0	0	0	0	0	-1	0	-2.0278	-17.891	16.968	0	0	0	1	0	0	17.47	2.0148	16.554	2
7351	73.51	0	0	0	0	0	0	0	0	0	0	0	0	0	0	0	0	0	0	0	0	0	1	0	0	17.755	2.1475	16.785	0	0	0	1	0	0	17.761	2.1499	16.789	0	0	0	1	0	0	17.883	2.027	16.961	0	0	0	0	-1	0	-2.0278	-17.891	16.968	0	0	0	0	0	0	10.93	-10.93	18.931	2
7352	73.52	0	0	0	0	0	0	10.917	-10.917	18.908	0	0	0	0	0	0	0	0	0	0	0	0	0	0	0	10.989	-10.989	19.033	0	0	0	1	0	0	17.883	2.027	16.961	0	0	0	0	0	0	0	0	0	0	0	0	0	-1	0	-2.0278	-17.891	16.968	0	0	0	0	0	0	0	0	0	2
7353	73.53	0	0	0	0	0	0	0	0	0	0	0	0	0	0	0	0	0	0	0	0	0	1	0	0	17.755	2.1475	16.785	0	0	0	1	0	0	17.761	2.1499	16.789	0	0	0	0	0	0	0	0	0	0	0	0	0	-1	0	-2.0278	-17.891	16.968	0	0	0	1	0	0	17.47	2.0148	16.554	2
7354	73.54	0	0	0	0	0	0	0	0	0	0	0	0	0	0	0	0	0	0	0	0	0	0	0	0	10.989	-10.989	19.033	0	0	0	1	0	0	17.761	2.1499	16.789	0	0	0	0	0	0	0	0	0	0	0	0	0	-1	0	-2.0278	-17.891	16.968	0	0	0	0	0	0	0	0	0	2
7355	73.55	0	0	0	0	0	0	0	0	0	0	0	0	0	0	0	0	0	0	0	0	0	0	0	0	10.989	-10.989	19.033	0	0	0	1	0	0	17.883	2.027	16.961	0	0	0	0	0	0	0	0	0	0	0	0	0	-1	0	-2.0278	-17.891	16.968	0	0	0	0	0	0	0	0	0	2
7356	73.56	0	0	0	0	0	0	0	0	0	0	0	0	0	0	0	0	0	0	0	0	0	1	0	0	17.755	2.1475	16.785	0	0	0	1	0	0	17.761	2.1499	16.789	0	0	0	0	0	0	0	0	0	0	0	0	0	-1	0	-2.0278	-17.891	16.968	0	0	0	0	0	0	0	0	0	2
7357	73.57	0	0	0	0	0	0	0	0	0	0	0	0	0	0	0	0	0	0	0	0	0	0	0	0	10.989	-10.989	19.033	0	0	0	1	0	0	17.883	2.027	16.961	0	0	0	0	0	0	0	0	0	0	0	0	0	-1	0	-2.0278	-17.891	16.968	0	0	0	1	0	0	17.47	2.0148	16.554	2
7358	73.58	0	0	0	0	0	0	0	0	0	0	0	0	0	0	0	0	0	0	0	0	0	0	0	0	10.989	-10.989	19.033	0	0	0	1	0	0	17.883	2.027	16.961	0	0	0	0	0	0	0	0	0	0	0	0	0	-1	0	-2.0278	-17.891	16.968	0	0	0	1	0	0	17.47	2.0148	16.554	2
7359	73.59	0	0	0	0	0	0	0	0	0	0	0	0	0	0	0	0	0	0	0	0	0	0	0	0	10.989	-10.989	19.033	0	0	0	1	0	0	17.761	2.1499	16.789	0	0	0	0	0	0	0	0	0	0	0	0	0	-1	0	-2.0278	-17.891	16.968	0	0	0	1	0	0	17.47	2.0148	16.554	2
7360	73.6	0	0	0	0	0	0	0	0	0	0	0	0	0	0	0	0	0	0	0	0	0	0	0	0	10.989	-10.989	19.033	0	0	0	1	0	0	17.761	2.1499	16.789	0	0	0	0	0	0	0	0	0	0	0	0	0	0	0	0	0	0	0	0	0	0	0	0	0	0	0	2
7361	73.61	0	0	0	0	0	0	10.917	-10.917	18.908	0	0	0	0	0	0	0	0	0	0	0	0	1	0	0	17.755	2.1475	16.785	0	0	0	1	0	0	17.761	2.1499	16.789	0	0	0	0	0	0	0	0	0	0	0	0	0	-1	0	-2.0278	-17.891	16.968	0	0	0	1	0	0	17.47	2.0148	16.554	3
7362	73.62	0	0	0	0	0	0	0	0	0	0	0	0	0	0	0	0	0	0	0	0	0	0	0	0	10.989	-10.989	19.033	0	0	0	1	0	0	17.883	2.027	16.961	0	0	0	0	0	0	0	0	0	0	0	0	0	-1	0	-2.0278	-17.891	16.968	0	0	0	0	0	0	0	0	0	2
7363	73.63	0	0	0	0	0	0	10.917	-10.917	18.908	0	0	0	0	0	0	0	0	0	0	0	0	1	0	0	17.755	2.1475	16.785	0	0	0	1	0	0	17.761	2.1499	16.789	0	0	0	0	0	0	0	0	0	0	0	0	0	0	0	10.994	-10.994	19.042	0	0	0	1	0	0	17.47	2.0148	16.554	2
7364	73.64	0	0	0	0	0	0	0	0	0	0	0	0	0	0	0	0	0	0	0	0	0	0	0	0	10.989	-10.989	19.033	0	0	0	1	0	0	17.883	2.027	16.961	0	0	0	0	0	0	0	0	0	0	0	0	0	0	0	0	0	0	0	0	0	0	0	0	0	0	0	2
7365	73.65	0	0	0	0	0	0	0	0	0	0	0	0	0	0	0	0	0	0	0	0	0	0	0	0	10.989	-10.989	19.033	0	0	0	1	0	0	17.761	2.1499	16.789	0	0	0	0	0	0	0	0	0	0	0	0	0	0	0	0	0	0	0	0	0	1	0	0	17.47	2.0148	16.554	2
7366	73.66	0	0	0	0	0	0	0	0	0	0	0	0	0	0	0	0	0	0	0	0	0	1	0	0	17.755	2.1475	16.785	0	0	0	1	0	0	17.883	2.027	16.961	0	0	0	0	0	0	0	0	0	0	0	0	0	0	0	0	0	0	0	0	0	0	0	0	0	0	0	2
7367	73.67	0	0	0	0	0	0	0	0	0	0	0	0	0	0	0	0	0	0	0	0	0	0	0	0	10.989	-10.989	19.033	0	0	0	1	0	0	17.761	2.1499	16.789	0	0	0	0	0	0	0	0	0	0	0	0	0	-1	0	-2.0278	-17.891	16.968	0	0	0	1	0	0	17.47	2.0148	16.554	3
7368	73.68	0	0	0	0	0	0	0	0	0	0	0	0	0	0	0	0	0	0	0	0	0	1	0	0	17.755	2.1475	16.785	0	0	0	1	0	0	17.761	2.1499	16.789	0	0	0	0	0	0	0	0	0	0	0	0	0	-1	0	-2.0278	-17.891	16.968	0	0	0	1	0	0	17.47	2.0148	16.554	2
7369	73.69	0	0	0	0	0	0	10.917	-10.917	18.908	0	0	0	0	0	0	0	0	0	0	0	0	0	0	0	10.989	-10.989	19.033	0	0	0	1	0	0	17.761	2.1499	16.789	0	0	0	0	0	0	0	0	0	0	0	0	0	-1	0	-2.0278	-17.891	16.968	0	0	0	1	0	0	17.47	2.0148	16.554	2
7370	73.7	0	0	0	0	0	0	10.917	-10.917	18.908	0	0	0	0	0	0	0	0	0	0	0	0	0	0	0	10.989	-10.989	19.033	0	0	0	1	0	0	17.883	2.027	16.961	0	0	0	0	0	0	0	0	0	0	0	0	0	0	0	0	0	0	0	0	0	0	0	0	0	0	0	2
7371	73.71	0	0	0	0	0	0	0	0	0	0	0	0	0	0	0	0	0	0	0	0	0	1	0	0	17.755	2.1475	16.785	0	0	0	1	0	0	17.761	2.1499	16.789	0	0	0	0	0	0	0	0	0	0	0	0	0	-1	0	-2.0278	-17.891	16.968	0	0	0	1	0	0	17.47	2.0148	16.554	2
7372	73.72	0	0	0	0	0	0	0	0	0	0	0	0	0	0	0	0	0	0	0	0	0	0	0	0	10.989	-10.989	19.033	0	0	0	1	0	0	17.883	2.027	16.961	0	0	0	0	0	0	0	0	0	0	0	0	0	-1	0	-2.0278	-17.891	16.968	0	0	0	0	0	0	0	0	0	2
7373	73.73	0	0	0	0	0	0	0	0	0	0	0	0	0	0	0	0	0	0	0	0	0	1	0	0	17.755	2.1475	16.785	0	0	0	1	0	0	17.761	2.1499	16.789	0	0	0	0	0	0	0	0	0	0	0	0	0	0	0	0	0	0	0	0	0	1	0	0	17.47	2.0148	16.554	2
7374	73.74	0	0	0	0	0	0	0	0	0	0	0	0	0	0	0	0	0	0	0	0	0	0	0	0	10.989	-10.989	19.033	0	0	0	1	0	0	17.761	2.1499	16.789	0	0	0	0	0	0	0	0	0	0	0	0	0	0	0	0	0	0	0	0	0	1	0	0	17.47	2.0148	16.554	2
7375	73.75	0	0	0	0	0	0	0	0	0	0	0	0	0	0	0	0	0	0	0	0	0	0	0	0	10.989	-10.989	19.033	0	0	0	1	0	0	17.883	2.027	16.961	0	0	0	0	0	0	0	0	0	0	0	0	0	-1	0	-2.0278	-17.891	16.968	0	0	0	0	0	0	0	0	0	2
7376	73.76	0	0	0	0	0	0	0	0	0	0	0	0	0	0	0	0	0	0	0	0	0	1	0	0	17.755	2.1475	16.785	0	0	0	1	0	0	17.761	2.1499	16.789	0	0	0	0	0	0	0	0	0	0	0	0	0	0	0	0	0	0	0	0	0	0	0	0	0	0	0	2
7377	73.77	0	0	0	0	0	0	0	0	0	0	0	0	0	0	0	0	0	0	0	0	0	0	0	0	10.989	-10.989	19.033	0	0	0	1	0	0	17.883	2.027	16.961	0	0	0	0	0	0	0	0	0	0	0	0	0	-1	0	-2.0278	-17.891	16.968	0	0	0	0	0	0	0	0	0	2
7378	73.78	0	0	0	0	0	0	0	0	0	0	0	0	0	0	0	0	0	0	0	0	0	1	0	0	17.755	2.1475	16.785	0	0	0	1	0	0	17.761	2.1499	16.789	0	0	0	0	0	0	0	0	0	0	0	0	0	0	0	10.994	-10.994	19.042	0	0	0	1	0	0	17.47	2.0148	16.554	2
7379	73.79	0	0	0	0	0	0	0	0	0	0	0	0	0	0	0	0	0	0	0	0	0	0	0	0	10.989	-10.989	19.033	0	0	0	1	0	0	17.761	2.1499	16.789	0	0	0	0	0	0	0	0	0	0	0	0	0	-1	0	-2.0278	-17.891	16.968	0	0	0	0	0	0	0	0	0	2
7380	73.8	0	0	0	0	0	0	0	0	0	0	0	0	0	0	0	0	0	0	0	0	0	0	0	0	10.989	-10.989	19.033	0	0	0	1	0	0	17.883	2.027	16.961	0	0	0	0	0	0	0	0	0	0	0	0	0	-1	0	-2.0278	-17.891	16.968	0	0	0	1	0	0	17.47	2.0148	16.554	2
7381	73.81	0	0	0	0	0	0	10.917	-10.917	18.908	0	0	0	0	0	0	0	0	0	0	0	0	1	0	0	17.755	2.1475	16.785	0	0	0	1	0	0	17.761	2.1499	16.789	0	0	0	0	0	0	0	0	0	0	0	0	0	-1	0	-2.0278	-17.891	16.968	0	0	0	0	0	0	0	0	0	2
7382	73.82	0	0	0	0	0	0	0	0	0	0	0	0	0	0	0	0	0	0	0	0	0	0	0	0	10.989	-10.989	19.033	0	0	0	1	0	0	17.883	2.027	16.961	0	0	0	0	0	0	0	0	0	0	0	0	0	-1	0	-2.0278	-17.891	16.968	0	0	0	0	0	0	0	0	0	2
7383	73.83	0	0	0	0	0	0	0	0	0	0	0	0	0	0	0	0	0	0	0	0	0	0	0	0	10.989	-10.989	19.033	0	0	0	1	0	0	17.761	2.1499	16.789	0	0	0	0	0	0	0	0	0	0	0	0	1	-1	0	7.5503	-27.469	31.921	0	0	0	1	0	0	17.47	2.0148	16.554	2
7384	73.84	0	0	0	0	0	0	0	0	0	0	0	0	0	0	0	0	0	0	0	0	0	0	0	0	10.989	-10.989	19.033	0	0	0	1	0	0	17.761	2.1499	16.789	0	0	0	0	0	0	0	0	0	0	0	0	0	-1	0	-2.0278	-17.891	16.968	0	0	0	1	0	0	17.47	2.0148	16.554	2
7385	73.85	0	0	0	0	0	0	0	0	0	0	0	0	0	-1	0	-2.0366	-17.816	16.89	0	0	0	0	0	0	10.989	-10.989	19.033	0	0	0	1	0	0	17.761	2.1499	16.789	0	0	0	0	0	0	0	0	0	0	0	0	0	0	0	0	0	0	0	0	0	1	0	0	17.47	2.0148	16.554	2
7386	73.86	0	0	0	0	0	0	0	0	0	0	0	0	0	0	0	0	0	0	0	0	0	1	0	0	17.755	2.1475	16.785	0	0	0	1	0	0	17.761	2.1499	16.789	0	0	0	0	0	0	0	0	0	0	0	0	0	-1	0	-2.0278	-17.891	16.968	0	0	0	1	0	0	17.47	2.0148	16.554	2
7387	73.87	0	0	0	0	0	0	0	0	0	0	0	0	0	0	0	0	0	0	0	0	0	0	0	0	10.989	-10.989	19.033	0	0	0	1	0	0	17.761	2.1499	16.789	0	0	0	0	0	0	0	0	0	0	0	0	0	-1	0	-2.0278	-17.891	16.968	0	0	0	0	0	0	0	0	0	2
7388	73.88	0	0	0	0	0	0	10.917	-10.917	18.908	0	0	0	0	0	0	0	0	0	0	0	0	0	0	0	10.989	-10.989	19.033	0	0	0	1	0	0	17.883	2.027	16.961	0	0	0	0	0	0	0	0	0	0	0	0	1	-1	0	7.5503	-27.469	31.921	0	0	0	0	0	0	0	0	0	2
7389	73.89	0	0	0	0	0	0	0	0	0	0	0	0	0	0	0	0	0	0	0	0	0	0	0	0	10.989	-10.989	19.033	0	0	0	1	0	0	17.883	2.027	16.961	0	0	0	0	0	0	0	0	0	0	0	0	0	0	0	0	0	0	0	0	0	0	0	0	0	0	0	2
7390	73.9	0	0	0	0	0	0	0	0	0	0	0	0	0	0	0	0	0	0	0	0	0	0	0	0	10.989	-10.989	19.033	0	0	0	1	0	0	17.761	2.1499	16.789	0	0	0	0	0	0	0	0	0	0	0	0	0	-1	0	-2.0278	-17.891	16.968	0	0	0	1	0	0	17.47	2.0148	16.554	2
7391	73.91	0	0	0	0	0	0	0	0	0	0	0	0	0	0	0	0	0	0	0	0	0	0	0	0	10.989	-10.989	19.033	0	0	0	1	0	0	17.883	2.027	16.961	0	0	0	0	0	0	0	0	0	0	0	0	0	0	0	0	0	0	0	0	0	1	0	0	17.47	2.0148	16.554	2
7392	73.92	0	0	0	0	0	0	0	0	0	0	0	0	0	0	0	0	0	0	0	0	0	0	0	0	10.989	-10.989	19.033	0	0	0	1	0	0	17.883	2.027	16.961	0	0	0	0	0	0	0	0	0	0	0	0	0	-1	0	-2.0278	-17.891	16.968	0	0	0	0	0	0	0	0	0	2
7393	73.93	0	0	0	0	0	0	0	0	0	0	0	0	0	0	0	0	0	0	0	0	0	0	0	0	10.989	-10.989	19.033	0	0	0	1	0	0	17.761	2.1499	16.789	0	0	0	0	0	0	0	0	0	0	0	0	0	-1	0	-2.0278	-17.891	16.968	0	0	0	0	0	0	10.93	-10.93	18.931	0
7394	73.94	0	0	0	0	0	0	0	0	0	0	0	0	0	0	0	0	0	0	0	0	0	0	0	0	10.989	-10.989	19.033	0	0	0	1	0	0	17.883	2.027	16.961	0	0	0	0	0	0	0	0	0	0	0	0	0	-1	0	-2.0278	-17.891	16.968	0	0	0	0	0	0	0	0	0	2
7395	73.95	0	0	0	0	0	0	0	0	0	0	0	0	0	0	0	0	0	0	0	0	0	0	0	0	10.989	-10.989	19.033	0	0	0	1	0	0	17.883	2.027	16.961	0	0	0	0	0	0	0	0	0	0	0	0	0	0	0	0	0	0	0	0	0	0	0	0	0	0	0	2
7396	73.96	0	0	0	0	0	0	0	0	0	0	0	0	0	0	0	0	0	0	0	0	0	0	0	0	10.989	-10.989	19.033	0	0	0	1	0	0	17.883	2.027	16.961	0	0	0	0	0	0	0	0	0	0	0	0	0	0	0	0	0	0	0	0	0	0	0	0	0	0	0	2
7397	73.97	0	0	0	0	0	0	0	0	0	0	0	0	0	0	0	0	0	0	0	0	0	0	0	0	10.989	-10.989	19.033	0	0	0	1	0	0	17.883	2.027	16.961	0	0	0	0	0	0	0	0	0	0	0	0	0	-1	0	-2.0278	-17.891	16.968	0	0	0	1	0	0	17.47	2.0148	16.554	2
7398	73.98	0	0	0	0	0	0	0	0	0	0	0	0	0	0	0	0	0	0	0	0	0	0	0	0	10.989	-10.989	19.033	0	0	0	1	0	0	17.883	2.027	16.961	0	0	0	0	0	0	0	0	0	0	0	0	0	-1	0	-2.0278	-17.891	16.968	0	0	0	1	0	0	17.47	2.0148	16.554	2
7399	73.99	0	0	0	0	0	0	0	0	0	0	0	0	0	0	0	0	0	0	0	0	0	0	0	0	10.989	-10.989	19.033	0	0	0	1	0	0	17.761	2.1499	16.789	0	0	0	0	0	0	0	0	0	0	0	0	0	0	0	0	0	0	0	0	0	1	0	0	17.47	2.0148	16.554	2
7400	74	0	0	0	0	0	0	10.917	-10.917	18.908	0	0	0	0	0	0	0	0	0	0	0	0	0	0	0	10.989	-10.989	19.033	0	0	0	1	0	0	17.883	2.027	16.961	0	0	0	0	0	0	0	0	0	0	0	0	0	0	0	0	0	0	0	0	0	0	0	0	0	0	0	2
7401	74.01	0	0	0	0	0	0	0	0	0	0	0	0	0	0	0	0	0	0	0	0	0	0	0	0	10.989	-10.989	19.033	0	0	0	1	0	0	17.883	2.027	16.961	0	0	0	0	0	0	0	0	0	0	0	0	0	0	0	10.994	-10.994	19.042	0	0	0	1	0	0	17.47	2.0148	16.554	2
7402	74.02	0	0	0	0	0	0	0	0	0	0	0	0	0	0	0	0	0	0	0	0	0	0	0	0	10.989	-10.989	19.033	0	0	0	1	0	0	17.883	2.027	16.961	0	0	0	0	0	0	0	0	0	0	0	0	0	0	0	10.994	-10.994	19.042	0	0	0	1	0	0	17.47	2.0148	16.554	2
7403	74.03	0	0	0	0	0	0	0	0	0	0	0	0	0	0	0	0	0	0	0	0	0	0	0	0	10.989	-10.989	19.033	0	0	0	1	0	0	17.883	2.027	16.961	0	0	0	0	0	0	0	0	0	0	0	0	0	-1	0	-2.0278	-17.891	16.968	0	0	0	1	0	0	17.47	2.0148	16.554	2
7404	74.04	0	0	0	0	0	0	0	0	0	0	0	0	0	0	0	0	0	0	0	0	0	0	0	0	10.989	-10.989	19.033	0	0	0	1	0	0	17.883	2.027	16.961	0	0	0	0	0	0	0	0	0	0	0	0	1	-1	0	7.5503	-27.469	31.921	0	0	0	1	0	0	17.47	2.0148	16.554	2
7405	74.05	0	0	0	0	0	0	0	0	0	0	0	0	0	0	0	0	0	0	0	0	0	0	0	0	10.989	-10.989	19.033	0	0	0	1	0	0	17.883	2.027	16.961	0	0	0	0	0	0	0	0	0	0	0	0	0	-1	0	-2.0278	-17.891	16.968	0	0	0	0	0	0	0	0	0	2
7406	74.06	0	0	0	0	0	0	0	0	0	0	0	0	0	0	0	0	0	0	0	0	0	0	0	0	10.989	-10.989	19.033	0	0	0	1	0	0	17.761	2.1499	16.789	0	0	0	0	0	0	0	0	0	0	0	0	0	0	0	0	0	0	0	0	0	1	0	0	17.47	2.0148	16.554	2
7407	74.07	0	0	0	0	0	0	0	0	0	0	0	0	0	0	0	0	0	0	0	0	0	0	0	0	10.989	-10.989	19.033	0	0	0	1	0	0	17.883	2.027	16.961	0	0	0	0	0	0	0	0	0	0	0	0	0	0	0	0	0	0	0	0	0	0	0	0	0	0	0	2
7408	74.08	0	0	0	0	0	0	0	0	0	0	0	0	0	0	0	0	0	0	0	0	0	0	0	0	10.989	-10.989	19.033	0	0	0	1	0	0	17.883	2.027	16.961	0	0	0	0	0	0	0	0	0	0	0	0	0	0	0	10.994	-10.994	19.042	0	0	0	1	0	0	17.471	2.0135	16.556	2
7409	74.09	0	0	0	0	0	0	0	0	0	0	0	0	0	0	0	0	0	0	0	0	0	0	0	0	10.989	-10.989	19.033	0	0	0	1	0	0	17.883	2.027	16.961	0	0	0	0	0	0	0	0	0	0	0	0	0	-1	0	-2.0278	-17.891	16.968	0	0	0	1	0	0	17.47	2.0148	16.554	2
7410	74.1	0	0	0	0	0	0	0	0	0	0	0	0	0	-1	0	-2.0366	-17.816	16.89	0	0	0	0	0	0	10.989	-10.989	19.033	0	0	0	1	0	0	17.883	2.027	16.961	0	0	0	0	0	0	0	0	0	0	0	0	0	0	0	0	0	0	0	0	0	0	0	0	0	0	0	2
7411	74.11	0	0	0	0	0	0	0	0	0	0	0	0	0	0	0	0	0	0	0	0	0	0	0	0	10.989	-10.989	19.033	0	0	0	1	0	0	17.883	2.027	16.961	0	0	0	0	0	0	0	0	0	0	0	0	0	0	0	0	0	0	0	0	0	1	0	0	17.47	2.0148	16.554	2
7412	74.12	0	0	0	0	0	0	0	0	0	0	0	0	0	0	0	0	0	0	0	0	0	0	0	0	10.989	-10.989	19.033	0	0	0	1	0	0	17.883	2.027	16.961	0	0	0	0	0	0	0	0	0	0	0	0	0	-1	0	-2.0278	-17.891	16.968	0	0	0	0	0	0	0	0	0	2
7413	74.13	0	0	0	0	0	0	0	0	0	0	0	0	0	0	0	0	0	0	0	0	0	0	0	0	10.989	-10.989	19.033	0	0	0	1	0	0	17.883	2.027	16.961	0	0	0	0	0	0	0	0	0	0	0	0	1	-1	0	7.5503	-27.469	31.921	0	0	0	1	0	0	17.47	2.0148	16.554	2
7414	74.14	0	0	0	0	0	0	0	0	0	0	0	0	0	0	0	0	0	0	0	0	0	0	0	0	10.989	-10.989	19.033	0	0	0	1	0	0	17.761	2.1499	16.789	0	0	0	0	0	0	0	0	0	0	0	0	0	0	0	0	0	0	0	0	0	1	0	0	17.47	2.0148	16.554	2
7415	74.15	0	0	0	0	0	0	0	0	0	0	0	0	0	0	0	0	0	0	0	0	0	0	0	0	10.989	-10.989	19.033	0	0	0	1	0	0	17.883	2.027	16.961	0	0	0	0	0	0	0	0	0	0	0	0	0	-1	0	-2.0278	-17.891	16.968	0	0	0	1	0	0	17.47	2.0148	16.554	2
7416	74.16	0	0	0	0	0	0	0	0	0	0	0	0	0	0	0	0	0	0	0	0	0	0	0	0	10.989	-10.989	19.033	0	0	0	1	0	0	17.883	2.027	16.961	0	0	0	0	0	0	0	0	0	0	0	0	0	0	0	0	0	0	0	0	0	1	0	0	17.47	2.0148	16.554	2
7417	74.17	0	0	0	0	0	0	0	0	0	0	0	0	0	0	0	0	0	0	0	0	0	0	0	0	10.989	-10.989	19.033	0	0	0	1	0	0	17.883	2.027	16.961	0	0	0	0	0	0	0	0	0	0	0	0	0	0	0	0	0	0	0	0	0	0	0	0	0	0	0	2
7418	74.18	0	0	0	0	0	0	0	0	0	0	0	0	0	0	0	0	0	0	0	0	0	0	0	0	10.989	-10.989	19.033	0	0	0	1	0	0	17.761	2.1499	16.789	0	0	0	0	0	0	0	0	0	0	0	0	0	0	0	0	0	0	0	0	0	1	0	0	17.47	2.0148	16.554	2
7419	74.19	0	0	0	0	0	0	0	0	0	0	0	0	0	0	0	0	0	0	0	0	0	0	0	0	10.989	-10.989	19.033	0	0	0	1	0	0	17.883	2.027	16.961	0	0	0	0	0	0	0	0	0	0	0	0	0	0	0	0	0	0	0	0	0	1	0	0	17.47	2.0148	16.554	2
7420	74.2	0	0	0	0	0	0	0	0	0	0	0	0	0	0	0	0	0	0	0	0	0	0	0	0	10.989	-10.989	19.033	0	0	0	1	0	0	17.761	2.1499	16.789	0	0	0	0	0	0	0	0	0	0	0	0	0	0	0	0	0	0	0	0	0	0	0	0	0	0	0	2
7421	74.21	0	0	0	0	0	0	10.917	-10.917	18.908	0	0	0	0	0	0	0	0	0	0	0	0	0	0	0	10.989	-10.989	19.033	0	0	0	1	0	0	17.761	2.1499	16.789	0	0	0	0	0	0	0	0	0	0	0	0	0	0	0	0	0	0	0	0	0	1	0	0	17.47	2.0148	16.554	2
7422	74.22	0	0	0	0	0	0	0	0	0	0	0	0	0	0	0	0	0	0	0	0	0	0	0	0	10.989	-10.989	19.033	0	0	0	1	0	0	17.883	2.027	16.961	0	0	0	0	0	0	0	0	0	0	0	0	0	-1	0	-2.0278	-17.891	16.968	0	0	0	0	0	0	0	0	0	2
7423	74.23	0	0	0	0	0	0	0	0	0	0	0	0	0	0	0	0	0	0	0	0	0	0	0	0	10.989	-10.989	19.033	0	0	0	1	0	0	17.761	2.1499	16.789	0	0	0	0	0	0	0	0	0	0	0	0	1	-1	0	7.5503	-27.469	31.921	0	0	0	1	0	0	30.423	8.5595	27.174	2
7424	74.24	0	0	0	0	0	0	0	0	0	0	0	0	0	0	0	0	0	0	0	0	0	0	0	0	10.989	-10.989	19.033	0	0	0	1	0	0	17.883	2.027	16.961	0	0	0	0	0	0	0	0	0	0	0	0	0	-1	0	-2.0278	-17.891	16.968	0	0	0	1	0	0	17.47	2.0148	16.554	2
7425	74.25	0	0	0	0	0	0	0	0	0	0	0	0	0	0	0	0	0	0	0	0	0	0	0	0	10.989	-10.989	19.033	0	0	0	1	0	0	17.883	2.027	16.961	0	0	0	0	0	0	0	0	0	0	0	0	0	0	0	10.994	-10.994	19.042	0	0	0	1	0	0	17.47	2.0148	16.554	2
7426	74.26	0	0	0	0	0	0	0	0	0	0	0	0	0	0	0	0	0	0	0	0	0	0	0	0	10.989	-10.989	19.033	0	0	0	1	0	0	17.761	2.1499	16.789	0	0	0	0	0	0	0	0	0	0	0	0	0	-1	0	-2.0278	-17.891	16.968	0	0	0	1	0	0	17.47	2.0148	16.554	2
7427	74.27	0	0	0	0	0	0	0	0	0	0	0	0	0	0	0	0	0	0	0	0	0	0	0	0	10.989	-10.989	19.033	0	0	0	1	0	0	17.761	2.1499	16.789	0	0	0	0	0	0	0	0	0	0	0	0	0	-1	0	-2.0278	-17.891	16.968	0	0	0	0	0	0	0	0	0	2
7428	74.28	0	0	0	0	0	0	0	0	0	0	0	0	0	0	0	0	0	0	0	0	0	0	0	0	10.989	-10.989	19.033	0	0	0	1	0	0	17.761	2.1499	16.789	0	0	0	0	0	0	0	0	0	0	0	0	0	0	0	0	0	0	0	0	0	1	0	0	17.47	2.0148	16.554	2
7429	74.29	0	0	0	0	0	0	0	0	0	0	0	0	0	0	0	0	0	0	0	0	0	0	0	0	10.989	-10.989	19.033	0	0	0	1	0	0	17.883	2.027	16.961	0	0	0	0	0	0	0	0	0	0	0	0	1	-1	0	7.5503	-27.469	31.921	0	0	0	1	0	0	30.423	8.5595	27.174	2
7430	74.3	0	0	0	0	0	0	0	0	0	0	0	0	0	0	0	0	0	0	0	0	0	0	0	0	10.989	-10.989	19.033	0	0	0	1	0	0	17.883	2.027	16.961	0	0	0	0	0	0	0	0	0	0	0	0	0	-1	0	-2.0278	-17.891	16.968	0	0	0	1	0	0	17.47	2.0148	16.554	2
7431	74.31	0	0	0	0	0	0	0	0	0	0	0	0	0	0	0	0	0	0	0	0	0	1	0	0	17.755	2.1475	16.785	0	0	0	1	0	0	17.761	2.1499	16.789	0	0	0	0	0	0	0	0	0	0	0	0	0	0	0	0	0	0	0	0	0	1	0	0	17.47	2.0148	16.554	2
7432	74.32	0	0	0	0	0	0	0	0	0	0	0	0	0	0	0	0	0	0	0	0	0	0	0	0	10.989	-10.989	19.033	0	0	0	1	0	0	17.761	2.1499	16.789	0	0	0	0	0	0	0	0	0	0	0	0	0	-1	0	-2.0278	-17.891	16.968	0	0	0	0	0	0	0	0	0	2
7433	74.33	0	0	0	0	0	0	0	0	0	0	0	0	0	0	0	0	0	0	0	0	0	0	0	0	10.989	-10.989	19.033	0	0	0	1	0	0	17.761	2.1499	16.789	0	0	0	0	0	0	0	0	0	0	0	0	0	-1	0	-2.0278	-17.891	16.968	0	0	0	1	0	0	30.423	8.5595	27.174	2
7434	74.34	0	0	0	0	0	0	0	0	0	0	0	0	0	0	0	0	0	0	0	0	0	0	0	0	10.989	-10.989	19.033	0	0	0	1	0	0	17.761	2.1499	16.789	0	0	0	0	0	0	0	0	0	0	0	0	0	-1	0	-2.0278	-17.891	16.968	0	0	0	0	0	0	0	0	0	2
7435	74.35	0	0	0	0	0	0	0	0	0	0	0	0	0	0	0	0	0	0	0	0	0	0	0	0	10.989	-10.989	19.033	0	0	0	1	0	0	17.883	2.027	16.961	0	0	0	0	0	0	0	0	0	0	0	0	0	-1	0	-2.0278	-17.891	16.968	0	0	0	0	0	0	0	0	0	2
7436	74.36	0	0	0	0	0	0	0	0	0	0	0	0	0	0	0	0	0	0	0	0	0	1	0	0	17.755	2.1475	16.785	0	0	0	1	0	0	17.761	2.1499	16.789	0	0	0	0	0	0	0	0	0	0	0	0	0	-1	0	-2.0278	-17.891	16.968	0	0	0	1	0	0	17.47	2.0148	16.554	2
7437	74.37	0	0	0	0	0	0	0	0	0	0	0	0	0	0	0	0	0	0	0	0	0	0	0	0	10.989	-10.989	19.033	0	0	0	1	0	0	17.883	2.027	16.961	0	0	0	0	0	0	0	0	0	0	0	0	0	0	0	0	0	0	0	0	0	1	0	0	17.47	2.0148	16.554	2
7438	74.38	0	0	0	0	0	0	0	0	0	0	0	0	0	0	0	0	0	0	0	0	0	0	0	0	10.989	-10.989	19.033	0	0	0	1	0	0	17.761	2.1499	16.789	0	0	0	0	0	0	0	0	0	0	0	0	0	-1	0	-2.0278	-17.891	16.968	0	0	0	1	0	0	17.47	2.0148	16.554	2
7439	74.39	0	0	0	0	0	0	0	0	0	0	0	0	0	0	0	0	0	0	0	0	0	0	0	0	10.989	-10.989	19.033	0	0	0	1	0	0	17.761	2.1499	16.789	0	0	0	0	0	0	0	0	0	0	0	0	0	-1	0	-2.0278	-17.891	16.968	0	0	0	1	0	0	17.47	2.0148	16.554	2
7440	74.4	0	0	0	0	0	0	10.917	-10.917	18.908	0	0	0	0	0	0	0	0	0	0	0	0	0	0	0	10.989	-10.989	19.033	0	0	0	1	0	0	17.761	2.1499	16.789	0	0	0	0	0	0	0	0	0	0	0	0	0	-1	0	-2.0278	-17.891	16.968	0	0	0	0	0	0	0	0	0	2
7441	74.41	0	0	0	0	0	0	0	0	0	0	0	0	0	0	0	0	0	0	0	0	0	0	0	0	10.989	-10.989	19.033	0	0	0	1	0	0	17.761	2.1499	16.789	0	0	0	0	0	0	0	0	0	0	0	0	0	-1	0	-2.0278	-17.891	16.968	0	0	0	0	0	0	10.93	-10.93	18.931	2
7442	74.42	0	0	0	0	0	0	0	0	0	0	0	0	0	0	0	0	0	0	0	0	0	0	0	0	10.989	-10.989	19.033	0	0	0	1	0	0	17.761	2.1499	16.789	0	0	0	0	0	0	0	0	0	0	0	0	0	-1	0	-2.0278	-17.891	16.968	0	0	0	0	0	0	0	0	0	2
7443	74.43	0	0	0	0	0	0	0	0	0	0	0	0	0	0	0	0	0	0	0	0	0	0	0	0	10.989	-10.989	19.033	0	0	0	1	0	0	17.761	2.1499	16.789	0	0	0	0	0	0	0	0	0	0	0	0	0	0	0	0	0	0	0	0	0	1	0	0	17.47	2.0148	16.554	2
7444	74.44	0	0	0	0	0	0	0	0	0	0	0	0	0	0	0	0	0	0	0	0	0	0	0	0	10.989	-10.989	19.033	0	0	0	1	0	0	17.761	2.1499	16.789	0	0	0	0	0	0	0	0	0	0	0	0	1	-1	0	7.5503	-27.469	31.921	0	0	0	1	0	0	17.47	2.0148	16.554	2
7445	74.45	0	0	0	0	0	0	0	0	0	0	0	0	0	0	0	0	0	0	0	0	0	0	0	0	10.989	-10.989	19.033	0	0	0	1	0	0	17.761	2.1499	16.789	0	0	0	0	0	0	0	0	0	0	0	0	0	-1	0	-2.0278	-17.891	16.968	0	0	0	0	0	0	0	0	0	2
7446	74.46	0	0	0	0	0	0	0	0	0	0	0	0	0	0	0	0	0	0	0	0	0	0	0	0	10.989	-10.989	19.033	0	0	0	1	0	0	17.761	2.1499	16.789	0	0	0	0	0	0	0	0	0	0	0	0	1	-1	0	7.5503	-27.469	31.921	0	0	0	1	0	0	17.47	2.0148	16.554	2
7447	74.47	0	0	0	0	0	0	0	0	0	0	0	0	0	0	0	0	0	0	0	0	0	0	0	0	10.989	-10.989	19.033	0	0	0	1	0	0	17.761	2.1499	16.789	0	0	0	0	0	0	0	0	0	0	0	0	0	-1	0	-2.0278	-17.891	16.968	0	0	0	0	0	0	0	0	0	2
7448	74.48	0	0	0	0	0	0	0	0	0	0	0	0	0	0	0	0	0	0	0	0	0	0	0	0	10.989	-10.989	19.033	0	0	0	1	0	0	17.761	2.1499	16.789	0	0	0	0	0	0	0	0	0	0	0	0	0	0	0	0	0	0	0	0	0	1	0	0	17.47	2.0148	16.554	2
7449	74.49	0	0	0	0	0	0	0	0	0	0	0	0	0	0	0	0	0	0	0	0	0	0	0	0	10.989	-10.989	19.033	0	0	0	1	0	0	17.761	2.1499	16.789	0	0	0	0	0	0	0	0	0	0	0	0	0	-1	0	-2.0278	-17.891	16.968	0	0	0	1	0	0	17.47	2.0148	16.554	2
7450	74.5	0	0	0	0	0	0	10.917	-10.917	18.908	0	0	0	0	0	0	0	0	0	0	0	0	0	0	0	10.989	-10.989	19.033	0	0	0	1	0	0	17.761	2.1499	16.789	0	0	0	0	0	0	0	0	0	0	0	0	0	-1	0	-2.0278	-17.891	16.968	0	0	0	0	0	0	0	0	0	2
7451	74.51	0	0	0	0	0	0	0	0	0	0	0	0	0	0	0	0	0	0	0	0	0	1	0	0	17.755	2.1475	16.785	0	0	0	1	0	0	17.761	2.1499	16.789	0	0	0	0	0	0	0	0	0	0	0	0	0	0	0	0	0	0	0	0	0	1	0	0	17.47	2.0148	16.554	2
7452	74.52	0	0	0	0	0	0	0	0	0	0	0	0	0	0	0	0	0	0	0	0	0	0	0	0	10.989	-10.989	19.033	0	0	0	1	0	0	17.761	2.1499	16.789	0	0	0	0	0	0	0	0	0	0	0	0	0	-1	0	-2.0278	-17.891	16.968	0	0	0	1	0	0	17.47	2.0148	16.554	2
7453	74.53	0	0	0	0	0	0	0	0	0	0	0	0	0	0	0	0	0	0	0	0	0	1	0	0	17.755	2.1475	16.785	0	0	0	1	0	0	17.761	2.1499	16.789	0	0	0	0	0	0	0	0	0	0	0	0	0	0	0	0	0	0	0	0	0	1	0	0	17.47	2.0148	16.554	2
7454	74.54	0	0	0	0	0	0	0	0	0	0	0	0	0	0	0	0	0	0	0	0	0	0	0	0	10.989	-10.989	19.033	0	0	0	1	0	0	17.761	2.1499	16.789	0	0	0	0	0	0	0	0	0	0	0	0	1	-1	0	7.5503	-27.469	31.921	0	0	0	1	0	0	17.47	2.0148	16.554	2
7455	74.55	0	0	0	0	0	0	0	0	0	0	0	0	0	0	0	0	0	0	0	0	0	0	0	0	10.989	-10.989	19.033	0	0	0	1	0	0	17.761	2.1499	16.789	0	0	0	0	0	0	0	0	0	0	0	0	0	-1	0	-2.0278	-17.891	16.968	0	0	0	0	0	0	0	0	0	2
7456	74.56	0	0	0	0	0	0	0	0	0	0	0	0	0	0	0	0	0	0	0	0	0	0	0	0	10.989	-10.989	19.033	0	0	0	1	0	0	17.761	2.1499	16.789	0	0	0	0	0	0	0	0	0	0	0	0	0	-1	0	-2.0278	-17.891	16.968	0	0	0	1	0	0	17.47	2.0148	16.554	2
7457	74.57	0	0	0	0	0	0	0	0	0	0	0	0	0	0	0	0	0	0	0	0	0	0	0	0	10.989	-10.989	19.033	0	0	0	1	0	0	17.883	2.027	16.961	0	0	0	0	0	0	0	0	0	0	0	0	0	-1	0	-2.0278	-17.891	16.968	0	0	0	1	0	0	17.47	2.0148	16.554	0
7458	74.58	0	0	0	0	0	0	0	0	0	0	0	0	0	0	0	0	0	0	0	0	0	0	0	0	10.989	-10.989	19.033	0	0	0	1	0	0	17.761	2.1499	16.789	0	0	0	0	0	0	0	0	0	0	0	0	0	0	0	0	0	0	0	0	0	1	0	0	17.47	2.0148	16.554	2
7459	74.59	0	0	0	0	0	0	0	0	0	0	0	0	0	0	0	0	0	0	0	0	0	0	0	0	10.989	-10.989	19.033	0	0	0	1	0	0	17.883	2.027	16.961	0	0	0	0	0	0	0	0	0	0	0	0	0	0	0	0	0	0	0	0	0	0	0	0	0	0	0	2
7460	74.6	0	0	0	0	0	0	0	0	0	0	0	0	0	0	0	0	0	0	0	0	0	0	0	0	10.989	-10.989	19.033	0	0	0	1	0	0	17.761	2.1499	16.789	0	0	0	0	0	0	0	0	0	0	0	0	0	-1	0	-2.0278	-17.891	16.968	0	0	0	0	0	0	0	0	0	2
7461	74.61	0	0	0	0	0	0	0	0	0	0	0	0	0	0	0	0	0	0	0	0	0	0	0	0	10.989	-10.989	19.033	0	0	0	1	0	0	17.761	2.1499	16.789	0	0	0	0	0	0	0	0	0	0	0	0	0	-1	0	-2.0278	-17.891	16.968	0	0	0	1	0	0	17.47	2.0148	16.554	2
7462	74.62	0	0	0	0	0	0	0	0	0	0	0	0	0	0	0	0	0	0	0	0	0	0	0	0	10.989	-10.989	19.033	0	0	0	1	0	0	17.761	2.1499	16.789	0	0	0	0	0	0	0	0	0	0	0	0	0	-1	0	-2.0278	-17.891	16.968	0	0	0	0	0	0	0	0	0	2
7463	74.63	0	0	0	0	0	0	0	0	0	0	0	0	0	0	0	0	0	0	0	0	0	1	0	0	17.755	2.1475	16.785	0	0	0	1	0	0	17.761	2.1499	16.789	0	0	0	0	0	0	0	0	0	0	0	0	0	0	0	0	0	0	0	0	0	1	0	0	17.47	2.0148	16.554	2
7464	74.64	0	0	0	0	0	0	0	0	0	0	0	0	0	0	0	0	0	0	0	0	0	0	0	0	10.989	-10.989	19.033	0	0	0	1	0	0	17.761	2.1499	16.789	0	0	0	0	0	0	0	0	0	0	0	0	0	-1	0	-2.0278	-17.891	16.968	0	0	0	1	0	0	17.47	2.0148	16.554	2
7465	74.65	0	0	0	0	0	0	0	0	0	0	0	0	0	0	0	0	0	0	0	0	0	0	0	0	10.989	-10.989	19.033	0	0	0	1	0	0	17.883	2.027	16.961	0	0	0	0	0	0	0	0	0	0	0	0	0	-1	0	-2.0278	-17.891	16.968	0	0	0	0	0	0	0	0	0	2
7466	74.66	0	0	0	0	0	0	10.917	-10.917	18.908	0	0	0	0	0	0	0	0	0	0	0	0	0	0	0	10.989	-10.989	19.033	0	0	0	1	0	0	17.761	2.1499	16.789	0	0	0	0	0	0	0	0	0	0	0	0	0	-1	0	-2.0278	-17.891	16.968	0	0	0	1	0	0	17.47	2.0148	16.554	2
7467	74.67	0	0	0	0	0	0	0	0	0	0	0	0	0	0	0	0	0	0	0	0	0	0	0	0	10.989	-10.989	19.033	0	0	0	1	0	0	17.883	2.027	16.961	0	0	0	0	0	0	0	0	0	0	0	0	1	-1	0	7.5503	-27.469	31.921	0	0	0	0	0	0	0	0	0	2
7468	74.68	0	0	0	0	0	0	0	0	0	0	0	0	0	0	0	0	0	0	0	0	0	0	0	0	10.989	-10.989	19.033	0	0	0	1	0	0	17.761	2.1499	16.789	0	0	0	0	0	0	0	0	0	0	0	0	0	0	0	0	0	0	0	0	0	1	0	0	17.47	2.0148	16.554	2
7469	74.69	0	0	0	0	0	0	10.917	-10.917	18.908	0	0	0	0	0	0	0	0	0	0	0	0	0	0	0	10.989	-10.989	19.033	0	0	0	1	0	0	17.761	2.1499	16.789	0	0	0	0	0	0	0	0	0	0	0	0	1	-1	0	7.5503	-27.469	31.921	0	0	0	1	0	0	17.47	2.0148	16.554	2
7470	74.7	0	0	0	0	0	0	0	0	0	0	0	0	0	0	0	0	0	0	0	0	0	0	0	0	10.989	-10.989	19.033	0	0	0	1	0	0	17.883	2.027	16.961	0	0	0	0	0	0	0	0	0	0	0	0	0	-1	0	-2.0278	-17.891	16.968	0	0	0	0	0	0	0	0	0	2
7471	74.71	0	0	0	0	0	0	10.917	-10.917	18.908	0	0	0	0	0	0	0	0	0	0	0	0	1	0	0	17.755	2.1475	16.785	0	0	0	1	0	0	17.761	2.1499	16.789	0	0	0	0	0	0	0	0	0	0	0	0	1	-1	0	7.5503	-27.469	31.921	0	0	0	1	0	0	17.47	2.0148	16.554	2
7472	74.72	0	0	0	0	0	0	0	0	0	0	0	0	0	0	0	0	0	0	0	0	0	0	0	0	10.989	-10.989	19.033	0	0	0	1	0	0	17.761	2.1499	16.789	0	0	0	0	0	0	0	0	0	0	0	0	0	0	0	0	0	0	0	0	0	0	0	0	0	0	0	2
7473	74.73	0	0	0	0	0	0	0	0	0	0	0	0	0	0	0	0	0	0	0	0	0	0	0	0	10.989	-10.989	19.033	0	0	0	1	0	0	17.883	2.027	16.961	0	0	0	0	0	0	0	0	0	0	0	0	0	-1	0	-2.0278	-17.891	16.968	0	0	0	1	0	0	17.47	2.0148	16.554	2
7474	74.74	0	0	0	0	0	0	10.917	-10.917	18.908	0	0	0	0	0	0	0	0	0	0	0	0	0	0	0	10.989	-10.989	19.033	0	0	0	1	0	0	17.761	2.1499	16.789	0	0	0	0	0	0	0	0	0	0	0	0	0	-1	0	-2.0278	-17.891	16.968	0	0	0	0	0	0	0	0	0	2
7475	74.75	0	0	0	0	0	0	0	0	0	0	0	0	0	0	0	0	0	0	0	0	0	0	0	0	10.989	-10.989	19.033	0	0	0	1	0	0	17.883	2.027	16.961	0	0	0	0	0	0	0	0	0	0	0	0	0	-1	0	-2.0278	-17.891	16.968	0	0	0	1	0	0	17.47	2.0148	16.554	2
7476	74.76	0	0	0	0	0	0	0	0	0	0	0	0	0	0	0	0	0	0	0	0	0	0	0	0	10.989	-10.989	19.033	0	0	0	1	0	0	17.761	2.1499	16.789	0	0	0	0	0	0	0	0	0	0	0	0	0	-1	0	-2.0278	-17.891	16.968	0	0	0	1	0	0	17.47	2.0148	16.554	2
7477	74.77	0	0	0	0	0	0	0	0	0	0	0	0	0	0	0	0	0	0	0	0	0	0	0	0	10.989	-10.989	19.033	0	0	0	1	0	0	17.761	2.1499	16.789	0	0	0	0	0	0	0	0	0	0	0	0	0	-1	0	-2.0278	-17.891	16.968	0	0	0	0	0	0	0	0	0	2
7478	74.78	0	0	0	0	0	0	0	0	0	0	0	0	0	0	0	0	0	0	0	0	0	0	0	0	10.989	-10.989	19.033	0	0	0	1	0	0	17.883	2.027	16.961	0	0	0	0	0	0	0	0	0	0	0	0	0	-1	0	-2.0278	-17.891	16.968	0	0	0	1	0	0	17.47	2.0148	16.554	2
7479	74.79	0	0	0	0	0	0	0	0	0	0	0	0	0	0	0	0	0	0	0	0	0	0	0	0	10.989	-10.989	19.033	0	0	0	1	0	0	17.761	2.1499	16.789	0	0	0	0	0	0	0	0	0	0	0	0	0	0	0	10.994	-10.994	19.042	0	0	0	0	0	0	0	0	0	2
7480	74.8	0	0	0	0	0	0	10.917	-10.917	18.908	0	0	0	0	0	0	0	0	0	0	0	0	0	0	0	10.989	-10.989	19.033	0	0	0	1	0	0	17.761	2.1499	16.789	0	0	0	0	0	0	0	0	0	0	0	0	0	-1	0	-2.0278	-17.891	16.968	0	0	0	1	0	0	17.47	2.0148	16.554	2
7481	74.81	0	0	0	0	0	0	10.917	-10.917	18.908	0	0	0	0	0	0	0	0	0	0	0	0	0	0	0	10.989	-10.989	19.033	0	0	0	1	0	0	17.761	2.1499	16.789	0	0	0	0	0	0	0	0	0	0	0	0	0	-1	0	-2.0278	-17.891	16.968	0	0	0	1	0	0	17.47	2.0148	16.554	2
7482	74.82	0	0	0	0	0	0	0	0	0	0	0	0	0	0	0	0	0	0	0	0	0	0	0	0	10.989	-10.989	19.033	0	0	0	1	0	0	17.761	2.1499	16.789	0	0	0	0	0	0	0	0	0	0	0	0	0	-1	0	-2.0278	-17.891	16.968	0	0	0	0	0	0	0	0	0	2
7483	74.83	0	0	0	0	0	0	10.917	-10.917	18.908	0	0	0	0	0	0	0	0	0	0	0	0	0	0	0	10.989	-10.989	19.033	0	0	0	1	0	0	17.761	2.1499	16.789	0	0	0	0	0	0	0	0	0	0	0	0	1	-1	0	7.5503	-27.469	31.921	0	0	0	1	0	0	30.423	8.5595	27.174	2
7484	74.84	0	0	0	0	0	0	0	0	0	0	0	0	0	0	0	0	0	0	0	0	0	0	0	0	10.989	-10.989	19.033	0	0	0	1	0	0	17.761	2.1499	16.789	0	0	0	0	0	0	0	0	0	0	0	0	0	-1	0	-2.0278	-17.891	16.968	0	0	0	0	0	0	0	0	0	2
7485	74.85	0	0	0	0	0	0	0	0	0	0	0	0	0	0	0	0	0	0	0	0	0	0	0	0	10.989	-10.989	19.033	0	0	0	1	0	0	17.883	2.027	16.961	0	0	0	0	0	0	0	0	0	0	0	0	0	-1	0	-2.0278	-17.891	16.968	0	0	0	0	0	0	0	0	0	2
7486	74.86	0	0	0	0	0	0	10.917	-10.917	18.908	0	0	0	0	0	0	0	0	0	0	0	0	0	0	0	10.989	-10.989	19.033	0	0	0	1	0	0	17.883	2.027	16.961	0	0	0	0	0	0	0	0	0	0	0	0	0	0	0	0	0	0	0	0	0	0	0	0	0	0	0	2
7487	74.87	0	0	0	0	0	0	0	0	0	0	0	0	0	0	0	0	0	0	0	0	0	0	0	0	10.989	-10.989	19.033	0	0	0	1	0	0	17.761	2.1499	16.789	0	0	0	0	0	0	0	0	0	0	0	0	0	-1	0	-2.0278	-17.891	16.968	0	0	0	0	0	0	0	0	0	2
7488	74.88	0	0	0	0	0	0	10.917	-10.917	18.908	0	0	0	0	0	0	0	0	0	0	0	0	0	0	0	10.989	-10.989	19.033	0	0	0	1	0	0	17.883	2.027	16.961	0	0	0	0	0	0	0	0	0	0	0	0	0	0	0	0	0	0	0	0	0	1	0	0	17.47	2.0148	16.554	2
7489	74.89	0	0	0	0	0	0	0	0	0	0	0	0	0	0	0	0	0	0	0	0	0	0	0	0	10.989	-10.989	19.033	0	0	0	1	0	0	17.761	2.1499	16.789	0	0	0	0	0	0	0	0	0	0	0	0	0	0	0	0	0	0	0	0	0	0	0	0	0	0	0	2
7490	74.9	0	0	0	0	0	0	10.917	-10.917	18.908	0	0	0	0	0	0	0	0	0	0	0	0	0	0	0	10.989	-10.989	19.033	0	0	0	1	0	0	17.883	2.027	16.961	0	0	0	0	0	0	0	0	0	0	0	0	0	0	0	10.994	-10.994	19.042	0	0	0	1	0	0	17.47	2.0148	16.554	2
7491	74.91	0	0	0	0	0	0	0	0	0	0	0	0	0	0	0	0	0	0	0	0	0	0	0	0	10.989	-10.989	19.033	0	0	0	1	0	0	17.761	2.1499	16.789	0	0	0	0	0	0	0	0	0	0	0	0	0	-1	0	-2.0278	-17.891	16.968	0	0	0	1	0	0	17.47	2.0148	16.554	2
7492	74.92	0	0	0	0	0	0	0	0	0	0	0	0	0	0	0	0	0	0	0	0	0	0	0	0	10.989	-10.989	19.033	0	0	0	1	0	0	17.883	2.027	16.961	0	0	0	0	0	0	0	0	0	0	0	0	1	-1	0	7.5503	-27.469	31.921	0	0	0	0	0	0	0	0	0	2
7493	74.93	0	0	0	0	0	0	0	0	0	0	0	0	0	0	0	0	0	0	0	0	0	0	0	0	10.989	-10.989	19.033	0	0	0	1	0	0	17.761	2.1499	16.789	0	0	0	0	0	0	0	0	0	0	0	0	0	-1	0	-2.0278	-17.891	16.968	0	0	0	1	0	0	17.47	2.0148	16.554	2
7494	74.94	0	0	0	0	0	0	10.917	-10.917	18.908	0	0	0	0	0	0	0	0	0	0	0	0	0	0	0	10.989	-10.989	19.033	0	0	0	1	0	0	17.761	2.1499	16.789	0	0	0	0	0	0	0	0	0	0	0	0	0	-1	0	-2.0278	-17.891	16.968	0	0	0	1	0	0	17.47	2.0148	16.554	2
7495	74.95	0	0	0	0	0	0	0	0	0	0	0	0	0	0	0	0	0	0	0	0	0	0	0	0	10.989	-10.989	19.033	0	0	0	1	0	0	17.761	2.1499	16.789	0	0	0	0	0	0	0	0	0	0	0	0	0	-1	0	-2.0278	-17.891	16.968	0	0	0	1	0	0	17.47	2.0148	16.554	2
7496	74.96	0	0	0	0	0	0	10.917	-10.917	18.908	0	0	0	0	0	0	0	0	0	0	0	0	0	0	0	10.989	-10.989	19.033	0	0	0	1	0	0	17.761	2.1499	16.789	0	0	0	0	0	0	0	0	0	0	0	0	0	0	0	0	0	0	0	0	0	1	0	0	17.47	2.0148	16.554	0
7497	74.97	0	0	0	0	0	0	0	0	0	0	0	0	0	0	0	0	0	0	0	0	0	0	0	0	10.989	-10.989	19.033	0	0	0	1	0	0	17.883	2.027	16.961	0	0	0	0	0	0	0	0	0	0	0	0	0	-1	0	-2.0278	-17.891	16.968	0	0	0	0	0	0	0	0	0	2
7498	74.98	0	0	0	0	0	0	0	0	0	0	0	0	0	0	0	0	0	0	0	0	0	0	0	0	10.989	-10.989	19.033	0	0	0	1	0	0	17.761	2.1499	16.789	0	0	0	0	0	0	0	0	0	0	0	0	0	-1	0	-2.0278	-17.891	16.968	0	0	0	0	0	0	0	0	0	2
7499	74.99	0	0	0	0	0	0	10.917	-10.917	18.908	0	0	0	0	0	0	0	0	0	0	0	0	0	0	0	10.989	-10.989	19.033	0	0	0	1	0	0	17.761	2.1499	16.789	0	0	0	0	0	0	0	0	0	0	0	0	0	0	0	0	0	0	0	0	0	1	0	0	17.47	2.0148	16.554	2
7500	75	0	0	0	0	0	0	0	0	0	0	0	0	0	0	0	0	0	0	0	0	0	0	0	0	10.989	-10.989	19.033	0	0	0	1	0	0	17.761	2.1499	16.789	0	0	0	0	0	0	0	0	0	0	0	0	1	-1	0	7.5503	-27.469	31.921	0	0	0	0	0	0	0	0	0	2
7501	75.01	0	0	0	0	0	0	0	0	0	0	0	0	0	0	0	0	0	0	0	0	0	1	0	0	17.755	2.1475	16.785	0	0	0	1	0	0	17.761	2.1499	16.789	0	0	0	0	0	0	0	0	0	0	0	0	0	-1	0	-2.0278	-17.891	16.968	0	0	0	1	0	0	17.47	2.0148	16.554	2
7502	75.02	0	0	0	0	0	0	0	0	0	0	0	0	0	0	0	0	0	0	0	0	0	0	0	0	10.989	-10.989	19.033	0	0	0	1	0	0	17.761	2.1499	16.789	0	0	0	0	0	0	0	0	0	0	0	0	0	-1	0	-2.0278	-17.891	16.968	0	0	0	0	0	0	0	0	0	2
7503	75.03	0	0	0	0	0	0	0	0	0	0	0	0	0	0	0	0	0	0	0	0	0	0	0	0	10.989	-10.989	19.033	0	0	0	1	0	0	17.761	2.1499	16.789	0	0	0	0	0	0	0	0	0	0	0	0	0	-1	0	-2.0278	-17.891	16.968	0	0	0	1	0	0	17.47	2.0148	16.554	0
7504	75.04	0	0	0	0	0	0	0	0	0	0	0	0	0	0	0	0	0	0	0	0	0	0	0	0	10.989	-10.989	19.033	0	0	0	1	0	0	17.761	2.1499	16.789	0	0	0	0	0	0	0	0	0	0	0	0	0	-1	0	-2.0278	-17.891	16.968	0	0	0	1	0	0	17.47	2.0148	16.554	2
7505	75.05	0	0	0	0	0	0	10.917	-10.917	18.908	0	0	0	0	0	0	0	0	0	0	0	0	0	0	0	10.989	-10.989	19.033	0	0	0	1	0	0	17.761	2.1499	16.789	0	0	0	0	0	0	0	0	0	0	0	0	0	-1	0	-2.0278	-17.891	16.968	0	0	0	0	0	0	0	0	0	2
7506	75.06	0	0	0	0	0	0	10.917	-10.917	18.908	0	0	0	0	0	0	0	0	0	0	0	0	1	0	0	17.755	2.1475	16.785	0	0	0	1	0	0	17.883	2.027	16.961	0	0	0	0	0	0	0	0	0	0	0	0	0	-1	0	-2.0278	-17.891	16.968	0	0	0	1	0	0	17.47	2.0148	16.554	2
7507	75.07	0	0	0	0	0	0	0	0	0	0	0	0	0	0	0	0	0	0	0	0	0	0	0	0	10.989	-10.989	19.033	0	0	0	1	0	0	17.883	2.027	16.961	0	0	0	0	0	0	0	0	0	0	0	0	1	-1	0	7.5503	-27.469	31.921	0	0	0	0	0	0	0	0	0	2
7508	75.08	0	0	0	0	0	0	0	0	0	0	0	0	0	0	0	0	0	0	0	0	0	1	0	0	17.755	2.1475	16.785	0	0	0	1	0	0	17.761	2.1499	16.789	0	0	0	0	0	0	0	0	0	0	0	0	0	-1	0	-2.0278	-17.891	16.968	0	0	0	1	0	0	17.47	2.0148	16.554	2
7509	75.09	0	0	0	0	0	0	0	0	0	0	0	0	0	0	0	0	0	0	0	0	0	0	0	0	10.989	-10.989	19.033	0	0	0	1	0	0	17.761	2.1499	16.789	0	0	0	0	0	0	0	0	0	0	0	0	0	-1	0	-2.0278	-17.891	16.968	0	0	0	1	0	0	17.47	2.0148	16.554	2
7510	75.1	0	0	0	0	0	0	0	0	0	0	0	0	0	0	0	0	0	0	0	0	0	0	0	0	10.989	-10.989	19.033	0	0	0	1	0	0	17.761	2.1499	16.789	0	0	0	0	0	0	0	0	0	0	0	0	1	-1	0	7.5503	-27.469	31.921	0	0	0	0	0	0	0	0	0	2
7511	75.11	0	0	0	0	0	0	0	0	0	0	0	0	0	0	0	0	0	0	0	0	0	0	0	0	10.989	-10.989	19.033	0	0	0	1	0	0	17.883	2.027	16.961	0	0	0	0	0	0	0	0	0	0	0	0	1	-1	0	7.5503	-27.469	31.921	0	0	0	1	0	0	17.47	2.0148	16.554	2
7512	75.12	0	0	0	0	0	0	0	0	0	0	0	0	0	0	0	0	0	0	0	0	0	0	0	0	10.989	-10.989	19.033	0	0	0	1	0	0	17.883	2.027	16.961	0	0	0	0	0	0	0	0	0	0	0	0	0	0	0	0	0	0	0	0	0	0	0	0	0	0	0	2
7513	75.13	0	0	0	0	0	0	0	0	0	0	0	0	0	0	0	0	0	0	0	0	0	0	0	0	10.989	-10.989	19.033	0	0	0	1	0	0	17.883	2.027	16.961	0	0	0	0	0	0	0	0	0	0	0	0	0	-1	0	-2.0278	-17.891	16.968	0	0	0	1	0	0	17.47	2.0148	16.554	2
7514	75.14	0	0	0	0	0	0	0	0	0	0	0	0	0	0	0	0	0	0	0	0	0	0	0	0	10.989	-10.989	19.033	0	0	0	1	0	0	17.761	2.1499	16.789	0	0	0	0	0	0	0	0	0	0	0	0	0	-1	0	-2.0278	-17.891	16.968	0	0	0	0	0	0	0	0	0	2
7515	75.15	0	0	0	0	0	0	0	0	0	0	0	0	0	0	0	0	0	0	0	0	0	0	0	0	10.989	-10.989	19.033	0	0	0	1	0	0	17.883	2.027	16.961	0	0	0	0	0	0	0	0	0	0	0	0	0	0	0	10.994	-10.994	19.042	0	0	0	1	0	0	17.47	2.0148	16.554	2
7516	75.16	0	0	0	0	0	0	0	0	0	0	0	0	0	0	0	0	0	0	0	0	0	0	0	0	10.989	-10.989	19.033	0	0	0	1	0	0	17.883	2.027	16.961	0	0	0	0	0	0	0	0	0	0	0	0	0	-1	0	-2.0278	-17.891	16.968	0	0	0	1	0	0	30.423	8.5595	27.174	2
7517	75.17	0	0	0	0	0	0	0	0	0	0	0	0	0	0	0	0	0	0	0	0	0	0	0	0	10.989	-10.989	19.033	0	0	0	1	0	0	17.761	2.1499	16.789	0	0	0	0	0	0	0	0	0	0	0	0	0	-1	0	-2.0278	-17.891	16.968	0	0	0	0	0	0	0	0	0	2
7518	75.18	0	0	0	0	0	0	0	0	0	0	0	0	0	0	0	0	0	0	0	0	0	0	0	0	10.989	-10.989	19.033	0	0	0	1	0	0	17.761	2.1499	16.789	0	0	0	0	0	0	0	0	0	0	0	0	0	-1	0	-2.0278	-17.891	16.968	0	0	0	1	0	0	17.47	2.0148	16.554	2
7519	75.19	0	0	0	0	0	0	0	0	0	0	0	0	0	0	0	0	0	0	0	0	0	0	0	0	10.989	-10.989	19.033	0	0	0	1	0	0	17.761	2.1499	16.789	0	0	0	0	0	0	0	0	0	0	0	0	0	-1	0	-2.0278	-17.891	16.968	0	0	0	1	0	0	17.47	2.0148	16.554	2
7520	75.2	0	0	0	0	0	0	0	0	0	0	0	0	0	0	0	0	0	0	0	0	0	0	0	0	10.989	-10.989	19.033	0	0	0	1	0	0	17.761	2.1499	16.789	0	0	0	0	0	0	0	0	0	0	0	0	0	0	0	0	0	0	0	0	0	0	0	0	0	0	0	2
7521	75.21	0	0	0	0	0	0	10.917	-10.917	18.908	0	0	0	0	0	0	0	0	0	0	0	0	0	0	0	10.989	-10.989	19.033	0	0	0	1	0	0	17.761	2.1499	16.789	0	0	0	0	0	0	0	0	0	0	0	0	1	-1	0	7.5503	-27.469	31.921	0	0	0	1	0	0	17.47	2.0148	16.554	0
7522	75.22	0	0	0	0	0	0	0	0	0	0	0	0	0	0	0	0	0	0	0	0	0	0	0	0	10.989	-10.989	19.033	0	0	0	1	0	0	17.883	2.027	16.961	0	0	0	0	0	0	0	0	0	0	0	0	0	0	0	0	0	0	0	0	0	0	0	0	0	0	0	2
7523	75.23	0	0	0	0	0	0	0	0	0	0	0	0	0	0	0	0	0	0	0	0	0	0	0	0	10.989	-10.989	19.033	0	0	0	1	0	0	17.761	2.1499	16.789	0	0	0	0	0	0	0	0	0	0	0	0	0	-1	0	-2.0278	-17.891	16.968	0	0	0	1	0	0	17.47	2.0148	16.554	2
7524	75.24	0	0	0	0	0	0	0	0	0	0	0	0	0	0	0	0	0	0	0	0	0	0	0	0	10.989	-10.989	19.033	0	0	0	1	0	0	17.761	2.1499	16.789	0	0	0	0	0	0	0	0	0	0	0	0	0	-1	0	-2.0278	-17.891	16.968	0	0	0	0	0	0	0	0	0	2
7525	75.25	0	0	0	0	0	0	0	0	0	0	0	0	0	0	0	0	0	0	0	0	0	0	0	0	10.989	-10.989	19.033	0	0	0	1	0	0	17.761	2.1499	16.789	0	0	0	0	0	0	0	0	0	0	0	0	0	0	0	0	0	0	0	0	0	0	0	0	0	0	0	2
7526	75.26	0	0	0	0	0	0	0	0	0	0	0	0	0	0	0	0	0	0	0	0	0	1	0	0	17.755	2.1475	16.785	0	0	0	1	0	0	17.761	2.1499	16.789	0	0	0	0	0	0	0	0	0	0	0	0	0	0	0	10.994	-10.994	19.042	0	0	0	1	0	0	17.47	2.0148	16.554	2
7527	75.27	0	0	0	0	0	0	0	0	0	0	0	0	0	0	0	0	0	0	0	0	0	0	0	0	10.989	-10.989	19.033	0	0	0	1	0	0	17.761	2.1499	16.789	0	0	0	0	0	0	0	0	0	0	0	0	0	-1	0	-2.0278	-17.891	16.968	0	0	0	1	0	0	17.47	2.0148	16.554	2
7528	75.28	0	0	0	0	0	0	0	0	0	0	0	0	0	0	0	0	0	0	0	0	0	1	0	0	17.755	2.1475	16.785	0	0	0	1	0	0	17.883	2.027	16.961	0	0	0	0	0	0	0	0	0	0	0	0	0	0	0	0	0	0	0	0	0	1	0	0	17.47	2.0148	16.554	2
7529	75.29	0	0	0	0	0	0	0	0	0	0	0	0	0	0	0	0	0	0	0	0	0	0	0	0	10.989	-10.989	19.033	0	0	0	1	0	0	17.761	2.1499	16.789	0	0	0	0	0	0	0	0	0	0	0	0	0	-1	0	-2.0278	-17.891	16.968	0	0	0	1	0	0	17.47	2.0148	16.554	2
7530	75.3	0	0	0	0	0	0	10.917	-10.917	18.908	0	0	0	0	0	0	0	0	0	0	0	0	0	0	0	10.989	-10.989	19.033	0	0	0	1	0	0	17.761	2.1499	16.789	0	0	0	0	0	0	0	0	0	0	0	0	0	-1	0	-2.0278	-17.891	16.968	0	0	0	0	0	0	0	0	0	2
7531	75.31	0	0	0	0	0	0	0	0	0	0	0	0	0	0	0	0	0	0	0	0	0	0	0	0	10.989	-10.989	19.033	0	0	0	1	0	0	17.761	2.1499	16.789	0	0	0	0	0	0	0	0	0	0	0	0	0	-1	0	-2.0278	-17.891	16.968	0	0	0	1	0	0	17.47	2.0148	16.554	2
7532	75.32	0	0	0	0	0	0	10.917	-10.917	18.908	0	0	0	0	0	0	0	0	0	0	0	0	0	0	0	10.989	-10.989	19.033	0	0	0	1	0	0	17.883	2.027	16.961	0	0	0	0	0	0	0	0	0	0	0	0	0	-1	0	-2.0278	-17.891	16.968	0	0	0	0	0	0	0	0	0	2
7533	75.33	0	0	0	0	0	0	10.917	-10.917	18.908	0	0	0	0	0	0	0	0	0	0	0	0	0	0	0	10.989	-10.989	19.033	0	0	0	1	0	0	17.761	2.1499	16.789	0	0	0	0	0	0	0	0	0	0	0	0	1	-1	0	7.5503	-27.469	31.921	0	0	0	1	0	0	17.47	2.0148	16.554	2
7534	75.34	0	0	0	0	0	0	0	0	0	0	0	0	0	0	0	0	0	0	0	0	0	0	0	0	10.989	-10.989	19.033	0	0	0	1	0	0	17.883	2.027	16.961	0	0	0	0	0	0	0	0	0	0	0	0	0	-1	0	-2.0278	-17.891	16.968	0	0	0	1	0	0	17.47	2.0148	16.554	2
7535	75.35	0	0	0	0	0	0	0	0	0	0	0	0	0	0	0	0	0	0	0	0	0	0	0	0	10.989	-10.989	19.033	0	0	0	1	0	0	17.883	2.027	16.961	0	0	0	0	0	0	0	0	0	0	0	0	0	0	0	0	0	0	0	0	0	1	0	0	17.47	2.0148	16.554	2
7536	75.36	0	0	0	0	0	0	0	0	0	0	0	0	0	0	0	0	0	0	0	0	0	1	0	0	17.755	2.1475	16.785	0	0	0	1	0	0	17.761	2.1499	16.789	0	0	0	1	0	0	17.883	2.027	16.961	0	0	0	0	-1	0	-2.0278	-17.891	16.968	0	0	0	1	0	0	17.47	2.0148	16.554	2
7537	75.37	0	0	0	0	0	0	0	0	0	0	0	0	0	0	0	0	0	0	0	0	0	0	0	0	10.989	-10.989	19.033	0	0	0	1	0	0	17.883	2.027	16.961	0	0	0	0	0	0	0	0	0	0	0	0	0	-1	0	-2.0278	-17.891	16.968	0	0	0	1	0	0	17.47	2.0148	16.554	2
7538	75.38	0	0	0	0	0	0	0	0	0	0	0	0	0	0	0	0	0	0	0	0	0	1	0	0	17.755	2.1475	16.785	0	0	0	1	0	0	17.883	2.027	16.961	0	0	0	0	0	0	0	0	0	0	0	0	0	-1	0	-2.0278	-17.891	16.968	0	0	0	1	0	0	17.47	2.0148	16.554	2
7539	75.39	0	0	0	0	0	0	0	0	0	0	0	0	0	0	0	0	0	0	0	0	0	0	0	0	10.989	-10.989	19.033	0	0	0	1	0	0	17.761	2.1499	16.789	0	0	0	0	0	0	0	0	0	0	0	0	0	-1	0	-2.0278	-17.891	16.968	0	0	0	1	0	0	17.47	2.0148	16.554	2
7540	75.4	0	0	0	0	0	0	0	0	0	0	0	0	0	0	0	0	0	0	0	0	0	0	0	0	10.989	-10.989	19.033	0	0	0	1	0	0	17.761	2.1499	16.789	0	0	0	0	0	0	0	0	0	0	0	0	1	-1	0	7.5503	-27.469	31.921	0	0	0	0	0	0	0	0	0	2
7541	75.41	0	0	0	0	0	0	10.917	-10.917	18.908	0	0	0	0	0	0	0	0	0	0	0	0	1	0	0	17.755	2.1475	16.785	0	0	0	1	0	0	17.883	2.027	16.961	0	0	0	1	0	0	17.883	2.027	16.961	0	0	0	0	0	0	10.994	-10.994	19.042	0	0	0	1	0	0	17.47	2.0148	16.554	2
7542	75.42	0	0	0	0	0	0	0	0	0	0	0	0	0	0	0	0	0	0	0	0	0	0	0	0	10.989	-10.989	19.033	0	0	0	1	0	0	17.761	2.1499	16.789	0	0	0	0	0	0	0	0	0	0	0	0	0	-1	0	-2.0278	-17.891	16.968	0	0	0	1	0	0	17.47	2.0148	16.554	2
7543	75.43	0	0	0	0	0	0	0	0	0	0	0	0	0	0	0	0	0	0	0	0	0	0	0	0	10.989	-10.989	19.033	0	0	0	1	0	0	17.883	2.027	16.961	0	0	0	0	0	0	0	0	0	0	0	0	0	0	0	0	0	0	0	0	0	0	0	0	0	0	0	2
7544	75.44	0	0	0	0	0	0	0	0	0	0	0	0	0	0	0	0	0	0	0	0	0	0	0	0	10.989	-10.989	19.033	0	0	0	1	0	0	17.761	2.1499	16.789	0	0	0	0	0	0	0	0	0	0	0	0	0	-1	0	-2.0278	-17.891	16.968	0	0	0	1	0	0	17.47	2.0148	16.554	2
7545	75.45	0	0	0	0	0	0	0	0	0	0	0	0	0	0	0	0	0	0	0	0	0	0	0	0	10.989	-10.989	19.033	0	0	0	1	0	0	17.761	2.1499	16.789	0	0	0	0	0	0	0	0	0	0	0	0	0	0	0	10.994	-10.994	19.042	0	0	0	0	0	0	0	0	0	2
7546	75.46	0	0	0	0	0	0	0	0	0	0	0	0	0	0	0	0	0	0	0	0	0	0	0	0	10.989	-10.989	19.033	0	0	0	1	0	0	17.761	2.1499	16.789	0	0	0	0	0	0	0	0	0	0	0	0	0	0	0	0	0	0	0	0	0	1	0	0	17.47	2.0148	16.554	2
7547	75.47	0	0	0	0	0	0	0	0	0	0	0	0	0	0	0	0	0	0	0	0	0	0	0	0	10.989	-10.989	19.033	0	0	0	1	0	0	17.883	2.027	16.961	0	0	0	0	0	0	0	0	0	0	0	0	1	-1	0	7.5503	-27.469	31.921	0	0	0	0	0	0	0	0	0	2
7548	75.48	0	0	0	0	0	0	0	0	0	0	0	0	0	0	0	0	0	0	0	0	0	0	0	0	10.989	-10.989	19.033	0	0	0	1	0	0	17.761	2.1499	16.789	0	0	0	0	0	0	0	0	0	0	0	0	1	-1	0	7.5503	-27.469	31.921	0	0	0	1	0	0	17.47	2.0148	16.554	2
7549	75.49	0	0	0	0	0	0	10.917	-10.917	18.908	0	0	0	0	0	0	0	0	0	0	0	0	0	0	0	10.989	-10.989	19.033	0	0	0	1	0	0	17.761	2.1499	16.789	0	0	0	0	0	0	0	0	0	0	0	0	0	-1	0	-2.0278	-17.891	16.968	0	0	0	1	0	0	17.47	2.0148	16.554	2
7550	75.5	0	0	0	0	0	0	0	0	0	0	0	0	0	0	0	0	0	0	0	0	0	0	0	0	10.989	-10.989	19.033	0	0	0	1	0	0	17.761	2.1499	16.789	0	0	0	0	0	0	0	0	0	0	0	0	0	-1	0	-2.0278	-17.891	16.968	0	0	0	0	0	0	0	0	0	2
7551	75.51	0	0	0	0	0	0	10.917	-10.917	18.908	0	0	0	0	0	0	0	0	0	0	0	0	0	0	0	10.989	-10.989	19.033	0	0	0	1	0	0	17.761	2.1499	16.789	0	0	0	0	0	0	0	0	0	0	0	0	0	-1	0	-2.0278	-17.891	16.968	0	0	0	1	0	0	17.47	2.0148	16.554	2
7552	75.52	0	0	0	0	0	0	10.917	-10.917	18.908	0	0	0	0	0	0	0	0	0	0	0	0	0	0	0	10.989	-10.989	19.033	0	0	0	1	0	0	17.883	2.027	16.961	0	0	0	0	0	0	0	0	0	0	0	0	0	-1	0	-2.0278	-17.891	16.968	0	0	0	0	0	0	0	0	0	2
7553	75.53	0	0	0	0	0	0	0	0	0	0	0	0	0	0	0	0	0	0	0	0	0	0	0	0	10.989	-10.989	19.033	0	0	0	1	0	0	17.761	2.1499	16.789	0	0	0	0	0	0	0	0	0	0	0	0	0	-1	0	-2.0278	-17.891	16.968	0	0	0	1	0	0	17.471	2.0135	16.556	2
7554	75.54	0	0	0	0	0	0	0	0	0	0	0	0	0	0	0	0	0	0	0	0	0	0	0	0	10.989	-10.989	19.033	0	0	0	1	0	0	17.883	2.027	16.961	0	0	0	0	0	0	0	0	0	0	0	0	0	0	0	10.994	-10.994	19.042	0	0	0	0	0	0	0	0	0	2
7555	75.55	0	0	0	0	0	0	0	0	0	0	0	0	0	0	0	0	0	0	0	0	0	0	0	0	10.989	-10.989	19.033	0	0	0	1	0	0	17.883	2.027	16.961	0	0	0	0	0	0	0	0	0	0	0	0	0	-1	0	-2.0278	-17.891	16.968	0	0	0	0	0	0	0	0	0	2
7556	75.56	0	0	0	0	0	0	0	0	0	0	0	0	0	0	0	0	0	0	0	0	0	0	0	0	10.989	-10.989	19.033	0	0	0	1	0	0	17.761	2.1499	16.789	0	0	0	0	0	0	0	0	0	0	0	0	0	0	0	0	0	0	0	0	0	1	0	0	17.47	2.0148	16.554	2
7557	75.57	0	0	0	0	0	0	0	0	0	0	0	0	0	0	0	0	0	0	0	0	0	0	0	0	10.989	-10.989	19.033	0	0	0	1	0	0	17.883	2.027	16.961	0	0	0	0	0	0	0	0	0	0	0	0	0	-1	0	-2.0278	-17.891	16.968	0	0	0	0	0	0	0	0	0	2
7558	75.58	0	0	0	0	0	0	0	0	0	0	0	0	0	0	0	0	0	0	0	0	0	0	0	0	10.989	-10.989	19.033	0	0	0	1	0	0	17.761	2.1499	16.789	0	0	0	0	0	0	0	0	0	0	0	0	0	0	0	10.994	-10.994	19.042	0	0	0	1	0	0	17.47	2.0148	16.554	2
7559	75.59	0	0	0	0	0	0	0	0	0	0	0	0	0	0	0	0	0	0	0	0	0	0	0	0	10.989	-10.989	19.033	0	0	0	1	0	0	17.761	2.1499	16.789	0	0	0	0	0	0	0	0	0	0	0	0	0	-1	0	-2.0278	-17.891	16.968	0	0	0	1	0	0	17.47	2.0148	16.554	3
7560	75.6	0	0	0	0	0	0	10.917	-10.917	18.908	0	0	0	0	0	0	0	0	0	0	0	0	0	0	0	10.989	-10.989	19.033	0	0	0	1	0	0	17.883	2.027	16.961	0	0	0	0	0	0	0	0	0	0	0	0	1	-1	0	7.5503	-27.469	31.921	0	0	0	1	0	0	17.47	2.0148	16.554	2
7561	75.61	0	0	0	0	0	0	0	0	0	0	0	0	0	0	0	0	0	0	0	0	0	0	0	0	10.989	-10.989	19.033	0	0	0	1	0	0	17.761	2.1499	16.789	0	0	0	0	0	0	0	0	0	0	0	0	0	-1	0	-2.0278	-17.891	16.968	0	0	0	1	0	0	17.47	2.0148	16.554	2
7562	75.62	0	0	0	0	0	0	0	0	0	0	0	0	0	0	0	0	0	0	0	0	0	0	0	0	10.989	-10.989	19.033	0	0	0	1	0	0	17.883	2.027	16.961	0	0	0	0	0	0	0	0	0	0	0	0	1	-1	0	7.5503	-27.469	31.921	0	0	0	0	0	0	0	0	0	2
7563	75.63	0	0	0	0	0	0	0	0	0	0	0	0	0	0	0	0	0	0	0	0	0	0	0	0	10.989	-10.989	19.033	0	0	0	1	0	0	17.761	2.1499	16.789	0	0	0	0	0	0	0	0	0	0	0	0	0	0	0	0	0	0	0	0	0	0	0	0	0	0	0	2
7564	75.64	0	0	0	0	0	0	10.917	-10.917	18.908	0	0	0	0	0	0	0	0	0	0	0	0	0	0	0	10.989	-10.989	19.033	0	0	0	1	0	0	17.761	2.1499	16.789	0	0	0	0	0	0	0	0	0	0	0	0	0	0	0	0	0	0	0	0	0	1	0	0	17.47	2.0148	16.554	2
7565	75.65	0	0	0	0	0	0	10.917	-10.917	18.908	0	0	0	0	0	0	0	0	0	0	0	0	0	0	0	10.989	-10.989	19.033	0	0	0	1	0	0	17.761	2.1499	16.789	0	0	0	0	0	0	0	0	0	0	0	0	1	-1	0	7.5503	-27.469	31.921	0	0	0	0	0	0	0	0	0	2
7566	75.66	0	0	0	0	0	0	0	0	0	0	0	0	0	0	0	0	0	0	0	0	0	0	0	0	10.989	-10.989	19.033	0	0	0	1	0	0	17.761	2.1499	16.789	0	0	0	0	0	0	0	0	0	0	0	0	0	0	0	0	0	0	0	0	0	1	0	0	17.47	2.0148	16.554	2
7567	75.67	0	0	0	0	0	0	0	0	0	0	0	0	0	0	0	0	0	0	0	0	0	0	0	0	10.989	-10.989	19.033	0	0	0	1	0	0	17.883	2.027	16.961	0	0	0	0	0	0	0	0	0	0	0	0	1	-1	0	7.5503	-27.469	31.921	0	0	0	0	0	0	0	0	0	2
7568	75.68	0	0	0	0	0	0	10.917	-10.917	18.908	0	0	0	0	0	0	0	0	0	0	0	0	1	0	0	17.755	2.1475	16.785	0	0	0	1	0	0	17.761	2.1499	16.789	0	0	0	0	0	0	0	0	0	0	0	0	1	-1	0	7.5503	-27.469	31.921	0	0	0	0	0	0	0	0	0	2
7569	75.69	0	0	0	0	0	0	0	0	0	0	0	0	0	0	0	0	0	0	0	0	0	0	0	0	10.989	-10.989	19.033	0	0	0	1	0	0	17.761	2.1499	16.789	0	0	0	0	0	0	0	0	0	0	0	0	0	0	0	10.994	-10.994	19.042	0	0	0	1	0	0	17.47	2.0148	16.554	2
7570	75.7	0	0	0	0	0	0	0	0	0	0	0	0	0	0	0	0	0	0	0	0	0	1	0	0	17.755	2.1475	16.785	0	0	0	1	0	0	17.883	2.027	16.961	0	0	0	0	0	0	0	0	0	0	0	0	0	-1	0	-2.0278	-17.891	16.968	0	0	0	0	0	0	0	0	0	2
7571	75.71	0	0	0	0	0	0	0	0	0	0	0	0	0	0	0	0	0	0	0	0	0	1	0	0	17.755	2.1475	16.785	0	0	0	1	0	0	17.761	2.1499	16.789	0	0	0	0	0	0	0	0	0	0	0	0	1	-1	0	7.5503	-27.469	31.921	0	0	0	1	0	0	17.47	2.0148	16.554	2
7572	75.72	0	0	0	0	0	0	0	0	0	0	0	0	0	0	0	0	0	0	0	0	0	0	0	0	10.989	-10.989	19.033	0	0	0	1	0	0	17.883	2.027	16.961	0	0	0	0	0	0	0	0	0	0	0	0	0	0	0	0	0	0	0	0	0	0	0	0	0	0	0	2
7573	75.73	0	0	0	0	0	0	0	0	0	0	0	0	0	0	0	0	0	0	0	0	0	0	0	0	10.989	-10.989	19.033	0	0	0	1	0	0	17.883	2.027	16.961	0	0	0	0	0	0	0	0	0	0	0	0	0	0	0	0	0	0	0	0	0	1	0	0	17.47	2.0148	16.554	2
7574	75.74	0	0	0	0	0	0	10.917	-10.917	18.908	0	0	0	0	0	0	0	0	0	0	0	0	0	0	0	10.989	-10.989	19.033	0	0	0	1	0	0	17.761	2.1499	16.789	0	0	0	0	0	0	0	0	0	0	0	0	0	-1	0	-2.0278	-17.891	16.968	0	0	0	0	0	0	0	0	0	2
7575	75.75	0	0	0	0	0	0	10.917	-10.917	18.908	0	0	0	0	0	0	0	0	0	0	0	0	0	0	0	10.989	-10.989	19.033	0	0	0	1	0	0	17.761	2.1499	16.789	0	0	0	0	0	0	0	0	0	0	0	0	0	-1	0	-2.0278	-17.891	16.968	0	0	0	0	0	0	0	0	0	2
7576	75.76	0	0	0	0	0	0	0	0	0	0	0	0	0	0	0	0	0	0	0	0	0	1	0	0	17.755	2.1475	16.785	0	0	0	1	0	0	17.761	2.1499	16.789	0	0	0	1	0	0	17.883	2.027	16.961	0	0	0	0	-1	0	-2.0278	-17.891	16.968	0	0	0	1	0	0	17.47	2.0148	16.554	2
7577	75.77	0	0	0	0	0	0	0	0	0	0	0	0	0	0	0	0	0	0	0	0	0	0	0	0	10.989	-10.989	19.033	0	0	0	1	0	0	17.883	2.027	16.961	0	0	0	0	0	0	0	0	0	0	0	0	0	0	0	0	0	0	0	0	0	0	0	0	0	0	0	2
7578	75.78	0	0	0	0	0	0	0	0	0	0	0	0	0	0	0	0	0	0	0	0	0	0	0	0	10.989	-10.989	19.033	0	0	0	1	0	0	17.761	2.1499	16.789	0	0	0	0	0	0	0	0	0	0	0	0	0	-1	0	-2.0278	-17.891	16.968	0	0	0	1	0	0	17.47	2.0148	16.554	2
7579	75.79	0	0	0	0	0	0	10.917	-10.917	18.908	0	0	0	0	0	0	0	0	0	0	0	0	0	0	0	10.989	-10.989	19.033	0	0	0	1	0	0	17.883	2.027	16.961	0	0	0	0	0	0	0	0	0	0	0	0	0	-1	0	-2.0278	-17.891	16.968	0	0	0	1	0	0	17.47	2.0148	16.554	2
7580	75.8	0	0	0	0	0	0	0	0	0	0	0	0	0	0	0	0	0	0	0	0	0	0	0	0	10.989	-10.989	19.033	0	0	0	1	0	0	17.761	2.1499	16.789	0	0	0	0	0	0	0	0	0	0	0	0	0	0	0	0	0	0	0	0	0	0	0	0	0	0	0	2
7581	75.81	0	0	0	0	0	0	0	0	0	0	0	0	0	0	0	0	0	0	0	0	0	0	0	0	10.989	-10.989	19.033	0	0	0	1	0	0	17.883	2.027	16.961	0	0	0	0	0	0	0	0	0	0	0	0	0	-1	0	-2.0278	-17.891	16.968	0	0	0	1	0	0	17.47	2.0148	16.554	2
7582	75.82	0	0	0	0	0	0	0	0	0	0	0	0	0	0	0	0	0	0	0	0	0	0	0	0	10.989	-10.989	19.033	0	0	0	1	0	0	17.883	2.027	16.961	0	0	0	0	0	0	0	0	0	0	0	0	0	-1	0	-2.0278	-17.891	16.968	0	0	0	1	0	0	17.47	2.0148	16.554	2
7583	75.83	0	0	0	0	0	0	0	0	0	0	0	0	0	0	0	0	0	0	0	0	0	0	0	0	10.989	-10.989	19.033	0	0	0	1	0	0	17.761	2.1499	16.789	0	0	0	0	0	0	0	0	0	0	0	0	0	0	0	0	0	0	0	0	0	0	0	0	0	0	0	2
7584	75.84	0	0	0	0	0	0	0	0	0	0	0	0	0	0	0	0	0	0	0	0	0	0	0	0	10.989	-10.989	19.033	0	0	0	1	0	0	17.761	2.1499	16.789	0	0	0	0	0	0	0	0	0	0	0	0	0	0	0	0	0	0	0	0	0	1	0	0	17.47	2.0148	16.554	2
7585	75.85	0	0	0	0	0	0	10.917	-10.917	18.908	0	0	0	0	0	0	0	0	0	0	0	0	0	0	0	10.989	-10.989	19.033	0	0	0	1	0	0	17.761	2.1499	16.789	0	0	0	0	0	0	0	0	0	0	0	0	0	0	0	0	0	0	0	0	0	1	0	0	17.471	2.0135	16.556	2
7586	75.86	0	0	0	0	0	0	0	0	0	0	0	0	0	0	0	0	0	0	0	0	0	0	0	0	10.989	-10.989	19.033	0	0	0	1	0	0	17.761	2.1499	16.789	0	0	0	0	0	0	0	0	0	0	0	0	1	-1	0	7.5503	-27.469	31.921	0	0	0	1	0	0	17.47	2.0148	16.554	2
7587	75.87	0	0	0	0	0	0	0	0	0	0	0	0	0	0	0	0	0	0	0	0	0	0	0	0	10.989	-10.989	19.033	0	0	0	1	0	0	17.883	2.027	16.961	0	0	0	0	0	0	0	0	0	0	0	0	0	-1	0	-2.0278	-17.891	16.968	0	0	0	0	0	0	0	0	0	2
7588	75.88	0	0	0	0	0	0	10.917	-10.917	18.908	0	0	0	0	0	0	0	0	0	0	0	0	1	0	0	17.755	2.1475	16.785	0	0	0	1	0	0	17.883	2.027	16.961	0	0	0	0	0	0	0	0	0	0	0	0	0	-1	0	-2.0278	-17.891	16.968	0	0	0	1	0	0	17.47	2.0148	16.554	2
7589	75.89	0	0	0	0	0	0	0	0	0	0	0	0	0	0	0	0	0	0	0	0	0	0	0	0	10.989	-10.989	19.033	0	0	0	1	0	0	17.761	2.1499	16.789	0	0	0	0	0	0	0	0	0	0	0	0	0	-1	0	-2.0278	-17.891	16.968	0	0	0	1	0	0	17.47	2.0148	16.554	2
7590	75.9	0	0	0	0	0	0	10.917	-10.917	18.908	0	0	0	0	0	0	0	0	0	0	0	0	0	0	0	10.989	-10.989	19.033	0	0	0	1	0	0	17.761	2.1499	16.789	0	0	0	0	0	0	0	0	0	0	0	0	0	-1	0	-2.0278	-17.891	16.968	0	0	0	0	0	0	0	0	0	2
7591	75.91	0	0	0	0	0	0	0	0	0	0	0	0	0	0	0	0	0	0	0	0	0	1	0	0	17.755	2.1475	16.785	0	0	0	1	0	0	17.761	2.1499	16.789	0	0	0	1	0	0	17.883	2.027	16.961	0	0	0	0	-1	0	-2.0278	-17.891	16.968	0	0	0	1	0	0	30.423	8.5595	27.174	2
7592	75.92	0	0	0	0	0	0	0	0	0	0	0	0	0	0	0	0	0	0	0	0	0	0	0	0	10.989	-10.989	19.033	0	0	0	1	0	0	17.761	2.1499	16.789	0	0	0	0	0	0	0	0	0	0	0	0	0	-1	0	-2.0278	-17.891	16.968	0	0	0	0	0	0	0	0	0	2
7593	75.93	0	0	0	0	0	0	0	0	0	0	0	0	0	0	0	0	0	0	0	0	0	0	0	0	10.989	-10.989	19.033	0	0	0	1	0	0	17.761	2.1499	16.789	0	0	0	0	0	0	0	0	0	0	0	0	0	0	0	0	0	0	0	0	0	1	0	0	17.47	2.0148	16.554	2
7594	75.94	0	0	0	0	0	0	0	0	0	0	0	0	0	0	0	0	0	0	0	0	0	0	0	0	10.989	-10.989	19.033	0	0	0	1	0	0	17.761	2.1499	16.789	0	0	0	0	0	0	0	0	0	0	0	0	0	0	0	0	0	0	0	0	0	0	0	0	0	0	0	2
7595	75.95	0	0	0	0	0	0	10.917	-10.917	18.908	0	0	0	0	0	0	0	0	0	0	0	0	0	0	0	10.989	-10.989	19.033	0	0	0	1	0	0	17.761	2.1499	16.789	0	0	0	0	0	0	0	0	0	0	0	0	0	-1	0	-2.0278	-17.891	16.968	0	0	0	0	0	0	0	0	0	2
7596	75.96	0	0	0	0	0	0	10.917	-10.917	18.908	0	0	0	0	0	0	0	0	0	0	0	0	1	0	0	17.755	2.1475	16.785	0	0	0	1	0	0	17.761	2.1499	16.789	0	0	0	0	0	0	0	0	0	0	0	0	1	-1	0	7.5503	-27.469	31.921	0	0	0	1	0	0	17.47	2.0148	16.554	2
7597	75.97	0	0	0	0	0	0	0	0	0	0	0	0	0	0	0	0	0	0	0	0	0	0	0	0	10.989	-10.989	19.033	0	0	0	1	0	0	17.883	2.027	16.961	0	0	0	0	0	0	10.996	-10.996	19.046	0	0	0	0	-1	0	-2.0278	-17.891	16.968	0	0	0	0	0	0	0	0	0	2
7598	75.98	0	0	0	0	0	0	0	0	0	0	0	0	0	0	0	0	0	0	0	0	0	1	0	0	17.755	2.1475	16.785	0	0	0	1	0	0	17.761	2.1499	16.789	0	0	0	0	0	0	0	0	0	0	0	0	1	-1	0	7.5503	-27.469	31.921	0	0	0	1	0	0	17.47	2.0148	16.554	2
7599	75.99	0	0	0	0	0	0	0	0	0	0	0	0	0	0	0	0	0	0	0	0	0	0	0	0	10.989	-10.989	19.033	0	0	0	1	0	0	17.761	2.1499	16.789	0	0	0	0	0	0	0	0	0	0	0	0	0	-1	0	-2.0278	-17.891	16.968	0	0	0	0	0	0	0	0	0	2
7600	76	0	0	0	0	0	0	0	0	0	0	0	0	0	0	0	0	0	0	0	0	0	0	0	0	10.989	-10.989	19.033	0	0	0	1	0	0	17.761	2.1499	16.789	0	0	0	0	0	0	0	0	0	0	0	0	0	-1	0	-2.0278	-17.891	16.968	0	0	0	1	0	0	17.47	2.0148	16.554	2
7601	76.01	0	0	0	0	0	0	0	0	0	0	0	0	0	0	0	0	0	0	0	0	0	1	0	0	17.755	2.1475	16.785	0	0	0	1	0	0	17.761	2.1499	16.789	0	0	0	1	0	0	17.883	2.027	16.961	0	0	0	0	-1	0	-2.0278	-17.891	16.968	0	0	0	1	0	0	17.471	2.0135	16.556	2
7602	76.02	0	0	0	0	0	0	0	0	0	0	0	0	0	0	0	0	0	0	0	0	0	0	0	0	10.989	-10.989	19.033	0	0	0	1	0	0	17.883	2.027	16.961	0	0	0	0	0	0	0	0	0	0	0	0	1	-1	0	7.5503	-27.469	31.921	0	0	0	0	0	0	0	0	0	2
7603	76.03	0	0	0	0	0	0	0	0	0	0	0	0	0	0	0	0	0	0	0	0	0	0	0	0	10.989	-10.989	19.033	0	0	0	1	0	0	17.761	2.1499	16.789	0	0	0	0	0	0	0	0	0	0	0	0	0	-1	0	-2.0278	-17.891	16.968	0	0	0	1	0	0	17.47	2.0148	16.554	2
7604	76.04	0	0	0	0	0	0	0	0	0	0	0	0	0	0	0	0	0	0	0	0	0	0	0	0	10.989	-10.989	19.033	0	0	0	1	0	0	17.761	2.1499	16.789	0	0	0	0	0	0	0	0	0	0	0	0	0	-1	0	-2.0278	-17.891	16.968	0	0	0	1	0	0	17.47	2.0148	16.554	2
7605	76.05	0	0	0	0	0	0	0	0	0	0	0	0	0	0	0	0	0	0	0	0	0	0	0	0	10.989	-10.989	19.033	0	0	0	1	0	0	17.761	2.1499	16.789	0	0	0	0	0	0	0	0	0	0	0	0	0	0	0	0	0	0	0	0	0	0	0	0	0	0	0	2
7606	76.06	0	0	0	0	0	0	0	0	0	0	0	0	0	0	0	0	0	0	0	0	0	0	0	0	10.989	-10.989	19.033	0	0	0	1	0	0	17.761	2.1499	16.789	0	0	0	0	0	0	0	0	0	0	0	0	0	0	0	0	0	0	0	0	0	1	0	0	17.47	2.0148	16.554	2
7607	76.07	0	0	0	0	0	0	0	0	0	0	0	0	0	0	0	0	0	0	0	0	0	0	0	0	10.989	-10.989	19.033	0	0	0	1	0	0	17.883	2.027	16.961	0	0	0	0	0	0	0	0	0	0	0	0	0	-1	0	-2.0278	-17.891	16.968	0	0	0	0	0	0	0	0	0	2
7608	76.08	0	0	0	0	0	0	0	0	0	0	0	0	0	0	0	0	0	0	0	0	0	0	0	0	10.989	-10.989	19.033	0	0	0	1	0	0	17.761	2.1499	16.789	0	0	0	0	0	0	0	0	0	0	0	0	0	0	0	0	0	0	0	0	0	0	0	0	0	0	0	2
7609	76.09	0	0	0	0	0	0	0	0	0	0	0	0	0	0	0	0	0	0	0	0	0	0	0	0	10.989	-10.989	19.033	0	0	0	1	0	0	17.761	2.1499	16.789	0	0	0	0	0	0	0	0	0	0	0	0	0	0	0	0	0	0	0	0	0	1	0	0	17.47	2.0148	16.554	2
7610	76.1	0	0	0	0	0	0	0	0	0	0	0	0	0	0	0	0	0	0	0	0	0	0	0	0	10.989	-10.989	19.033	0	0	0	1	0	0	17.883	2.027	16.961	0	0	0	0	0	0	0	0	0	0	0	0	0	-1	0	-2.0278	-17.891	16.968	0	0	0	0	0	0	0	0	0	2
7611	76.11	0	0	0	0	0	0	0	0	0	0	0	0	0	0	0	0	0	0	0	0	0	0	0	0	10.989	-10.989	19.033	0	0	0	1	0	0	17.761	2.1499	16.789	0	0	0	0	0	0	0	0	0	0	0	0	0	-1	0	-2.0278	-17.891	16.968	0	0	0	1	0	0	30.423	8.5595	27.174	2
7612	76.12	0	0	0	0	0	0	0	0	0	0	0	0	0	0	0	0	0	0	0	0	0	0	0	0	10.989	-10.989	19.033	0	0	0	1	0	0	17.761	2.1499	16.789	0	0	0	0	0	0	0	0	0	0	0	0	0	-1	0	-2.0278	-17.891	16.968	0	0	0	0	0	0	0	0	0	2
7613	76.13	0	0	0	0	0	0	0	0	0	0	0	0	0	0	0	0	0	0	0	0	0	0	0	0	10.989	-10.989	19.033	0	0	0	1	0	0	17.761	2.1499	16.789	0	0	0	0	0	0	0	0	0	0	0	0	0	-1	0	-2.0278	-17.891	16.968	0	0	0	1	0	0	17.471	2.0135	16.556	2
7614	76.14	0	0	0	0	0	0	0	0	0	0	0	0	0	0	0	0	0	0	0	0	0	0	0	0	10.989	-10.989	19.033	0	0	0	1	0	0	17.761	2.1499	16.789	0	0	0	0	0	0	0	0	0	0	0	0	0	-1	0	-2.0278	-17.891	16.968	0	0	0	0	0	0	0	0	0	2
7615	76.15	0	0	0	0	0	0	0	0	0	0	0	0	0	0	0	0	0	0	0	0	0	0	0	0	10.989	-10.989	19.033	0	0	0	1	0	0	17.761	2.1499	16.789	0	0	0	0	0	0	0	0	0	0	0	0	0	-1	0	-2.0278	-17.891	16.968	0	0	0	0	0	0	0	0	0	2
7616	76.16	0	0	0	0	0	0	10.917	-10.917	18.908	0	0	0	0	0	0	0	0	0	0	0	0	1	0	0	17.755	2.1475	16.785	0	0	0	1	0	0	17.761	2.1499	16.789	0	0	0	0	0	0	0	0	0	0	0	0	0	-1	0	-2.0278	-17.891	16.968	0	0	0	1	0	0	17.47	2.0148	16.554	2
7617	76.17	0	0	0	0	0	0	10.917	-10.917	18.908	0	0	0	0	0	0	0	0	0	0	0	0	0	0	0	10.989	-10.989	19.033	0	0	0	1	0	0	17.883	2.027	16.961	0	0	0	0	0	0	0	0	0	0	0	0	0	0	0	0	0	0	0	0	0	0	0	0	0	0	0	2
7618	76.18	0	0	0	0	0	0	0	0	0	0	0	0	0	0	0	0	0	0	0	0	0	0	0	0	10.989	-10.989	19.033	0	0	0	1	0	0	17.761	2.1499	16.789	0	0	0	0	0	0	0	0	0	0	0	0	0	0	0	10.994	-10.994	19.042	0	0	0	1	0	0	17.47	2.0148	16.554	2
7619	76.19	0	0	0	0	0	0	10.917	-10.917	18.908	0	0	0	0	0	0	0	0	0	0	0	0	0	0	0	10.989	-10.989	19.033	0	0	0	1	0	0	17.761	2.1499	16.789	0	0	0	0	0	0	0	0	0	0	0	0	0	-1	0	-2.0278	-17.891	16.968	0	0	0	0	0	0	0	0	0	2
7620	76.2	0	0	0	0	0	0	0	0	0	0	0	0	0	0	0	0	0	0	0	0	0	0	0	0	10.989	-10.989	19.033	0	0	0	1	0	0	17.761	2.1499	16.789	0	0	0	0	0	0	0	0	0	0	0	0	1	-1	0	7.5503	-27.469	31.921	0	0	0	0	0	0	0	0	0	2
7621	76.21	0	0	0	0	0	0	10.917	-10.917	18.908	0	0	0	0	0	0	0	0	0	0	0	0	1	0	0	17.755	2.1475	16.785	0	0	0	1	0	0	17.761	2.1499	16.789	0	0	0	0	0	0	0	0	0	0	0	0	0	-1	0	-2.0278	-17.891	16.968	0	0	0	1	0	0	17.47	2.0148	16.554	2
7622	76.22	0	0	0	0	0	0	0	0	0	0	0	0	0	0	0	0	0	0	0	0	0	0	0	0	10.989	-10.989	19.033	0	0	0	1	0	0	17.761	2.1499	16.789	0	0	0	0	0	0	0	0	0	0	0	0	0	0	0	10.994	-10.994	19.042	0	0	0	0	0	0	0	0	0	2
7623	76.23	0	0	0	0	0	0	10.917	-10.917	18.908	0	0	0	0	0	0	0	0	0	0	0	0	0	0	0	10.989	-10.989	19.033	0	0	0	1	0	0	17.761	2.1499	16.789	0	0	0	0	0	0	0	0	0	0	0	0	0	-1	0	-2.0278	-17.891	16.968	0	0	0	1	0	0	17.47	2.0148	16.554	2
7624	76.24	0	0	0	0	0	0	0	0	0	0	0	0	0	0	0	0	0	0	0	0	0	0	0	0	10.989	-10.989	19.033	0	0	0	1	0	0	17.761	2.1499	16.789	0	0	0	0	0	0	0	0	0	0	0	0	1	-1	0	7.5503	-27.469	31.921	0	0	0	0	0	0	0	0	0	2
7625	76.25	0	0	0	0	0	0	10.917	-10.917	18.908	0	0	0	0	0	0	0	0	0	0	0	0	0	0	0	10.989	-10.989	19.033	0	0	0	1	0	0	17.883	2.027	16.961	0	0	0	0	0	0	0	0	0	0	0	0	0	-1	0	-2.0278	-17.891	16.968	0	0	0	1	0	0	17.47	2.0148	16.554	2
7626	76.26	0	0	0	0	0	0	0	0	0	0	0	0	0	0	0	0	0	0	0	0	0	0	0	0	10.989	-10.989	19.033	0	0	0	1	0	0	17.761	2.1499	16.789	0	0	0	0	0	0	0	0	0	0	0	0	0	0	0	0	0	0	0	0	0	1	0	0	17.47	2.0148	16.554	2
7627	76.27	0	0	0	0	0	0	0	0	0	0	0	0	0	0	0	0	0	0	0	0	0	0	0	0	10.989	-10.989	19.033	0	0	0	1	0	0	17.883	2.027	16.961	0	0	0	0	0	0	0	0	0	0	0	0	0	0	0	0	0	0	0	0	0	1	0	0	17.47	2.0148	16.554	2
7628	76.28	0	0	0	0	0	0	0	0	0	0	0	0	0	0	0	0	0	0	0	0	0	0	0	0	10.989	-10.989	19.033	0	0	0	1	0	0	17.761	2.1499	16.789	0	0	0	0	0	0	0	0	0	0	0	0	0	-1	0	-2.0278	-17.891	16.968	0	0	0	1	0	0	17.47	2.0148	16.554	2
7629	76.29	0	0	0	0	0	0	0	0	0	0	0	0	0	0	0	0	0	0	0	0	0	0	0	0	10.989	-10.989	19.033	0	0	0	1	0	0	17.761	2.1499	16.789	0	0	0	0	0	0	0	0	0	0	0	0	0	-1	0	-2.0278	-17.891	16.968	0	0	0	1	0	0	17.47	2.0148	16.554	2
7630	76.3	0	0	0	0	0	0	0	0	0	0	0	0	0	0	0	0	0	0	0	0	0	0	0	0	10.989	-10.989	19.033	0	0	0	1	0	0	17.883	2.027	16.961	0	0	0	0	0	0	0	0	0	0	0	0	0	0	0	0	0	0	0	0	0	1	0	0	17.47	2.0148	16.554	2
7631	76.31	0	0	0	0	0	0	0	0	0	0	0	0	0	0	0	0	0	0	0	0	0	0	0	0	10.989	-10.989	19.033	0	0	0	1	0	0	17.761	2.1499	16.789	0	0	0	0	0	0	0	0	0	0	0	0	1	-1	0	7.5503	-27.469	31.921	0	0	0	1	0	0	17.47	2.0148	16.554	0
7632	76.32	0	0	0	0	0	0	0	0	0	0	0	0	0	0	0	0	0	0	0	0	0	0	0	0	10.989	-10.989	19.033	0	0	0	1	0	0	17.883	2.027	16.961	0	0	0	0	0	0	0	0	0	0	0	0	0	0	0	0	0	0	0	0	0	0	0	0	0	0	0	2
7633	76.33	0	0	0	0	0	0	10.917	-10.917	18.908	0	0	0	0	0	0	0	0	0	0	0	0	0	0	0	10.989	-10.989	19.033	0	0	0	1	0	0	17.761	2.1499	16.789	0	0	0	0	0	0	0	0	0	0	0	0	0	-1	0	-2.0278	-17.891	16.968	0	0	0	1	0	0	17.47	2.0148	16.554	2
7634	76.34	0	0	0	0	0	0	0	0	0	0	0	0	0	0	0	0	0	0	0	0	0	0	0	0	10.989	-10.989	19.033	0	0	0	1	0	0	17.761	2.1499	16.789	0	0	0	1	0	0	17.883	2.027	16.961	0	0	0	1	-1	0	7.5503	-27.469	31.921	0	0	0	0	0	0	0	0	0	2
7635	76.35	0	0	0	0	0	0	0	0	0	0	0	0	0	0	0	0	0	0	0	0	0	0	0	0	10.989	-10.989	19.033	0	0	0	1	0	0	17.761	2.1499	16.789	0	0	0	0	0	0	0	0	0	0	0	0	0	0	0	0	0	0	0	0	0	0	0	0	0	0	0	2
7636	76.36	0	0	0	0	0	0	0	0	0	0	0	0	0	0	0	0	0	0	0	0	0	0	0	0	10.989	-10.989	19.033	0	0	0	1	0	0	17.761	2.1499	16.789	0	0	0	0	0	0	0	0	0	0	0	0	1	-1	0	7.5503	-27.469	31.921	0	0	0	1	0	0	17.47	2.0148	16.554	2
7637	76.37	0	0	0	0	0	0	0	0	0	0	0	0	0	0	0	0	0	0	0	0	0	0	0	0	10.989	-10.989	19.033	0	0	0	1	0	0	17.761	2.1499	16.789	0	0	0	0	0	0	0	0	0	0	0	0	1	-1	0	7.5503	-27.469	31.921	0	0	0	0	0	0	0	0	0	2
7638	76.38	0	0	0	0	0	0	0	0	0	0	0	0	0	0	0	0	0	0	0	0	0	0	0	0	10.989	-10.989	19.033	0	0	0	1	0	0	17.761	2.1499	16.789	0	0	0	1	0	0	17.883	2.027	16.961	0	0	0	0	0	0	0	0	0	0	0	0	0	0	0	0	0	0	2
7639	76.39	0	0	0	0	0	0	10.917	-10.917	18.908	0	0	0	0	0	0	0	0	0	0	0	0	0	0	0	10.989	-10.989	19.033	0	0	0	1	0	0	17.761	2.1499	16.789	0	0	0	0	0	0	0	0	0	0	0	0	1	-1	0	7.5503	-27.469	31.921	0	0	0	0	0	0	0	0	0	2
7640	76.4	0	0	0	0	0	0	0	0	0	0	0	0	0	0	0	0	0	0	0	0	0	0	0	0	10.989	-10.989	19.033	0	0	0	1	0	0	17.761	2.1499	16.789	0	0	0	1	0	0	17.883	2.027	16.961	0	0	0	0	-1	0	-2.0278	-17.891	16.968	0	0	0	1	0	0	17.47	2.0148	16.554	2
7641	76.41	0	0	0	0	0	0	0	0	0	0	0	0	0	0	0	0	0	0	0	0	0	1	0	0	17.755	2.1475	16.785	0	0	0	1	0	0	17.761	2.1499	16.789	0	0	0	0	0	0	0	0	0	0	0	0	1	-1	0	7.5503	-27.469	31.921	0	0	0	0	0	0	0	0	0	2
7642	76.42	0	0	0	0	0	0	0	0	0	0	0	0	0	0	0	0	0	0	0	0	0	0	0	0	10.989	-10.989	19.033	0	0	0	1	0	0	17.883	2.027	16.961	0	0	0	0	0	0	0	0	0	0	0	0	1	-1	0	7.5503	-27.469	31.921	0	0	0	1	0	0	17.47	2.0148	16.554	2
7643	76.43	0	0	0	0	0	0	0	0	0	0	0	0	0	0	0	0	0	0	0	0	0	0	0	0	10.989	-10.989	19.033	0	0	0	1	0	0	17.761	2.1499	16.789	0	0	0	0	0	0	0	0	0	0	0	0	1	-1	0	7.5503	-27.469	31.921	0	0	0	0	0	0	0	0	0	2
7644	76.44	0	0	0	0	0	0	10.917	-10.917	18.908	0	0	0	0	0	0	0	0	0	0	0	0	0	0	0	10.989	-10.989	19.033	0	0	0	1	0	0	17.761	2.1499	16.789	0	0	0	0	0	0	0	0	0	0	0	0	0	-1	0	-2.0278	-17.891	16.968	0	0	0	0	0	0	0	0	0	2
7645	76.45	0	0	0	0	0	0	10.917	-10.917	18.908	0	0	0	0	0	0	0	0	0	0	0	0	0	0	0	10.989	-10.989	19.033	0	0	0	1	0	0	17.883	2.027	16.961	0	0	0	0	0	0	0	0	0	0	0	0	1	-1	0	7.5503	-27.469	31.921	0	0	0	0	0	0	0	0	0	2
7646	76.46	0	0	0	0	0	0	0	0	0	0	0	0	0	0	0	0	0	0	0	0	0	0	0	0	10.989	-10.989	19.033	0	0	0	1	0	0	17.761	2.1499	16.789	0	0	0	0	0	0	0	0	0	0	0	0	0	0	0	10.994	-10.994	19.042	0	0	0	1	0	0	17.47	2.0148	16.554	2
7647	76.47	0	0	0	0	0	0	10.917	-10.917	18.908	0	0	0	0	0	0	0	0	0	0	0	0	0	0	0	10.989	-10.989	19.033	0	0	0	1	0	0	17.761	2.1499	16.789	0	0	0	0	0	0	0	0	0	0	0	0	0	0	0	10.994	-10.994	19.042	0	0	0	0	0	0	0	0	0	2
7648	76.48	0	0	0	0	0	0	0	0	0	0	0	0	0	0	0	0	0	0	0	0	0	0	0	0	10.989	-10.989	19.033	0	0	0	1	0	0	17.761	2.1499	16.789	0	0	0	0	0	0	0	0	0	0	0	0	1	-1	0	7.5503	-27.469	31.921	0	0	0	0	0	0	0	0	0	2
7649	76.49	0	0	0	0	0	0	0	0	0	0	0	0	0	0	0	0	0	0	0	0	0	0	0	0	10.989	-10.989	19.033	0	0	0	1	0	0	17.761	2.1499	16.789	0	0	0	0	0	0	0	0	0	0	0	0	0	-1	0	-2.0278	-17.891	16.968	0	0	0	0	0	0	0	0	0	0
7650	76.5	0	0	0	0	0	0	0	0	0	0	0	0	0	0	0	0	0	0	0	0	0	0	0	0	10.989	-10.989	19.033	0	0	0	1	0	0	17.761	2.1499	16.789	0	0	0	0	0	0	0	0	0	0	0	0	1	-1	0	7.5503	-27.469	31.921	0	0	0	0	0	0	0	0	0	2
7651	76.51	0	0	0	0	0	0	0	0	0	0	0	0	0	0	0	0	0	0	0	0	0	0	0	0	10.989	-10.989	19.033	0	0	0	1	0	0	17.761	2.1499	16.789	0	0	0	0	0	0	0	0	0	0	0	0	0	-1	0	-2.0278	-17.891	16.968	0	0	0	1	0	0	17.47	2.0148	16.554	2
7652	76.52	0	0	0	0	0	0	0	0	0	0	0	0	0	0	0	0	0	0	0	0	0	0	0	0	10.989	-10.989	19.033	0	0	0	1	0	0	17.761	2.1499	16.789	0	0	0	0	0	0	0	0	0	0	0	0	0	0	0	0	0	0	0	0	0	0	0	0	0	0	0	2
7653	76.53	0	0	0	0	0	0	0	0	0	0	0	0	0	0	0	0	0	0	0	0	0	1	0	0	17.755	2.1475	16.785	0	0	0	1	0	0	17.883	2.027	16.961	0	0	0	0	0	0	0	0	0	0	0	0	0	-1	0	-2.0278	-17.891	16.968	0	0	0	1	0	0	17.47	2.0148	16.554	2
7654	76.54	0	0	0	0	0	0	0	0	0	0	0	0	0	0	0	0	0	0	0	0	0	0	0	0	10.989	-10.989	19.033	0	0	0	1	0	0	17.761	2.1499	16.789	0	0	0	0	0	0	0	0	0	0	0	0	0	0	0	0	0	0	0	0	0	1	0	0	17.47	2.0148	16.554	2
7655	76.55	0	0	0	0	0	0	0	0	0	0	0	0	0	0	0	0	0	0	0	0	0	0	0	0	10.989	-10.989	19.033	0	0	0	1	0	0	17.761	2.1499	16.789	0	0	0	0	0	0	0	0	0	0	0	0	0	-1	0	-2.0278	-17.891	16.968	0	0	0	1	0	0	17.47	2.0148	16.554	2
7656	76.56	0	0	0	0	0	0	0	0	0	0	0	0	0	0	0	0	0	0	0	0	0	1	0	0	17.755	2.1475	16.785	0	0	0	1	0	0	17.761	2.1499	16.789	0	0	0	0	0	0	0	0	0	0	0	0	1	-1	0	7.5503	-27.469	31.921	0	0	0	1	0	0	17.47	2.0148	16.554	2
7657	76.57	0	0	0	0	0	0	0	0	0	0	0	0	0	0	0	0	0	0	0	0	0	0	0	0	10.989	-10.989	19.033	0	0	0	1	0	0	17.761	2.1499	16.789	0	0	0	0	0	0	0	0	0	0	0	0	1	-1	0	7.5503	-27.469	31.921	0	0	0	1	0	0	17.47	2.0148	16.554	2
7658	76.58	0	0	0	0	0	0	0	0	0	0	0	0	0	0	0	0	0	0	0	0	0	1	0	0	17.755	2.1475	16.785	0	0	0	1	0	0	17.761	2.1499	16.789	0	0	0	0	0	0	0	0	0	0	0	0	0	0	0	10.994	-10.994	19.042	0	0	0	0	0	0	0	0	0	2
7659	76.59	0	0	0	0	0	0	0	0	0	0	0	0	0	0	0	0	0	0	0	0	0	0	0	0	10.989	-10.989	19.033	0	0	0	1	0	0	17.761	2.1499	16.789	0	0	0	0	0	0	0	0	0	0	0	0	0	-1	0	-2.0278	-17.891	16.968	0	0	0	1	0	0	17.47	2.0148	16.554	2
7660	76.6	0	0	0	0	0	0	0	0	0	0	0	0	0	0	0	0	0	0	0	0	0	0	0	0	10.989	-10.989	19.033	0	0	0	1	0	0	17.883	2.027	16.961	0	0	0	0	0	0	0	0	0	0	0	0	0	-1	0	-2.0278	-17.891	16.968	0	0	0	0	0	0	0	0	0	2
7661	76.61	0	0	0	0	0	0	0	0	0	0	0	0	0	0	0	0	0	0	0	0	0	0	0	0	10.989	-10.989	19.033	0	0	0	1	0	0	17.761	2.1499	16.789	0	0	0	0	0	0	0	0	0	0	0	0	0	0	0	10.994	-10.994	19.042	0	0	0	0	0	0	10.93	-10.93	18.931	2
7662	76.62	0	0	0	0	0	0	0	0	0	0	0	0	0	0	0	0	0	0	0	0	0	0	0	0	10.989	-10.989	19.033	0	0	0	1	0	0	17.761	2.1499	16.789	0	0	0	0	0	0	0	0	0	0	0	0	0	-1	0	-2.0278	-17.891	16.968	0	0	0	0	0	0	0	0	0	2
7663	76.63	0	0	0	0	0	0	0	0	0	0	0	0	0	0	0	0	0	0	0	0	0	1	0	0	17.755	2.1475	16.785	0	0	0	1	0	0	17.761	2.1499	16.789	0	0	0	0	0	0	0	0	0	0	0	0	0	0	0	0	0	0	0	0	0	0	0	0	0	0	0	2
7664	76.64	0	0	0	0	0	0	0	0	0	0	0	0	0	0	0	0	0	0	0	0	0	0	0	0	10.989	-10.989	19.033	0	0	0	1	0	0	17.761	2.1499	16.789	0	0	0	0	0	0	0	0	0	0	0	0	0	0	0	10.994	-10.994	19.042	0	0	0	1	0	0	17.47	2.0148	16.554	2
7665	76.65	0	0	0	0	0	0	0	0	0	0	0	0	0	0	0	0	0	0	0	0	0	0	0	0	10.989	-10.989	19.033	0	0	0	1	0	0	17.883	2.027	16.961	0	0	0	0	0	0	0	0	0	0	0	0	0	-1	0	-2.0278	-17.891	16.968	0	0	0	1	0	0	17.47	2.0148	16.554	2
7666	76.66	0	0	0	0	0	0	0	0	0	0	0	0	0	0	0	0	0	0	0	0	0	0	0	0	10.989	-10.989	19.033	0	0	0	1	0	0	17.761	2.1499	16.789	0	0	0	0	0	0	0	0	0	0	0	0	0	0	0	10.994	-10.994	19.042	0	0	0	1	0	0	17.47	2.0148	16.554	2
7667	76.67	0	0	0	0	0	0	0	0	0	0	0	0	0	0	0	0	0	0	0	0	0	0	0	0	10.989	-10.989	19.033	0	0	0	1	0	0	17.761	2.1499	16.789	0	0	0	0	0	0	0	0	0	0	0	0	1	-1	0	7.5503	-27.469	31.921	0	0	0	1	0	0	17.482	2.0162	16.566	2
7668	76.68	0	0	0	0	0	0	0	0	0	0	0	0	0	0	0	0	0	0	0	0	0	0	0	0	10.989	-10.989	19.033	0	0	0	1	0	0	17.761	2.1499	16.789	0	0	0	0	0	0	0	0	0	0	0	0	0	-1	0	-2.0278	-17.891	16.968	0	0	0	0	0	0	0	0	0	2
7669	76.69	0	0	0	0	0	0	0	0	0	0	0	0	0	0	0	0	0	0	0	0	0	0	0	0	10.989	-10.989	19.033	0	0	0	1	0	0	17.761	2.1499	16.789	0	0	0	0	0	0	0	0	0	0	0	0	1	-1	0	7.5503	-27.469	31.921	0	0	0	1	0	0	17.47	2.0148	16.554	2
7670	76.7	0	0	0	0	0	0	0	0	0	0	0	0	0	0	0	0	0	0	0	0	0	0	0	0	10.989	-10.989	19.033	0	0	0	1	0	0	17.761	2.1499	16.789	0	0	0	0	0	0	0	0	0	0	0	0	0	-1	0	-2.0278	-17.891	16.968	0	0	0	0	0	0	0	0	0	2
7671	76.71	0	0	0	0	0	0	10.917	-10.917	18.908	0	0	0	0	0	0	0	0	0	0	0	0	1	0	0	17.755	2.1475	16.785	0	0	0	1	0	0	17.761	2.1499	16.789	0	0	0	0	0	0	0	0	0	0	0	0	1	-1	0	7.5503	-27.469	31.921	0	0	0	1	0	0	17.47	2.0148	16.554	2
7672	76.72	0	0	0	0	0	0	0	0	0	0	0	0	0	0	0	0	0	0	0	0	0	0	0	0	10.989	-10.989	19.033	0	0	0	1	0	0	17.883	2.027	16.961	0	0	0	0	0	0	0	0	0	0	0	0	1	-1	0	7.5503	-27.469	31.921	0	0	0	0	0	0	0	0	0	2
7673	76.73	0	0	0	0	0	0	0	0	0	0	0	0	0	0	0	0	0	0	0	0	0	0	0	0	10.989	-10.989	19.033	0	0	0	1	0	0	17.883	2.027	16.961	0	0	0	0	0	0	0	0	0	0	0	0	0	-1	0	-2.0278	-17.891	16.968	0	0	0	1	0	0	17.47	2.0148	16.554	2
7674	76.74	0	0	0	0	0	0	0	0	0	0	0	0	0	0	0	0	0	0	0	0	0	0	0	0	10.989	-10.989	19.033	0	0	0	1	0	0	17.761	2.1499	16.789	0	0	0	0	0	0	0	0	0	0	0	0	0	-1	0	-2.0278	-17.891	16.968	0	0	0	0	0	0	0	0	0	2
7675	76.75	0	0	0	0	0	0	0	0	0	0	0	0	0	0	0	0	0	0	0	0	0	0	0	0	10.989	-10.989	19.033	0	0	0	1	0	0	17.761	2.1499	16.789	0	0	0	0	0	0	0	0	0	0	0	0	1	-1	0	7.5503	-27.469	31.921	0	0	0	0	0	0	0	0	0	2
7676	76.76	0	0	0	0	0	0	10.917	-10.917	18.908	0	0	0	0	0	0	0	0	0	0	0	0	1	0	0	17.755	2.1475	16.785	0	0	0	1	0	0	17.761	2.1499	16.789	0	0	0	0	0	0	0	0	0	0	0	0	0	0	0	0	0	0	0	0	0	1	0	0	17.47	2.0148	16.554	2
7677	76.77	0	0	0	0	0	0	10.917	-10.917	18.908	0	0	0	0	0	0	0	0	0	0	0	0	0	0	0	10.989	-10.989	19.033	0	0	0	1	0	0	17.883	2.027	16.961	0	0	0	0	0	0	0	0	0	0	0	0	1	-1	0	7.5503	-27.469	31.921	0	0	0	0	0	0	0	0	0	2
7678	76.78	0	0	0	0	0	0	0	0	0	0	0	0	0	0	0	0	0	0	0	0	0	0	0	0	10.989	-10.989	19.033	0	0	0	1	0	0	17.761	2.1499	16.789	0	0	0	0	0	0	0	0	0	0	0	0	0	-1	0	-2.0278	-17.891	16.968	0	0	0	0	0	0	0	0	0	2
7679	76.79	0	0	0	0	0	0	10.917	-10.917	18.908	0	0	0	0	0	0	0	0	0	0	0	0	0	0	0	10.989	-10.989	19.033	0	0	0	1	0	0	17.883	2.027	16.961	0	0	0	0	0	0	0	0	0	0	0	0	0	0	0	10.994	-10.994	19.042	0	0	0	0	0	0	0	0	0	2
7680	76.8	0	0	0	0	0	0	0	0	0	0	0	0	0	0	0	0	0	0	0	0	0	0	0	0	10.989	-10.989	19.033	0	0	0	1	0	0	17.761	2.1499	16.789	0	0	0	0	0	0	0	0	0	0	0	0	0	-1	0	-2.0278	-17.891	16.968	0	0	0	0	0	0	0	0	0	2
7681	76.81	0	0	0	0	0	0	0	0	0	0	0	0	0	0	0	0	0	0	0	0	0	0	0	0	10.989	-10.989	19.033	0	0	0	1	0	0	17.761	2.1499	16.789	0	0	0	0	0	0	0	0	0	0	0	0	1	-1	0	7.5503	-27.469	31.921	0	0	0	0	0	0	10.93	-10.93	18.931	2
7682	76.82	0	0	0	0	0	0	10.917	-10.917	18.908	0	0	0	0	0	0	0	0	0	0	0	0	0	0	0	10.989	-10.989	19.033	0	0	0	1	0	0	17.761	2.1499	16.789	0	0	0	0	0	0	0	0	0	0	0	0	0	0	0	0	0	0	0	0	0	1	0	0	17.47	2.0148	16.554	2
7683	76.83	0	0	0	0	0	0	0	0	0	0	0	0	0	0	0	0	0	0	0	0	0	0	0	0	10.989	-10.989	19.033	0	0	0	1	0	0	17.761	2.1499	16.789	0	0	0	0	0	0	0	0	0	0	0	0	1	-1	0	7.5503	-27.469	31.921	0	0	0	0	0	0	10.93	-10.93	18.931	2
7684	76.84	0	0	0	0	0	0	0	0	0	0	0	0	0	0	0	0	0	0	0	0	0	0	0	0	10.989	-10.989	19.033	0	0	0	1	0	0	17.883	2.027	16.961	0	0	0	0	0	0	0	0	0	0	0	0	1	-1	0	7.5503	-27.469	31.921	0	0	0	1	0	0	17.47	2.0148	16.554	2
7685	76.85	0	0	0	0	0	0	0	0	0	0	0	0	0	0	0	0	0	0	0	0	0	0	0	0	10.989	-10.989	19.033	0	0	0	1	0	0	17.883	2.027	16.961	0	0	0	0	0	0	0	0	0	0	0	0	0	-1	0	-2.0278	-17.891	16.968	0	0	0	0	0	0	0	0	0	0
7686	76.86	0	0	0	0	0	0	10.917	-10.917	18.908	0	0	0	0	0	0	0	0	0	0	0	0	1	0	0	17.755	2.1475	16.785	0	0	0	1	0	0	17.761	2.1499	16.789	0	0	0	0	0	0	0	0	0	0	0	0	0	-1	0	-2.0278	-17.891	16.968	0	0	0	1	0	0	17.47	2.0148	16.554	2
7687	76.87	0	0	0	0	0	0	0	0	0	0	0	0	0	0	0	0	0	0	0	0	0	0	0	0	10.989	-10.989	19.033	0	0	0	1	0	0	17.761	2.1499	16.789	0	0	0	0	0	0	0	0	0	0	0	0	0	-1	0	-2.0278	-17.891	16.968	0	0	0	0	0	0	0	0	0	2
7688	76.88	0	0	0	0	0	0	10.917	-10.917	18.908	0	0	0	0	0	0	0	0	0	0	0	0	1	0	0	17.755	2.1475	16.785	0	0	0	1	0	0	17.761	2.1499	16.789	0	0	0	0	0	0	0	0	0	0	0	0	0	-1	0	-2.0278	-17.891	16.968	0	0	0	1	0	0	17.47	2.0148	16.554	2
7689	76.89	0	0	0	0	0	0	10.917	-10.917	18.908	0	0	0	0	0	0	0	0	0	0	0	0	0	0	0	10.989	-10.989	19.033	0	0	0	1	0	0	17.883	2.027	16.961	0	0	0	0	0	0	0	0	0	0	0	0	0	0	0	0	0	0	0	0	0	0	0	0	0	0	0	2
7690	76.9	0	0	0	0	0	0	0	0	0	0	0	0	0	0	0	0	0	0	0	0	0	0	0	0	10.989	-10.989	19.033	0	0	0	1	0	0	17.883	2.027	16.961	0	0	0	0	0	0	0	0	0	0	0	0	1	-1	0	7.5503	-27.469	31.921	0	0	0	0	0	0	0	0	0	2
7691	76.91	0	0	0	0	0	0	0	0	0	0	0	0	0	0	0	0	0	0	0	0	0	0	0	0	10.989	-10.989	19.033	0	0	0	1	0	0	17.761	2.1499	16.789	0	0	0	0	0	0	0	0	0	0	0	0	0	-1	0	-2.0278	-17.891	16.968	0	0	0	1	0	0	17.47	2.0148	16.554	2
7692	76.92	0	0	0	0	0	0	0	0	0	0	0	0	0	0	0	0	0	0	0	0	0	0	0	0	10.989	-10.989	19.033	0	0	0	1	0	0	17.761	2.1499	16.789	0	0	0	0	0	0	0	0	0	0	0	0	1	-1	0	7.5503	-27.469	31.921	0	0	0	0	0	0	0	0	0	2
7693	76.93	0	0	0	0	0	0	0	0	0	0	0	0	0	0	0	0	0	0	0	0	0	0	0	0	10.989	-10.989	19.033	0	0	0	1	0	0	17.761	2.1499	16.789	0	0	0	0	0	0	0	0	0	0	0	0	0	-1	0	-2.0278	-17.891	16.968	0	0	0	1	0	0	17.47	2.0148	16.554	2
7694	76.94	0	0	0	0	0	0	0	0	0	0	0	0	0	0	0	0	0	0	0	0	0	0	0	0	10.989	-10.989	19.033	0	0	0	1	0	0	17.761	2.1499	16.789	0	0	0	0	0	0	0	0	0	0	0	0	0	0	0	0	0	0	0	0	0	0	0	0	0	0	0	2
7695	76.95	0	0	0	0	0	0	0	0	0	0	0	0	0	0	0	0	0	0	0	0	0	0	0	0	10.989	-10.989	19.033	0	0	0	1	0	0	17.883	2.027	16.961	0	0	0	0	0	0	0	0	0	0	0	0	1	-1	0	7.5503	-27.469	31.921	0	0	0	1	0	0	17.47	2.0148	16.554	2
7696	76.96	0	0	0	0	0	0	0	0	0	0	0	0	0	0	0	0	0	0	0	0	0	1	0	0	17.755	2.1475	16.785	0	0	0	1	0	0	17.761	2.1499	16.789	0	0	0	0	0	0	0	0	0	0	0	0	1	-1	0	7.5503	-27.469	31.921	0	0	0	0	0	0	0	0	0	2
7697	76.97	0	0	0	0	0	0	10.917	-10.917	18.908	0	0	0	0	0	0	0	0	0	0	0	0	0	0	0	10.989	-10.989	19.033	0	0	0	1	0	0	17.761	2.1499	16.789	0	0	0	0	0	0	0	0	0	0	0	0	0	-1	0	-2.0278	-17.891	16.968	0	0	0	0	0	0	0	0	0	2
7698	76.98	0	0	0	0	0	0	0	0	0	0	0	0	0	0	0	0	0	0	0	0	0	1	0	0	17.755	2.1475	16.785	0	0	0	1	0	0	17.883	2.027	16.961	0	0	0	0	0	0	0	0	0	0	0	0	1	-1	0	7.5503	-27.469	31.921	0	0	0	0	0	0	0	0	0	2
7699	76.99	0	0	0	0	0	0	10.917	-10.917	18.908	0	0	0	0	0	0	0	0	0	0	0	0	0	0	0	10.989	-10.989	19.033	0	0	0	1	0	0	17.761	2.1499	16.789	0	0	0	0	0	0	0	0	0	0	0	0	0	-1	0	-2.0278	-17.891	16.968	0	0	0	1	0	0	17.47	2.0148	16.554	2
7700	77	0	0	0	0	0	0	10.917	-10.917	18.908	0	0	0	0	0	0	0	0	0	0	0	0	0	0	0	10.989	-10.989	19.033	0	0	0	1	0	0	17.883	2.027	16.961	0	0	0	0	0	0	0	0	0	0	0	0	0	0	0	0	0	0	0	0	0	0	0	0	0	0	0	2
7701	77.01	0	0	0	0	0	0	0	0	0	0	0	0	0	0	0	0	0	0	0	0	0	1	0	0	17.755	2.1475	16.785	0	0	0	1	0	0	17.761	2.1499	16.789	0	0	0	0	0	0	0	0	0	0	0	0	1	-1	0	7.5503	-27.469	31.921	0	0	0	0	0	0	0	0	0	2
7702	77.02	0	0	0	0	0	0	0	0	0	0	0	0	0	0	0	0	0	0	0	0	0	0	0	0	10.989	-10.989	19.033	0	0	0	1	0	0	17.761	2.1499	16.789	0	0	0	0	0	0	0	0	0	0	0	0	1	-1	0	7.5503	-27.469	31.921	0	0	0	0	0	0	0	0	0	2
7703	77.03	0	0	0	0	0	0	0	0	0	0	0	0	0	0	0	0	0	0	0	0	0	0	0	0	10.989	-10.989	19.033	0	0	0	1	0	0	17.761	2.1499	16.789	0	0	0	0	0	0	0	0	0	0	0	0	0	0	0	0	0	0	0	0	0	1	0	0	17.47	2.0148	16.554	2
7704	77.04	0	0	0	0	0	0	0	0	0	0	0	0	0	0	0	0	0	0	0	0	0	1	0	0	17.755	2.1475	16.785	0	0	0	1	0	0	17.883	2.027	16.961	0	0	0	0	0	0	0	0	0	0	0	0	0	0	0	10.994	-10.994	19.042	0	0	0	0	0	0	0	0	0	2
7705	77.05	0	0	0	0	0	0	0	0	0	0	0	0	0	0	0	0	0	0	0	0	0	0	0	0	10.989	-10.989	19.033	0	0	0	1	0	0	17.761	2.1499	16.789	0	0	0	0	0	0	0	0	0	0	0	0	0	0	0	0	0	0	0	0	0	1	0	0	17.47	2.0148	16.554	2
7706	77.06	0	0	0	0	0	0	0	0	0	0	0	0	0	0	0	0	0	0	0	0	0	0	0	0	10.989	-10.989	19.033	0	0	0	1	0	0	17.761	2.1499	16.789	0	0	0	0	0	0	0	0	0	0	0	0	0	0	0	10.994	-10.994	19.042	0	0	0	1	0	0	17.47	2.0148	16.554	2
7707	77.07	0	0	0	0	0	0	0	0	0	0	0	0	0	0	0	0	0	0	0	0	0	0	0	0	10.989	-10.989	19.033	0	0	0	1	0	0	17.761	2.1499	16.789	0	0	0	0	0	0	0	0	0	0	0	0	0	-1	0	-2.0278	-17.891	16.968	0	0	0	1	0	0	17.482	2.0162	16.566	2
7708	77.08	0	0	0	0	0	0	0	0	0	0	0	0	0	0	0	0	0	0	0	0	0	1	0	0	17.755	2.1475	16.785	0	0	0	1	0	0	17.883	2.027	16.961	0	0	0	0	0	0	0	0	0	0	0	0	1	-1	0	7.5503	-27.469	31.921	0	0	0	1	0	0	17.47	2.0148	16.554	2
7709	77.09	0	0	0	0	0	0	0	0	0	0	0	0	0	0	0	0	0	0	0	0	0	0	0	0	10.989	-10.989	19.033	0	0	0	1	0	0	17.761	2.1499	16.789	0	0	0	0	0	0	0	0	0	0	0	0	0	-1	0	-2.0278	-17.891	16.968	0	0	0	1	0	0	17.47	2.0148	16.554	2
7710	77.1	0	0	0	0	0	0	0	0	0	0	0	0	0	0	0	0	0	0	0	0	0	0	0	0	10.989	-10.989	19.033	0	0	0	1	0	0	17.761	2.1499	16.789	0	0	0	0	0	0	0	0	0	0	0	0	0	0	0	10.994	-10.994	19.042	0	0	0	1	0	0	17.47	2.0148	16.554	2
7711	77.11	0	0	0	0	0	0	0	0	0	0	0	0	0	0	0	0	0	0	0	0	0	0	0	0	10.989	-10.989	19.033	0	0	0	1	0	0	17.761	2.1499	16.789	0	0	0	0	0	0	0	0	0	0	0	0	0	-1	0	-2.0278	-17.891	16.968	0	0	0	1	0	0	30.423	8.5595	27.174	2
7712	77.12	0	0	0	0	0	0	10.917	-10.917	18.908	0	0	0	0	0	0	0	0	0	0	0	0	0	0	0	10.989	-10.989	19.033	0	0	0	1	0	0	17.883	2.027	16.961	0	0	0	0	0	0	0	0	0	0	0	0	1	-1	0	7.5503	-27.469	31.921	0	0	0	0	0	0	0	0	0	2
7713	77.13	0	0	0	0	0	0	10.917	-10.917	18.908	0	0	0	0	0	0	0	0	0	0	0	0	1	0	0	17.755	2.1475	16.785	0	0	0	1	0	0	17.883	2.027	16.961	0	0	0	0	0	0	0	0	0	0	0	0	0	0	0	10.994	-10.994	19.042	0	0	0	1	0	0	17.47	2.0148	16.554	0
7714	77.14	0	0	0	0	0	0	0	0	0	0	0	0	0	0	0	0	0	0	0	0	0	1	0	0	17.755	2.1475	16.785	0	0	0	1	0	0	17.883	2.027	16.961	0	0	0	0	0	0	0	0	0	0	0	0	0	-1	0	-2.0278	-17.891	16.968	0	0	0	1	0	0	17.47	2.0148	16.554	2
7715	77.15	0	0	0	0	0	0	0	0	0	0	0	0	0	0	0	0	0	0	0	0	0	0	0	0	10.989	-10.989	19.033	0	0	0	1	0	0	17.883	2.027	16.961	0	0	0	0	0	0	0	0	0	0	0	0	1	-1	0	7.5503	-27.469	31.921	0	0	0	1	0	0	17.47	2.0148	16.554	2
7716	77.16	0	0	0	0	0	0	0	0	0	0	0	0	0	0	0	0	0	0	0	0	0	1	0	0	17.755	2.1475	16.785	0	0	0	1	0	0	17.761	2.1499	16.789	0	0	0	0	0	0	0	0	0	0	0	0	0	-1	0	-2.0278	-17.891	16.968	0	0	0	1	0	0	30.423	8.5595	27.174	2
7717	77.17	0	0	0	0	0	0	0	0	0	0	0	0	0	0	0	0	0	0	0	0	0	0	0	0	10.989	-10.989	19.033	0	0	0	1	0	0	17.761	2.1499	16.789	0	0	0	0	0	0	0	0	0	0	0	0	0	0	0	0	0	0	0	0	0	0	0	0	0	0	0	0
7718	77.18	0	0	0	0	0	0	10.917	-10.917	18.908	0	0	0	0	0	0	0	0	0	0	0	0	0	0	0	10.989	-10.989	19.033	0	0	0	1	0	0	17.761	2.1499	16.789	0	0	0	0	0	0	0	0	0	0	0	0	0	0	0	10.994	-10.994	19.042	0	0	0	1	0	0	17.47	2.0148	16.554	2
7719	77.19	0	0	0	0	0	0	0	0	0	0	0	0	0	0	0	0	0	0	0	0	0	1	0	0	17.755	2.1475	16.785	0	0	0	1	0	0	17.761	2.1499	16.789	0	0	0	0	0	0	0	0	0	0	0	0	1	-1	0	7.5503	-27.469	31.921	0	0	0	0	0	0	0	0	0	2
7720	77.2	0	0	0	0	0	0	0	0	0	0	0	0	0	0	0	0	0	0	0	0	0	0	0	0	10.989	-10.989	19.033	0	0	0	1	0	0	17.761	2.1499	16.789	0	0	0	0	0	0	0	0	0	0	0	0	1	-1	0	7.5503	-27.469	31.921	0	0	0	0	0	0	0	0	0	2
7721	77.21	0	0	0	0	0	0	0	0	0	0	0	0	0	0	0	0	0	0	0	0	0	0	0	0	10.989	-10.989	19.033	0	0	0	1	0	0	17.761	2.1499	16.789	0	0	0	0	0	0	0	0	0	0	0	0	0	0	0	0	0	0	0	0	0	0	0	0	0	0	0	2
7722	77.22	0	0	0	0	0	0	10.917	-10.917	18.908	0	0	0	0	0	0	0	0	0	0	0	0	0	0	0	10.989	-10.989	19.033	0	0	0	1	0	0	17.883	2.027	16.961	0	0	0	0	0	0	0	0	0	0	0	0	0	-1	0	-2.0278	-17.891	16.968	0	0	0	0	0	0	0	0	0	2
7723	77.23	0	0	0	0	0	0	0	0	0	0	0	0	0	0	0	0	0	0	0	0	0	0	0	0	10.989	-10.989	19.033	0	0	0	1	0	0	17.761	2.1499	16.789	0	0	0	0	0	0	0	0	0	0	0	0	0	0	0	0	0	0	0	0	0	1	0	0	17.47	2.0148	16.554	2
7724	77.24	0	0	0	0	0	0	0	0	0	0	0	0	0	0	0	0	0	0	0	0	0	0	0	0	10.989	-10.989	19.033	0	0	0	1	0	0	17.761	2.1499	16.789	0	0	0	0	0	0	0	0	0	0	0	0	0	0	0	10.994	-10.994	19.042	0	0	0	0	0	0	0	0	0	2
7725	77.25	0	0	0	0	0	0	0	0	0	0	0	0	0	0	0	0	0	0	0	0	0	0	0	0	10.989	-10.989	19.033	0	0	0	1	0	0	17.761	2.1499	16.789	0	0	0	0	0	0	0	0	0	0	0	0	0	0	0	10.994	-10.994	19.042	0	0	0	0	0	0	0	0	0	2
7726	77.26	0	0	0	0	0	0	0	0	0	0	0	0	0	0	0	0	0	0	0	0	0	0	0	0	10.989	-10.989	19.033	0	0	0	1	0	0	17.761	2.1499	16.789	0	0	0	0	0	0	0	0	0	0	0	0	0	-1	0	-2.0278	-17.891	16.968	0	0	0	0	0	0	19.496	19.487	19.491	2
7727	77.27	0	0	0	0	0	0	0	0	0	0	0	0	0	0	0	0	0	0	0	0	0	0	0	0	10.989	-10.989	19.033	0	0	0	1	0	0	17.761	2.1499	16.789	0	0	0	0	0	0	0	0	0	0	0	0	0	0	0	0	0	0	0	0	0	0	0	0	0	0	0	2
7728	77.28	0	0	0	0	0	0	10.917	-10.917	18.908	0	0	0	0	0	0	0	0	0	0	0	0	0	0	0	10.989	-10.989	19.033	0	0	0	1	0	0	17.761	2.1499	16.789	0	0	0	0	0	0	0	0	0	0	0	0	1	-1	0	7.5503	-27.469	31.921	0	0	0	0	0	0	0	0	0	2
7729	77.29	0	0	0	0	0	0	0	0	0	0	0	0	0	0	0	0	0	0	0	0	0	0	0	0	10.989	-10.989	19.033	0	0	0	1	0	0	17.761	2.1499	16.789	0	0	0	0	0	0	0	0	0	0	0	0	0	-1	0	-2.0278	-17.891	16.968	0	0	0	1	0	0	17.47	2.0148	16.554	2
7730	77.3	0	0	0	0	0	0	0	0	0	0	0	0	0	0	0	0	0	0	0	0	0	0	0	0	10.989	-10.989	19.033	0	0	0	1	0	0	17.883	2.027	16.961	0	0	0	0	0	0	0	0	0	0	0	0	0	-1	0	-2.0278	-17.891	16.968	0	0	0	0	0	0	0	0	0	2
7731	77.31	0	0	0	0	0	0	0	0	0	0	0	0	0	0	0	0	0	0	0	0	0	1	0	0	17.755	2.1475	16.785	0	0	0	1	0	0	17.761	2.1499	16.789	0	0	0	0	0	0	0	0	0	0	0	0	0	0	0	0	0	0	0	0	0	1	0	0	17.47	2.0148	16.554	2
7732	77.32	0	0	0	0	0	0	0	0	0	0	0	0	0	0	0	0	0	0	0	0	0	0	0	0	10.989	-10.989	19.033	0	0	0	1	0	0	17.761	2.1499	16.789	0	0	0	1	0	0	17.883	2.027	16.961	0	0	0	0	0	0	10.994	-10.994	19.042	0	0	0	0	0	0	0	0	0	2
7733	77.33	0	0	0	0	0	0	0	0	0	0	0	0	0	0	0	0	0	0	0	0	0	0	0	0	10.989	-10.989	19.033	0	0	0	1	0	0	17.761	2.1499	16.789	0	0	0	0	0	0	0	0	0	0	0	0	1	-1	0	7.5503	-27.469	31.921	0	0	0	1	0	0	17.47	2.0148	16.554	2
7734	77.34	0	0	0	0	0	0	0	0	0	0	0	0	0	0	0	0	0	0	0	0	0	1	0	0	17.755	2.1475	16.785	0	0	0	1	0	0	17.761	2.1499	16.789	0	0	0	0	0	0	0	0	0	0	0	0	0	-1	0	-2.0278	-17.891	16.968	0	0	0	0	0	0	0	0	0	2
7735	77.35	0	0	0	0	0	0	0	0	0	0	0	0	0	0	0	0	0	0	0	0	0	0	0	0	10.989	-10.989	19.033	0	0	0	1	0	0	17.883	2.027	16.961	0	0	0	0	0	0	0	0	0	0	0	0	0	-1	0	-2.0278	-17.891	16.968	0	0	0	0	0	0	0	0	0	2
7736	77.36	0	0	0	0	0	0	0	0	0	0	0	0	0	0	0	0	0	0	0	0	0	0	0	0	10.989	-10.989	19.033	0	0	0	1	0	0	17.761	2.1499	16.789	0	0	0	0	0	0	0	0	0	0	0	0	1	-1	0	7.5503	-27.469	31.921	0	0	0	1	0	0	17.47	2.0148	16.554	2
7737	77.37	0	0	0	0	0	0	0	0	0	0	0	0	0	0	0	0	0	0	0	0	0	0	0	0	10.989	-10.989	19.033	0	0	0	1	0	0	17.883	2.027	16.961	0	0	0	0	0	0	0	0	0	0	0	0	0	0	0	10.994	-10.994	19.042	0	0	0	0	0	0	0	0	0	2
7738	77.38	0	0	0	0	0	0	0	0	0	0	0	0	0	0	0	0	0	0	0	0	0	1	0	0	17.755	2.1475	16.785	0	0	0	1	0	0	17.761	2.1499	16.789	0	0	0	0	0	0	0	0	0	0	0	0	0	0	0	0	0	0	0	0	0	1	0	0	17.47	2.0148	16.554	2
7739	77.39	0	0	0	0	0	0	0	0	0	0	0	0	0	0	0	0	0	0	0	0	0	0	0	0	10.989	-10.989	19.033	0	0	0	1	0	0	17.883	2.027	16.961	0	0	0	0	0	0	0	0	0	0	0	0	1	-1	0	7.5503	-27.469	31.921	0	0	0	0	0	0	0	0	0	2
7740	77.4	0	0	0	0	0	0	0	0	0	0	0	0	0	0	0	0	0	0	0	0	0	0	0	0	10.989	-10.989	19.033	0	0	0	1	0	0	17.761	2.1499	16.789	0	0	0	0	0	0	0	0	0	0	0	0	0	-1	0	-2.0278	-17.891	16.968	0	0	0	0	0	0	0	0	0	0
7741	77.41	0	0	0	0	0	0	0	0	0	0	0	0	0	0	0	0	0	0	0	0	0	0	0	0	10.989	-10.989	19.033	0	0	0	1	0	0	17.761	2.1499	16.789	0	0	0	0	0	0	0	0	0	0	0	0	0	0	0	10.994	-10.994	19.042	0	0	0	0	0	0	0	0	0	2
7742	77.42	0	0	0	0	0	0	0	0	0	0	0	0	0	0	0	0	0	0	0	0	0	0	0	0	10.989	-10.989	19.033	0	0	0	1	0	0	17.883	2.027	16.961	0	0	0	0	0	0	0	0	0	0	0	0	0	0	0	10.994	-10.994	19.042	0	0	0	1	0	0	17.47	2.0148	16.554	2
7743	77.43	0	0	0	0	0	0	0	0	0	0	0	0	0	0	0	0	0	0	0	0	0	1	0	0	17.755	2.1475	16.785	0	0	0	1	0	0	17.883	2.027	16.961	0	0	0	0	0	0	0	0	0	0	0	0	0	-1	0	-2.0278	-17.891	16.968	0	0	0	1	0	0	17.47	2.0148	16.554	2
7744	77.44	0	0	0	0	0	0	0	0	0	0	0	0	0	0	0	0	0	0	0	0	0	0	0	0	10.989	-10.989	19.033	0	0	0	1	0	0	17.761	2.1499	16.789	0	0	0	0	0	0	0	0	0	0	0	0	0	0	0	10.994	-10.994	19.042	0	0	0	0	0	0	0	0	0	2
7745	77.45	0	0	0	0	0	0	0	0	0	0	0	0	0	0	0	0	0	0	0	0	0	0	0	0	10.989	-10.989	19.033	0	0	0	1	0	0	17.883	2.027	16.961	0	0	0	0	0	0	0	0	0	0	0	0	0	0	0	0	0	0	0	0	0	0	0	0	0	0	0	2
7746	77.46	0	0	0	0	0	0	10.917	-10.917	18.908	0	0	0	0	0	0	0	0	0	0	0	0	1	0	0	17.755	2.1475	16.785	0	0	0	1	0	0	17.761	2.1499	16.789	0	0	0	1	0	0	17.883	2.027	16.961	0	0	0	0	-1	0	-2.0278	-17.891	16.968	0	0	0	1	0	0	17.471	2.0135	16.556	2
7747	77.47	0	0	0	0	0	0	0	0	0	0	0	0	0	0	0	0	0	0	0	0	0	0	0	0	10.989	-10.989	19.033	0	0	0	1	0	0	17.761	2.1499	16.789	0	0	0	0	0	0	0	0	0	0	0	0	1	-1	0	7.5503	-27.469	31.921	0	0	0	0	0	0	0	0	0	2
7748	77.48	0	0	0	0	0	0	0	0	0	0	0	0	0	0	0	0	0	0	0	0	0	0	0	0	10.989	-10.989	19.033	0	0	0	1	0	0	17.761	2.1499	16.789	0	0	0	0	0	0	0	0	0	0	0	0	1	-1	0	7.5503	-27.469	31.921	0	0	0	1	0	0	17.47	2.0148	16.554	2
7749	77.49	0	0	0	0	0	0	0	0	0	0	0	0	0	0	0	0	0	0	0	0	0	0	0	0	10.989	-10.989	19.033	0	0	0	1	0	0	17.761	2.1499	16.789	0	0	0	0	0	0	0	0	0	0	0	0	0	-1	0	-2.0278	-17.891	16.968	0	0	0	0	0	0	0	0	0	2
7750	77.5	0	0	0	0	0	0	0	0	0	0	0	0	0	0	0	0	0	0	0	0	0	0	0	0	10.989	-10.989	19.033	0	0	0	1	0	0	17.761	2.1499	16.789	0	0	0	0	0	0	0	0	0	0	0	0	0	0	0	0	0	0	0	0	0	1	0	0	17.47	2.0148	16.554	2
7751	77.51	0	0	0	0	0	0	0	0	0	0	0	0	0	0	0	0	0	0	0	0	0	0	0	0	10.989	-10.989	19.033	0	0	0	1	0	0	17.761	2.1499	16.789	0	0	0	0	0	0	0	0	0	0	0	0	1	-1	0	7.5503	-27.469	31.921	0	0	0	0	0	0	0	0	0	2
7752	77.52	0	0	0	0	0	0	0	0	0	0	0	0	0	0	0	0	0	0	0	0	0	0	0	0	10.989	-10.989	19.033	0	0	0	1	0	0	17.761	2.1499	16.789	0	0	0	0	0	0	0	0	0	0	0	0	0	-1	0	-2.0278	-17.891	16.968	0	0	0	0	0	0	0	0	0	2
7753	77.53	0	0	0	0	0	0	0	0	0	0	0	0	0	0	0	0	0	0	0	0	0	0	0	0	10.989	-10.989	19.033	0	0	0	1	0	0	17.883	2.027	16.961	0	0	0	0	0	0	0	0	0	0	0	0	0	0	0	0	0	0	0	0	0	1	0	0	17.47	2.0148	16.554	2
7754	77.54	0	0	0	0	0	0	0	0	0	0	0	0	0	0	0	0	0	0	0	0	0	0	0	0	10.989	-10.989	19.033	0	0	0	1	0	0	17.761	2.1499	16.789	0	0	0	0	0	0	0	0	0	0	0	0	0	0	0	10.994	-10.994	19.042	0	0	0	1	0	0	17.47	2.0148	16.554	2
7755	77.55	0	0	0	0	0	0	0	0	0	0	0	0	0	0	0	0	0	0	0	0	0	0	0	0	10.989	-10.989	19.033	0	0	0	1	0	0	17.761	2.1499	16.789	0	0	0	0	0	0	0	0	0	0	0	0	0	0	0	0	0	0	0	0	0	0	0	0	0	0	0	2
7756	77.56	0	0	0	0	0	0	0	0	0	0	0	0	0	0	0	0	0	0	0	0	0	1	0	0	17.755	2.1475	16.785	0	0	0	1	0	0	17.761	2.1499	16.789	0	0	0	0	0	0	0	0	0	0	0	0	0	0	0	10.994	-10.994	19.042	0	0	0	1	0	0	30.423	8.5595	27.174	2
7757	77.57	0	0	0	0	0	0	0	0	0	0	0	0	0	0	0	0	0	0	0	0	0	0	0	0	10.989	-10.989	19.033	0	0	0	1	0	0	17.883	2.027	16.961	0	0	0	0	0	0	0	0	0	0	0	0	1	-1	0	7.5503	-27.469	31.921	0	0	0	0	0	0	0	0	0	2
7758	77.58	0	0	0	0	0	0	10.917	-10.917	18.908	0	0	0	0	0	0	0	0	0	0	0	0	1	0	0	17.755	2.1475	16.785	0	0	0	1	0	0	17.761	2.1499	16.789	0	0	0	0	0	0	0	0	0	0	0	0	0	-1	0	-2.0278	-17.891	16.968	0	0	0	1	0	0	17.47	2.0148	16.554	2
7759	77.59	0	0	0	0	0	0	0	0	0	0	0	0	0	0	0	0	0	0	0	0	0	0	0	0	10.989	-10.989	19.033	0	0	0	1	0	0	17.761	2.1499	16.789	0	0	0	0	0	0	0	0	0	0	0	0	1	-1	0	7.5503	-27.469	31.921	0	0	0	0	0	0	10.93	-10.93	18.931	2
7760	77.6	0	0	0	0	0	0	0	0	0	0	0	0	0	0	0	0	0	0	0	0	0	0	0	0	10.989	-10.989	19.033	0	0	0	1	0	0	17.761	2.1499	16.789	0	0	0	0	0	0	0	0	0	0	0	0	0	0	0	10.994	-10.994	19.042	0	0	0	0	0	0	0	0	0	2
7761	77.61	0	0	0	0	0	0	0	0	0	0	0	0	0	0	0	0	0	0	0	0	0	0	0	0	10.989	-10.989	19.033	0	0	0	1	0	0	17.761	2.1499	16.789	0	0	0	0	0	0	0	0	0	0	0	0	0	0	0	10.994	-10.994	19.042	0	0	0	1	0	0	17.47	2.0148	16.554	2
7762	77.62	0	0	0	0	0	0	0	0	0	0	0	0	0	0	0	0	0	0	0	0	0	0	0	0	10.989	-10.989	19.033	0	0	0	1	0	0	17.883	2.027	16.961	0	0	0	0	0	0	0	0	0	0	0	0	0	-1	0	-2.0278	-17.891	16.968	0	0	0	0	0	0	0	0	0	2
7763	77.63	0	0	0	0	0	0	0	0	0	0	0	0	0	0	0	0	0	0	0	0	0	1	0	0	17.755	2.1475	16.785	0	0	0	1	0	0	17.761	2.1499	16.789	0	0	0	0	0	0	0	0	0	0	0	0	0	0	0	0	0	0	0	0	0	1	0	0	17.47	2.0148	16.554	2
7764	77.64	0	0	0	0	0	0	0	0	0	0	0	0	0	0	0	0	0	0	0	0	0	0	0	0	10.989	-10.989	19.033	0	0	0	1	0	0	17.761	2.1499	16.789	0	0	0	0	0	0	0	0	0	0	0	0	1	-1	0	7.5503	-27.469	31.921	0	0	0	1	0	0	17.47	2.0148	16.554	2
7765	77.65	0	0	0	0	0	0	0	0	0	0	0	0	0	0	0	0	0	0	0	0	0	0	0	0	10.989	-10.989	19.033	0	0	0	1	0	0	17.761	2.1499	16.789	0	0	0	0	0	0	0	0	0	0	0	0	0	0	0	10.994	-10.994	19.042	0	0	0	1	0	0	17.47	2.0148	16.554	2
7766	77.66	0	0	0	0	0	0	0	0	0	0	0	0	0	0	0	0	0	0	0	0	0	0	0	0	10.989	-10.989	19.033	0	0	0	1	0	0	17.761	2.1499	16.789	0	0	0	0	0	0	0	0	0	0	0	0	0	0	0	10.994	-10.994	19.042	0	0	0	0	0	0	0	0	0	2
7767	77.67	0	0	0	0	0	0	0	0	0	0	0	0	0	0	0	0	0	0	0	0	0	0	0	0	10.989	-10.989	19.033	0	0	0	1	0	0	17.761	2.1499	16.789	0	0	0	0	0	0	0	0	0	0	0	0	0	0	0	0	0	0	0	0	0	0	0	0	0	0	0	2
7768	77.68	0	0	0	0	0	0	0	0	0	0	0	0	0	0	0	0	0	0	0	0	0	0	0	0	10.989	-10.989	19.033	0	0	0	1	0	0	17.883	2.027	16.961	0	0	0	0	0	0	0	0	0	0	0	0	1	-1	0	7.5503	-27.469	31.921	0	0	0	1	0	0	17.47	2.0148	16.554	2
7769	77.69	0	0	0	0	0	0	0	0	0	0	0	0	0	0	0	0	0	0	0	0	0	1	0	0	17.755	2.1475	16.785	0	0	0	1	0	0	17.761	2.1499	16.789	0	0	0	0	0	0	0	0	0	0	0	0	0	0	0	10.994	-10.994	19.042	0	0	0	1	0	0	30.423	8.5595	27.174	2
7770	77.7	0	0	0	0	0	0	0	0	0	0	0	0	0	0	0	0	0	0	0	0	0	0	0	0	10.989	-10.989	19.033	0	0	0	1	0	0	17.761	2.1499	16.789	0	0	0	0	0	0	0	0	0	0	0	0	0	0	0	0	0	0	0	0	0	1	0	0	17.47	2.0148	16.554	2
7771	77.71	0	0	0	0	0	0	10.917	-10.917	18.908	0	0	0	0	0	0	0	0	0	0	0	0	0	0	0	10.989	-10.989	19.033	0	0	0	1	0	0	17.761	2.1499	16.789	0	0	0	0	0	0	0	0	0	0	0	0	0	0	0	10.994	-10.994	19.042	0	0	0	1	0	0	30.423	8.5595	27.174	2
7772	77.72	0	0	0	0	0	0	0	0	0	0	0	0	0	0	0	0	0	0	0	0	0	0	0	0	10.989	-10.989	19.033	0	0	0	1	0	0	17.883	2.027	16.961	0	0	0	0	0	0	0	0	0	0	0	0	0	-1	0	-2.0278	-17.891	16.968	0	0	0	0	0	0	0	0	0	2
7773	77.73	0	0	0	0	0	0	10.917	-10.917	18.908	0	0	0	0	0	0	0	0	0	0	0	0	0	0	0	10.989	-10.989	19.033	0	0	0	1	0	0	17.761	2.1499	16.789	0	0	0	0	0	0	0	0	0	0	0	0	0	0	0	10.994	-10.994	19.042	0	0	0	1	0	0	17.47	2.0148	16.554	2
7774	77.74	0	0	0	0	0	0	0	0	0	0	0	0	0	0	0	0	0	0	0	0	0	0	0	0	10.989	-10.989	19.033	0	0	0	1	0	0	17.761	2.1499	16.789	0	0	0	0	0	0	0	0	0	0	0	0	0	0	0	10.994	-10.994	19.042	0	0	0	0	0	0	0	0	0	2
7775	77.75	0	0	0	0	0	0	0	0	0	0	0	0	0	0	0	0	0	0	0	0	0	0	0	0	10.989	-10.989	19.033	0	0	0	1	0	0	17.761	2.1499	16.789	0	0	0	0	0	0	0	0	0	0	0	0	1	-1	0	7.5503	-27.469	31.921	0	0	0	0	0	0	0	0	0	2
7776	77.76	0	0	0	0	0	0	0	0	0	0	0	0	0	0	0	0	0	0	0	0	0	1	0	0	17.755	2.1475	16.785	0	0	0	1	0	0	17.761	2.1499	16.789	0	0	0	0	0	0	0	0	0	0	0	0	0	0	0	0	0	0	0	0	0	1	0	0	30.423	8.5595	27.174	2
7777	77.77	0	0	0	0	0	0	0	0	0	0	0	0	0	0	0	0	0	0	0	0	0	0	0	0	10.989	-10.989	19.033	0	0	0	1	0	0	17.883	2.027	16.961	0	0	0	0	0	0	0	0	0	0	0	0	0	-1	0	-2.0278	-17.891	16.968	0	0	0	0	0	0	0	0	0	0
7778	77.78	0	0	0	0	0	0	0	0	0	0	0	0	0	0	0	0	0	0	0	0	0	0	0	0	10.989	-10.989	19.033	0	0	0	1	0	0	17.883	2.027	16.961	0	0	0	1	0	0	17.883	2.027	16.961	0	0	0	0	0	0	0	0	0	0	0	0	0	0	0	0	0	0	2
7779	77.79	0	0	0	0	0	0	10.917	-10.917	18.908	0	0	0	0	0	0	0	0	0	0	0	0	1	0	0	17.755	2.1475	16.785	0	0	0	1	0	0	17.761	2.1499	16.789	0	0	0	0	0	0	0	0	0	0	0	0	1	-1	0	7.5503	-27.469	31.921	0	0	0	1	0	0	17.47	2.0148	16.554	2
7780	77.8	0	0	0	0	0	0	0	0	0	0	0	0	0	0	0	0	0	0	0	0	0	0	0	0	10.989	-10.989	19.033	0	0	0	1	0	0	17.761	2.1499	16.789	0	0	0	0	0	0	0	0	0	0	0	0	0	0	0	0	0	0	0	0	0	0	0	0	0	0	0	2
7781	77.81	0	0	0	0	0	0	0	0	0	0	0	0	0	0	0	0	0	0	0	0	0	1	0	0	17.755	2.1475	16.785	0	0	0	1	0	0	17.761	2.1499	16.789	0	0	0	0	0	0	0	0	0	0	0	0	0	-1	0	-2.0278	-17.891	16.968	0	0	0	0	0	0	0	0	0	2
7782	77.82	0	0	0	0	0	0	0	0	0	0	0	0	0	0	0	0	0	0	0	0	0	0	0	0	10.989	-10.989	19.033	0	0	0	1	0	0	17.761	2.1499	16.789	0	0	0	0	0	0	0	0	0	0	0	0	0	-1	0	-2.0278	-17.891	16.968	0	0	0	0	0	0	0	0	0	2
7783	77.83	0	0	0	0	0	0	10.917	-10.917	18.908	0	0	0	0	0	0	0	0	0	0	0	0	0	0	0	10.989	-10.989	19.033	0	0	0	1	0	0	17.761	2.1499	16.789	0	0	0	0	0	0	0	0	0	0	0	0	0	-1	0	-2.0278	-17.891	16.968	0	0	0	1	0	0	17.47	2.0148	16.554	2
7784	77.84	0	0	0	0	0	0	0	0	0	0	0	0	0	0	0	0	0	0	0	0	0	0	0	0	10.989	-10.989	19.033	0	0	0	1	0	0	17.761	2.1499	16.789	0	0	0	0	0	0	0	0	0	0	0	0	1	-1	0	7.5503	-27.469	31.921	0	0	0	0	0	0	0	0	0	2
7785	77.85	0	0	0	0	0	0	0	0	0	0	0	0	0	0	0	0	0	0	0	0	0	0	0	0	10.989	-10.989	19.033	0	0	0	1	0	0	17.883	2.027	16.961	0	0	0	0	0	0	0	0	0	0	0	0	0	0	0	0	0	0	0	0	0	0	0	0	0	0	0	2
7786	77.86	0	0	0	0	0	0	0	0	0	0	0	0	0	0	0	0	0	0	0	0	0	0	0	0	10.989	-10.989	19.033	0	0	0	1	0	0	17.761	2.1499	16.789	0	0	0	0	0	0	0	0	0	0	0	0	0	0	0	10.994	-10.994	19.042	0	0	0	1	0	0	17.47	2.0148	16.554	2
7787	77.87	0	0	0	0	0	0	0	0	0	0	0	0	0	0	0	0	0	0	0	0	0	0	0	0	10.989	-10.989	19.033	0	0	0	1	0	0	17.761	2.1499	16.789	0	0	0	0	0	0	0	0	0	0	0	0	0	-1	0	-2.0278	-17.891	16.968	0	0	0	0	0	0	0	0	0	2
7788	77.88	0	0	0	0	0	0	10.917	-10.917	18.908	0	0	0	0	0	0	0	0	0	0	0	0	1	0	0	17.755	2.1475	16.785	0	0	0	1	0	0	17.761	2.1499	16.789	0	0	0	0	0	0	0	0	0	0	0	0	0	0	0	10.994	-10.994	19.042	0	0	0	0	0	0	0	0	0	2
7789	77.89	0	0	0	0	0	0	0	0	0	0	0	0	0	0	0	0	0	0	0	0	0	0	0	0	10.989	-10.989	19.033	0	0	0	1	0	0	17.761	2.1499	16.789	0	0	0	0	0	0	0	0	0	0	0	0	0	-1	0	-2.0278	-17.891	16.968	0	0	0	1	0	0	17.47	2.0148	16.554	2
7790	77.9	0	0	0	0	0	0	0	0	0	0	0	0	0	0	0	0	0	0	0	0	0	0	0	0	10.989	-10.989	19.033	0	0	0	1	0	0	17.761	2.1499	16.789	0	0	0	0	0	0	0	0	0	0	0	0	0	-1	0	-2.0278	-17.891	16.968	0	0	0	0	0	0	0	0	0	2
7791	77.91	0	0	0	0	0	0	0	0	0	0	0	0	0	0	0	0	0	0	0	0	0	0	0	0	10.989	-10.989	19.033	0	0	0	1	0	0	17.761	2.1499	16.789	0	0	0	0	0	0	0	0	0	0	0	0	0	0	0	10.994	-10.994	19.042	0	0	0	1	0	0	17.47	2.0148	16.554	2
7792	77.92	0	0	0	0	0	0	0	0	0	0	0	0	0	0	0	0	0	0	0	0	0	0	0	0	10.989	-10.989	19.033	0	0	0	1	0	0	17.883	2.027	16.961	0	0	0	0	0	0	0	0	0	0	0	0	0	-1	0	-2.0278	-17.891	16.968	0	0	0	0	0	0	0	0	0	2
7793	77.93	0	0	0	0	0	0	10.917	-10.917	18.908	0	0	0	0	0	0	0	0	0	0	0	0	0	0	0	10.989	-10.989	19.033	0	0	0	1	0	0	17.761	2.1499	16.789	0	0	0	0	0	0	0	0	0	0	0	0	0	-1	0	-2.0278	-17.891	16.968	0	0	0	1	0	0	17.47	2.0148	16.554	2
7794	77.94	0	0	0	0	0	0	0	0	0	0	0	0	0	0	0	0	0	0	0	0	0	0	0	0	10.989	-10.989	19.033	0	0	0	1	0	0	17.883	2.027	16.961	0	0	0	0	0	0	0	0	0	0	0	0	0	-1	0	-2.0278	-17.891	16.968	0	0	0	0	0	0	0	0	0	3
7795	77.95	0	0	0	0	0	0	0	0	0	0	0	0	0	0	0	0	0	0	0	0	0	0	0	0	10.989	-10.989	19.033	0	0	0	1	0	0	17.761	2.1499	16.789	0	0	0	0	0	0	0	0	0	0	0	0	1	-1	0	7.5503	-27.469	31.921	0	0	0	0	0	0	0	0	0	2
7796	77.96	0	0	0	0	0	0	10.917	-10.917	18.908	0	0	0	0	0	0	0	0	0	0	0	0	0	0	0	10.989	-10.989	19.033	0	0	0	1	0	0	17.761	2.1499	16.789	0	0	0	0	0	0	0	0	0	0	0	0	0	-1	0	-2.0278	-17.891	16.968	0	0	0	0	0	0	0	0	0	2
7797	77.97	0	0	0	0	0	0	0	0	0	0	0	0	0	0	0	0	0	0	0	0	0	0	0	0	10.989	-10.989	19.033	0	0	0	1	0	0	17.761	2.1499	16.789	0	0	0	0	0	0	0	0	0	0	0	0	0	-1	0	-2.0278	-17.891	16.968	0	0	0	0	0	0	0	0	0	2
7798	77.98	0	0	0	0	0	0	0	0	0	0	0	0	0	0	0	0	0	0	0	0	0	0	0	0	10.989	-10.989	19.033	0	0	0	1	0	0	17.883	2.027	16.961	0	0	0	0	0	0	0	0	0	0	0	0	0	0	0	0	0	0	0	0	0	1	0	0	17.47	2.0148	16.554	2
7799	77.99	0	0	0	0	0	0	0	0	0	0	0	0	0	0	0	0	0	0	0	0	0	0	0	0	10.989	-10.989	19.033	0	0	0	1	0	0	17.761	2.1499	16.789	0	0	0	0	0	0	0	0	0	0	0	0	0	0	0	10.994	-10.994	19.042	0	0	0	0	0	0	0	0	0	2
7800	78	0	0	0	0	0	0	0	0	0	0	0	0	0	0	0	0	0	0	0	0	0	0	0	0	10.989	-10.989	19.033	0	0	0	1	0	0	17.883	2.027	16.961	0	0	0	0	0	0	0	0	0	0	0	0	0	0	0	10.994	-10.994	19.042	0	0	0	1	0	0	17.47	2.0148	16.554	2
7801	78.01	0	0	0	0	0	0	10.917	-10.917	18.908	0	0	0	0	0	0	0	0	0	0	0	0	1	0	0	17.755	2.1475	16.785	0	0	0	1	0	0	17.761	2.1499	16.789	0	0	0	0	0	0	0	0	0	0	0	0	0	-1	0	-2.0278	-17.891	16.968	0	0	0	1	0	0	17.47	2.0148	16.554	2
7802	78.02	0	0	0	0	0	0	0	0	0	0	0	0	0	0	0	0	0	0	0	0	0	0	0	0	10.989	-10.989	19.033	0	0	0	1	0	0	17.761	2.1499	16.789	0	0	0	0	0	0	0	0	0	0	0	0	0	0	0	0	0	0	0	0	0	0	0	0	0	0	0	0
7803	78.03	0	0	0	0	0	0	0	0	0	0	0	0	0	0	0	0	0	0	0	0	0	1	0	0	17.755	2.1475	16.785	0	0	0	1	0	0	17.883	2.027	16.961	0	0	0	0	0	0	0	0	0	0	0	0	0	0	0	0	0	0	0	0	0	0	0	0	0	0	0	2
7804	78.04	0	0	0	0	0	0	0	0	0	0	0	0	0	0	0	0	0	0	0	0	0	0	0	0	10.989	-10.989	19.033	0	0	0	1	0	0	17.761	2.1499	16.789	0	0	0	0	0	0	0	0	0	0	0	0	0	-1	0	-2.0278	-17.891	16.968	0	0	0	0	0	0	0	0	0	2
7805	78.05	0	0	0	0	0	0	0	0	0	0	0	0	0	0	0	0	0	0	0	0	0	0	0	0	10.989	-10.989	19.033	0	0	0	1	0	0	17.883	2.027	16.961	0	0	0	0	0	0	0	0	0	0	0	0	1	-1	0	7.5503	-27.469	31.921	0	0	0	0	0	0	0	0	0	2
7806	78.06	0	0	0	0	0	0	0	0	0	0	0	0	0	0	0	0	0	0	0	0	0	0	0	0	10.989	-10.989	19.033	0	0	0	1	0	0	17.761	2.1499	16.789	0	0	0	0	0	0	0	0	0	0	0	0	1	-1	0	7.5503	-27.469	31.921	0	0	0	0	0	0	0	0	0	2
7807	78.07	0	0	0	0	0	0	10.917	-10.917	18.908	0	0	0	0	0	0	0	0	0	0	0	0	0	0	0	10.989	-10.989	19.033	0	0	0	1	0	0	17.761	2.1499	16.789	0	0	0	0	0	0	0	0	0	0	0	0	0	-1	0	-2.0278	-17.891	16.968	0	0	0	0	0	0	0	0	0	2
7808	78.08	0	0	0	0	0	0	10.917	-10.917	18.908	0	0	0	0	0	0	0	0	0	0	0	0	1	0	0	17.755	2.1475	16.785	0	0	0	1	0	0	17.883	2.027	16.961	0	0	0	0	0	0	0	0	0	0	0	0	0	0	0	10.994	-10.994	19.042	0	0	0	0	0	0	0	0	0	2
7809	78.09	0	0	0	0	0	0	0	0	0	0	0	0	0	0	0	0	0	0	0	0	0	0	0	0	10.989	-10.989	19.033	0	0	0	1	0	0	17.761	2.1499	16.789	0	0	0	0	0	0	0	0	0	0	0	0	0	-1	0	-2.0278	-17.891	16.968	0	0	0	0	0	0	0	0	0	2
7810	78.1	0	0	0	0	0	0	0	0	0	0	0	0	0	0	0	0	0	0	0	0	0	0	0	0	10.989	-10.989	19.033	0	0	0	1	0	0	17.761	2.1499	16.789	0	0	0	0	0	0	0	0	0	0	0	0	0	0	0	10.994	-10.994	19.042	0	0	0	0	0	0	0	0	0	2
7811	78.11	0	0	0	0	0	0	0	0	0	0	0	0	0	0	0	0	0	0	0	0	0	1	0	0	17.755	2.1475	16.785	0	0	0	1	0	0	17.761	2.1499	16.789	0	0	0	0	0	0	0	0	0	0	0	0	0	-1	0	-2.0278	-17.891	16.968	0	0	0	0	0	0	0	0	0	2
7812	78.12	0	0	0	0	0	0	0	0	0	0	0	0	0	0	0	0	0	0	0	0	0	0	0	0	10.989	-10.989	19.033	0	0	0	1	0	0	17.761	2.1499	16.789	0	0	0	0	0	0	0	0	0	0	0	0	0	0	0	10.994	-10.994	19.042	0	0	0	0	0	0	0	0	0	2
7813	78.13	0	0	0	0	0	0	0	0	0	0	0	0	0	0	0	0	0	0	0	0	0	1	0	0	17.755	2.1475	16.785	0	0	0	1	0	0	17.883	2.027	16.961	0	0	0	0	0	0	0	0	0	0	0	0	0	0	0	0	0	0	0	0	0	0	0	0	0	0	0	2
7814	78.14	0	0	0	0	0	0	0	0	0	0	0	0	0	0	0	0	0	0	0	0	0	0	0	0	10.989	-10.989	19.033	0	0	0	1	0	0	17.883	2.027	16.961	0	0	0	0	0	0	0	0	0	0	0	0	0	-1	0	-2.0278	-17.891	16.968	0	0	0	0	0	0	0	0	0	2
7815	78.15	0	0	0	0	0	0	0	0	0	0	0	0	0	0	0	0	0	0	0	0	0	1	0	0	17.755	2.1475	16.785	0	0	0	1	0	0	17.761	2.1499	16.789	0	0	0	0	0	0	0	0	0	0	0	0	1	-1	0	7.5503	-27.469	31.921	0	0	0	0	0	0	0	0	0	2
7816	78.16	0	0	0	0	0	0	10.917	-10.917	18.908	0	0	0	0	0	0	0	0	0	0	0	0	1	0	0	17.755	2.1475	16.785	0	0	0	1	0	0	17.761	2.1499	16.789	0	0	0	0	0	0	0	0	0	0	0	0	1	-1	0	7.5503	-27.469	31.921	0	0	0	0	0	0	0	0	0	2
7817	78.17	0	0	0	0	0	0	0	0	0	0	0	0	0	0	0	0	0	0	0	0	0	0	0	0	10.989	-10.989	19.033	0	0	0	1	0	0	17.883	2.027	16.961	0	0	0	0	0	0	0	0	0	0	0	0	1	-1	0	7.5503	-27.469	31.921	0	0	0	0	0	0	0	0	0	2
7818	78.18	0	0	0	0	0	0	0	0	0	0	0	0	0	0	0	0	0	0	0	0	0	1	0	0	17.755	2.1475	16.785	0	0	0	1	0	0	17.761	2.1499	16.789	0	0	0	0	0	0	0	0	0	0	0	0	1	-1	0	7.5503	-27.469	31.921	0	0	0	1	0	0	17.47	2.0148	16.554	2
7819	78.19	0	0	0	0	0	0	10.917	-10.917	18.908	0	0	0	0	0	0	0	0	0	0	0	0	0	0	0	10.989	-10.989	19.033	0	0	0	1	0	0	17.761	2.1499	16.789	0	0	0	0	0	0	0	0	0	0	0	0	0	-1	0	-2.0278	-17.891	16.968	0	0	0	1	0	0	17.47	2.0148	16.554	2
7820	78.2	0	0	0	0	0	0	0	0	0	0	0	0	0	0	0	0	0	0	0	0	0	1	0	0	17.755	2.1475	16.785	0	0	0	1	0	0	17.761	2.1499	16.789	0	0	0	0	0	0	0	0	0	0	0	0	1	-1	0	7.5503	-27.469	31.921	0	0	0	0	0	0	0	0	0	2
7821	78.21	0	0	0	0	0	0	10.917	-10.917	18.908	0	0	0	0	0	0	0	0	0	0	0	0	0	0	0	10.989	-10.989	19.033	0	0	0	1	0	0	17.761	2.1499	16.789	0	0	0	0	0	0	0	0	0	0	0	0	1	-1	0	7.5503	-27.469	31.921	0	0	0	1	0	0	30.423	8.5595	27.174	2
7822	78.22	0	0	0	0	0	0	0	0	0	0	0	0	0	0	0	0	0	0	0	0	0	0	0	0	10.989	-10.989	19.033	0	0	0	1	0	0	17.883	2.027	16.961	0	0	0	0	0	0	0	0	0	0	0	0	1	-1	0	7.5503	-27.469	31.921	0	0	0	0	0	0	0	0	0	2
7823	78.23	0	0	0	0	0	0	10.917	-10.917	18.908	0	0	0	0	0	0	10.918	-10.918	18.911	0	0	0	0	0	0	10.989	-10.989	19.033	0	0	0	1	0	0	17.761	2.1499	16.789	0	0	0	0	0	0	0	0	0	0	0	0	1	-1	0	7.5503	-27.469	31.921	0	0	0	0	0	0	0	0	0	2
7824	78.24	0	0	0	0	0	0	10.917	-10.917	18.908	0	0	0	0	0	0	0	0	0	0	0	0	1	0	0	17.755	2.1475	16.785	0	0	0	1	0	0	17.761	2.1499	16.789	0	0	0	0	0	0	0	0	0	0	0	0	1	-1	0	7.5503	-27.469	31.921	0	0	0	0	0	0	0	0	0	2
7825	78.25	0	0	0	0	0	0	0	0	0	0	0	0	0	0	0	0	0	0	0	0	0	0	0	0	10.989	-10.989	19.033	0	0	0	1	0	0	17.761	2.1499	16.789	0	0	0	0	0	0	0	0	0	0	0	0	0	-1	0	-2.0278	-17.891	16.968	0	0	0	0	0	0	0	0	0	2
7826	78.26	0	0	0	0	0	0	10.917	-10.917	18.908	0	0	0	0	0	0	0	0	0	0	0	0	1	0	0	17.755	2.1475	16.785	0	0	0	1	0	0	17.761	2.1499	16.789	0	0	0	0	0	0	0	0	0	0	0	0	1	-1	0	7.5503	-27.469	31.921	0	0	0	0	0	0	0	0	0	2
7827	78.27	0	0	0	0	0	0	0	0	0	0	0	0	0	0	0	0	0	0	0	0	0	0	0	0	10.989	-10.989	19.033	0	0	0	1	0	0	17.761	2.1499	16.789	0	0	0	0	0	0	0	0	0	0	0	0	1	-1	0	7.5503	-27.469	31.921	0	0	0	0	0	0	0	0	0	2
7828	78.28	0	0	0	0	0	0	0	0	0	0	0	0	0	0	0	0	0	0	0	0	0	0	0	0	10.989	-10.989	19.033	0	0	0	1	0	0	17.883	2.027	16.961	0	0	0	0	0	0	0	0	0	0	0	0	0	0	0	0	0	0	0	0	0	1	0	0	17.47	2.0148	16.554	2
7829	78.29	0	0	0	0	0	0	0	0	0	0	0	0	0	0	0	0	0	0	0	0	0	1	0	0	17.755	2.1475	16.785	0	0	0	1	0	0	17.883	2.027	16.961	0	0	0	0	0	0	0	0	0	0	0	0	0	-1	0	-2.0278	-17.891	16.968	0	0	0	0	0	0	0	0	0	2
7830	78.3	0	0	0	0	0	0	0	0	0	0	0	0	0	0	0	0	0	0	0	0	0	0	0	0	10.989	-10.989	19.033	0	0	0	1	0	0	17.761	2.1499	16.789	0	0	0	0	0	0	0	0	0	0	0	0	0	-1	0	-2.0278	-17.891	16.968	0	0	0	0	0	0	0	0	0	2
7831	78.31	0	0	0	0	0	0	0	0	0	0	0	0	0	0	0	0	0	0	0	0	0	1	0	0	17.755	2.1475	16.785	0	0	0	1	0	0	17.761	2.1499	16.789	0	0	0	0	0	0	0	0	0	0	0	0	0	0	0	10.994	-10.994	19.042	0	0	0	1	0	0	17.482	2.0162	16.566	2
7832	78.32	0	0	0	0	0	0	0	0	0	0	0	0	0	0	0	0	0	0	0	0	0	0	0	0	10.989	-10.989	19.033	0	0	0	1	0	0	17.761	2.1499	16.789	0	0	0	0	0	0	0	0	0	0	0	0	0	-1	0	-2.0278	-17.891	16.968	0	0	0	0	0	0	0	0	0	2
7833	78.33	0	0	0	0	0	0	0	0	0	0	0	0	0	0	0	0	0	0	0	0	0	1	0	0	17.755	2.1475	16.785	0	0	0	1	0	0	17.761	2.1499	16.789	0	0	0	0	0	0	0	0	0	0	0	0	0	0	0	10.994	-10.994	19.042	0	0	0	1	0	0	17.47	2.0148	16.554	2
7834	78.34	0	0	0	0	0	0	10.917	-10.917	18.908	0	0	0	0	0	0	0	0	0	0	0	0	0	0	0	10.989	-10.989	19.033	0	0	0	1	0	0	17.883	2.027	16.961	0	0	0	0	0	0	0	0	0	0	0	0	1	-1	0	7.5503	-27.469	31.921	0	0	0	0	0	0	0	0	0	2
7835	78.35	0	0	0	0	0	0	10.917	-10.917	18.908	0	0	0	0	0	0	0	0	0	0	0	0	1	0	0	17.755	2.1475	16.785	0	0	0	1	0	0	17.761	2.1499	16.789	0	0	0	0	0	0	0	0	0	0	0	0	0	-1	0	-2.0278	-17.891	16.968	0	0	0	0	0	0	0	0	0	2
7836	78.36	0	0	0	0	0	0	0	0	0	0	0	0	0	0	0	0	0	0	0	0	0	0	0	0	10.989	-10.989	19.033	0	0	0	1	0	0	17.761	2.1499	16.789	0	0	0	0	0	0	0	0	0	0	0	0	0	0	0	0	0	0	0	0	0	1	0	0	17.47	2.0148	16.554	2
7837	78.37	0	0	0	0	0	0	0	0	0	0	0	0	0	0	0	0	0	0	0	0	0	0	0	0	10.989	-10.989	19.033	0	0	0	1	0	0	17.883	2.027	16.961	0	0	0	0	0	0	0	0	0	0	0	0	1	-1	0	7.5503	-27.469	31.921	0	0	0	1	0	0	17.47	2.0148	16.554	2
7838	78.38	0	0	0	0	0	0	0	0	0	0	0	0	0	0	0	0	0	0	0	0	0	1	0	0	17.755	2.1475	16.785	0	0	0	1	0	0	17.761	2.1499	16.789	0	0	0	0	0	0	0	0	0	0	0	0	0	-1	0	-2.0278	-17.891	16.968	0	0	0	1	0	0	17.47	2.0148	16.554	2
7839	78.39	0	0	0	0	0	0	0	0	0	0	0	0	0	0	0	0	0	0	0	0	0	0	0	0	10.989	-10.989	19.033	0	0	0	1	0	0	17.761	2.1499	16.789	0	0	0	0	0	0	0	0	0	0	0	0	0	0	0	0	0	0	0	0	0	0	0	0	0	0	0	2
7840	78.4	0	0	0	0	0	0	0	0	0	0	0	0	0	0	0	0	0	0	0	0	0	0	0	0	10.989	-10.989	19.033	0	0	0	1	0	0	17.883	2.027	16.961	0	0	0	0	0	0	0	0	0	0	0	0	1	-1	0	7.5503	-27.469	31.921	0	0	0	1	0	0	17.47	2.0148	16.554	2
7841	78.41	0	0	0	0	0	0	0	0	0	0	0	0	0	0	0	0	0	0	0	0	0	0	0	0	10.989	-10.989	19.033	0	0	0	1	0	0	17.761	2.1499	16.789	0	0	0	0	0	0	0	0	0	0	0	0	0	-1	0	-2.0278	-17.891	16.968	0	0	0	0	0	0	0	0	0	2
7842	78.42	0	0	0	0	0	0	0	0	0	0	0	0	0	0	0	0	0	0	0	0	0	0	0	0	10.989	-10.989	19.033	0	0	0	1	0	0	17.761	2.1499	16.789	0	0	0	0	0	0	0	0	0	0	0	0	0	0	0	0	0	0	0	0	0	0	0	0	0	0	0	2
7843	78.43	0	0	0	0	0	0	0	0	0	0	0	0	0	0	0	0	0	0	0	0	0	1	0	0	17.755	2.1475	16.785	0	0	0	1	0	0	17.761	2.1499	16.789	0	0	0	0	0	0	0	0	0	0	0	0	0	0	0	10.994	-10.994	19.042	0	0	0	1	0	0	17.482	2.0162	16.566	2
7844	78.44	0	0	0	0	0	0	0	0	0	0	0	0	0	0	0	0	0	0	0	0	0	0	0	0	10.989	-10.989	19.033	0	0	0	1	0	0	17.761	2.1499	16.789	0	0	0	0	0	0	0	0	0	0	0	0	1	-1	0	7.5503	-27.469	31.921	0	0	0	1	0	0	17.47	2.0148	16.554	2
7845	78.45	0	0	0	0	0	0	10.917	-10.917	18.908	0	0	0	0	0	0	0	0	0	0	0	0	0	0	0	10.989	-10.989	19.033	0	0	0	1	0	0	17.761	2.1499	16.789	0	0	0	0	0	0	0	0	0	0	0	0	1	-1	0	7.5503	-27.469	31.921	0	0	0	0	0	0	0	0	0	2
7846	78.46	0	0	0	0	0	0	10.917	-10.917	18.908	0	0	0	0	0	0	0	0	0	0	0	0	1	0	0	17.755	2.1475	16.785	0	0	0	1	0	0	17.761	2.1499	16.789	0	0	0	0	0	0	0	0	0	0	0	0	0	0	0	10.994	-10.994	19.042	0	0	0	1	0	0	17.47	2.0148	16.554	2
7847	78.47	0	0	0	0	0	0	0	0	0	0	0	0	0	0	0	0	0	0	0	0	0	0	0	0	10.989	-10.989	19.033	0	0	0	1	0	0	17.761	2.1499	16.789	0	0	0	0	0	0	0	0	0	0	0	0	0	0	0	0	0	0	0	0	0	1	0	0	17.47	2.0148	16.554	2
7848	78.48	0	0	0	0	0	0	0	0	0	0	0	0	0	0	0	0	0	0	0	0	0	1	0	0	17.755	2.1475	16.785	0	0	0	1	0	0	17.761	2.1499	16.789	0	0	0	0	0	0	0	0	0	0	0	0	1	-1	0	7.5503	-27.469	31.921	0	0	0	0	0	0	0	0	0	2
7849	78.49	0	0	0	0	0	0	0	0	0	0	0	0	0	0	0	0	0	0	0	0	0	0	0	0	10.989	-10.989	19.033	0	0	0	1	0	0	17.761	2.1499	16.789	0	0	0	0	0	0	0	0	0	0	0	0	1	-1	0	7.5503	-27.469	31.921	0	0	0	0	0	0	0	0	0	2
7850	78.5	0	0	0	0	0	0	0	0	0	0	0	0	0	0	0	0	0	0	0	0	0	0	0	0	10.989	-10.989	19.033	0	0	0	1	0	0	17.883	2.027	16.961	0	0	0	0	0	0	0	0	0	0	0	0	0	0	0	10.994	-10.994	19.042	0	0	0	0	0	0	0	0	0	2
7851	78.51	0	0	0	0	0	0	0	0	0	0	0	0	0	0	0	0	0	0	0	0	0	1	0	0	17.755	2.1475	16.785	0	0	0	1	0	0	17.761	2.1499	16.789	0	0	0	0	0	0	0	0	0	0	0	0	0	-1	0	-2.0278	-17.891	16.968	0	0	0	1	0	0	17.47	2.0148	16.554	2
7852	78.52	0	0	0	0	0	0	0	0	0	0	0	0	0	0	0	0	0	0	0	0	0	0	0	0	10.989	-10.989	19.033	0	0	0	1	0	0	17.883	2.027	16.961	0	0	0	0	0	0	0	0	0	0	0	0	1	-1	0	7.5503	-27.469	31.921	0	0	0	0	0	0	0	0	0	2
7853	78.53	0	0	0	0	0	0	0	0	0	0	0	0	0	0	0	0	0	0	0	0	0	1	0	0	17.755	2.1475	16.785	0	0	0	1	0	0	17.883	2.027	16.961	0	0	0	1	0	0	17.883	2.027	16.961	0	0	0	0	0	0	10.994	-10.994	19.042	0	0	0	1	0	0	17.47	2.0148	16.554	2
7854	78.54	0	0	0	0	0	0	0	0	0	0	0	0	0	0	0	0	0	0	0	0	0	0	0	0	10.989	-10.989	19.033	0	0	0	1	0	0	17.883	2.027	16.961	0	0	0	0	0	0	0	0	0	0	0	0	0	0	0	0	0	0	0	0	0	0	0	0	0	0	0	2
7855	78.55	0	0	0	0	0	0	0	0	0	0	0	0	0	0	0	0	0	0	0	0	0	0	0	0	10.989	-10.989	19.033	0	0	0	1	0	0	17.761	2.1499	16.789	0	0	0	0	0	0	0	0	0	0	0	0	0	0	0	10.994	-10.994	19.042	0	0	0	0	0	0	0	0	0	2
7856	78.56	0	0	0	0	0	0	0	0	0	0	0	0	0	0	0	0	0	0	0	0	0	1	0	0	17.755	2.1475	16.785	0	0	0	1	0	0	17.761	2.1499	16.789	0	0	0	0	0	0	0	0	0	0	0	0	0	0	0	10.994	-10.994	19.042	0	0	0	1	0	0	17.47	2.0148	16.554	2
7857	78.57	0	0	0	0	0	0	0	0	0	0	0	0	0	0	0	0	0	0	0	0	0	0	0	0	10.989	-10.989	19.033	0	0	0	1	0	0	17.883	2.027	16.961	0	0	0	0	0	0	0	0	0	0	0	0	1	-1	0	7.5503	-27.469	31.921	0	0	0	0	0	0	0	0	0	2
7858	78.58	0	0	0	0	0	0	0	0	0	0	0	0	0	0	0	0	0	0	0	0	0	1	0	0	17.755	2.1475	16.785	0	0	0	1	0	0	17.761	2.1499	16.789	0	0	0	0	0	0	0	0	0	0	0	0	0	-1	0	-2.0278	-17.891	16.968	0	0	0	1	0	0	17.47	2.0148	16.554	2
7859	78.59	0	0	0	0	0	0	0	0	0	0	0	0	0	0	0	0	0	0	0	0	0	0	0	0	10.989	-10.989	19.033	0	0	0	1	0	0	17.883	2.027	16.961	0	0	0	0	0	0	0	0	0	0	0	0	0	0	0	10.994	-10.994	19.042	0	0	0	1	0	0	17.47	2.0148	16.554	2
7860	78.6	0	0	0	0	0	0	10.917	-10.917	18.908	0	0	0	0	0	0	0	0	0	0	0	0	0	0	0	10.989	-10.989	19.033	0	0	0	1	0	0	17.761	2.1499	16.789	0	0	0	0	0	0	0	0	0	0	0	0	0	0	0	0	0	0	0	0	0	0	0	0	0	0	0	2
7861	78.61	0	0	0	0	0	0	0	0	0	0	0	0	0	0	0	0	0	0	0	0	0	1	0	0	17.755	2.1475	16.785	0	0	0	1	0	0	17.761	2.1499	16.789	0	0	0	0	0	0	0	0	0	0	0	0	0	-1	0	-2.0278	-17.891	16.968	0	0	0	1	0	0	17.47	2.0148	16.554	2
7862	78.62	0	0	0	0	0	0	0	0	0	0	0	0	0	0	0	0	0	0	0	0	0	0	0	0	10.989	-10.989	19.033	0	0	0	1	0	0	17.761	2.1499	16.789	0	0	0	0	0	0	0	0	0	0	0	0	0	0	0	0	0	0	0	0	0	0	0	0	0	0	0	2
7863	78.63	0	0	0	0	0	0	0	0	0	0	0	0	0	0	0	0	0	0	0	0	0	0	0	0	10.989	-10.989	19.033	0	0	0	1	0	0	17.761	2.1499	16.789	0	0	0	0	0	0	0	0	0	0	0	0	1	-1	0	7.5503	-27.469	31.921	0	0	0	1	0	0	17.47	2.0148	16.554	2
7864	78.64	0	0	0	0	0	0	0	0	0	0	0	0	0	0	0	0	0	0	0	0	0	0	0	0	10.989	-10.989	19.033	0	0	0	1	0	0	17.761	2.1499	16.789	0	0	0	0	0	0	0	0	0	0	0	0	0	0	0	10.994	-10.994	19.042	0	0	0	1	0	0	17.47	2.0148	16.554	2
7865	78.65	0	0	0	0	0	0	0	0	0	0	0	0	0	0	0	0	0	0	0	0	0	1	0	0	17.755	2.1475	16.785	0	0	0	1	0	0	17.761	2.1499	16.789	0	0	0	0	0	0	0	0	0	0	0	0	1	-1	0	7.5503	-27.469	31.921	0	0	0	0	0	0	0	0	0	2
7866	78.66	0	0	0	0	0	0	0	0	0	0	0	0	0	0	0	0	0	0	0	0	0	0	0	0	10.989	-10.989	19.033	0	0	0	1	0	0	17.761	2.1499	16.789	0	0	0	0	0	0	0	0	0	0	0	0	1	-1	0	7.5503	-27.469	31.921	0	0	0	1	0	0	17.47	2.0148	16.554	2
7867	78.67	0	0	0	0	0	0	0	0	0	0	0	0	0	0	0	0	0	0	0	0	0	0	0	0	10.989	-10.989	19.033	0	0	0	1	0	0	17.883	2.027	16.961	0	0	0	0	0	0	0	0	0	0	0	0	0	-1	0	-2.0278	-17.891	16.968	0	0	0	0	0	0	0	0	0	2
7868	78.68	0	0	0	0	0	0	0	0	0	0	0	0	0	0	0	0	0	0	0	0	0	0	0	0	10.989	-10.989	19.033	0	0	0	1	0	0	17.761	2.1499	16.789	0	0	0	0	0	0	0	0	0	0	0	0	0	0	0	10.994	-10.994	19.042	0	0	0	1	0	0	17.47	2.0148	16.554	2
7869	78.69	0	0	0	0	0	0	0	0	0	0	0	0	0	0	0	0	0	0	0	0	0	1	0	0	17.755	2.1475	16.785	0	0	0	1	0	0	17.883	2.027	16.961	0	0	0	0	0	0	0	0	0	0	0	0	0	0	0	0	0	0	0	0	0	0	0	0	0	0	0	2
7870	78.7	0	0	0	0	0	0	0	0	0	0	0	0	0	0	0	0	0	0	0	0	0	0	0	0	10.989	-10.989	19.033	0	0	0	1	0	0	17.761	2.1499	16.789	0	0	0	0	0	0	0	0	0	0	0	0	1	-1	0	7.5503	-27.469	31.921	0	0	0	0	0	0	0	0	0	2
7871	78.71	0	0	0	0	0	0	0	0	0	0	0	0	0	0	0	0	0	0	0	0	0	1	0	0	17.755	2.1475	16.785	0	0	0	1	0	0	17.761	2.1499	16.789	0	0	0	0	0	0	0	0	0	0	0	0	0	0	0	10.994	-10.994	19.042	0	0	0	0	0	0	0	0	0	2
7872	78.72	0	0	0	0	0	0	0	0	0	0	0	0	0	0	0	0	0	0	0	0	0	0	0	0	10.989	-10.989	19.033	0	0	0	1	0	0	17.761	2.1499	16.789	0	0	0	0	0	0	0	0	0	0	0	0	0	0	0	10.994	-10.994	19.042	0	0	0	0	0	0	0	0	0	2
7873	78.73	0	0	0	0	0	0	0	0	0	0	0	0	0	0	0	0	0	0	0	0	0	1	0	0	17.755	2.1475	16.785	0	0	0	1	0	0	17.883	2.027	16.961	0	0	0	0	0	0	0	0	0	0	0	0	0	0	0	0	0	0	0	0	0	1	0	0	17.47	2.0148	16.554	2
7874	78.74	0	0	0	0	0	0	0	0	0	0	0	0	0	0	0	0	0	0	0	0	0	0	0	0	10.989	-10.989	19.033	0	0	0	1	0	0	17.883	2.027	16.961	0	0	0	0	0	0	0	0	0	0	0	0	1	-1	0	7.5503	-27.469	31.921	0	0	0	0	0	0	0	0	0	2
7875	78.75	0	0	0	0	0	0	0	0	0	0	0	0	0	0	0	0	0	0	0	0	0	0	0	0	10.989	-10.989	19.033	0	0	0	1	0	0	17.761	2.1499	16.789	0	0	0	0	0	0	0	0	0	0	0	0	0	0	0	0	0	0	0	0	0	0	0	0	0	0	0	2
7876	78.76	0	0	0	0	0	0	0	0	0	0	0	0	0	0	0	0	0	0	0	0	0	1	0	0	17.755	2.1475	16.785	0	0	0	1	0	0	17.761	2.1499	16.789	0	0	0	0	0	0	0	0	0	0	0	0	0	0	0	10.994	-10.994	19.042	0	0	0	1	0	0	17.47	2.0148	16.554	2
7877	78.77	0	0	0	0	0	0	0	0	0	0	0	0	0	0	0	0	0	0	0	0	0	0	0	0	10.989	-10.989	19.033	0	0	0	1	0	0	17.761	2.1499	16.789	0	0	0	0	0	0	0	0	0	0	0	0	0	0	0	0	0	0	0	0	0	0	0	0	0	0	0	2
7878	78.78	0	0	0	0	0	0	0	0	0	0	0	0	0	0	0	0	0	0	0	0	0	1	0	0	17.755	2.1475	16.785	0	0	0	1	0	0	17.761	2.1499	16.789	0	0	0	0	0	0	0	0	0	0	0	0	1	-1	0	7.5503	-27.469	31.921	0	0	0	1	0	0	17.47	2.0148	16.554	2
7879	78.79	0	0	0	0	0	0	0	0	0	0	0	0	0	0	0	0	0	0	0	0	0	1	0	0	17.755	2.1475	16.785	0	0	0	1	0	0	17.761	2.1499	16.789	0	0	0	0	0	0	0	0	0	0	0	0	0	-1	0	-2.0278	-17.891	16.968	0	0	0	0	0	0	0	0	0	2
7880	78.8	0	0	0	0	0	0	0	0	0	0	0	0	0	0	0	0	0	0	0	0	0	0	0	0	10.989	-10.989	19.033	0	0	0	1	0	0	17.761	2.1499	16.789	0	0	0	0	0	0	0	0	0	0	0	0	0	0	0	10.994	-10.994	19.042	0	0	0	0	0	0	0	0	0	2
7881	78.81	0	0	0	0	0	0	0	0	0	0	0	0	0	0	0	0	0	0	0	0	0	1	0	0	17.755	2.1475	16.785	0	0	0	1	0	0	17.761	2.1499	16.789	0	0	0	0	0	0	0	0	0	0	0	0	1	-1	0	7.5503	-27.469	31.921	0	0	0	0	0	0	0	0	0	2
7882	78.82	0	0	0	0	0	0	10.917	-10.917	18.908	0	0	0	0	0	0	0	0	0	0	0	0	0	0	0	10.989	-10.989	19.033	0	0	0	1	0	0	17.761	2.1499	16.789	0	0	0	0	0	0	0	0	0	0	0	0	0	-1	0	-2.0278	-17.891	16.968	0	0	0	0	0	0	0	0	0	2
7883	78.83	0	0	0	0	0	0	0	0	0	0	0	0	0	0	0	0	0	0	0	0	0	1	0	0	17.755	2.1475	16.785	0	0	0	1	0	0	17.761	2.1499	16.789	0	0	0	0	0	0	0	0	0	0	0	0	0	0	0	10.994	-10.994	19.042	0	0	0	1	0	0	17.47	2.0148	16.554	2
7884	78.84	0	0	0	0	0	0	10.917	-10.917	18.908	0	0	0	0	0	0	0	0	0	0	0	0	0	0	0	10.989	-10.989	19.033	0	0	0	1	0	0	17.761	2.1499	16.789	0	0	0	0	0	0	0	0	0	0	0	0	1	-1	0	7.5503	-27.469	31.921	0	0	0	0	0	0	0	0	0	2
7885	78.85	0	0	0	0	0	0	0	0	0	0	0	0	0	0	0	0	0	0	0	0	0	0	0	0	10.989	-10.989	19.033	0	0	0	1	0	0	17.761	2.1499	16.789	0	0	0	0	0	0	0	0	0	0	0	0	0	0	0	0	0	0	0	0	0	0	0	0	0	0	0	2
7886	78.86	0	0	0	0	0	0	0	0	0	0	0	0	0	0	0	0	0	0	0	0	0	1	0	0	17.755	2.1475	16.785	0	0	0	1	0	0	17.761	2.1499	16.789	0	0	0	0	0	0	0	0	0	0	0	0	1	-1	0	7.5503	-27.469	31.921	0	0	0	1	0	0	17.47	2.0148	16.554	2
7887	78.87	0	0	0	0	0	0	0	0	0	0	0	0	0	0	0	0	0	0	0	0	0	0	0	0	10.989	-10.989	19.033	0	0	0	1	0	0	17.761	2.1499	16.789	0	0	0	0	0	0	0	0	0	0	0	0	0	-1	0	-2.0278	-17.891	16.968	0	0	0	0	0	0	0	0	0	2
7888	78.88	0	0	0	0	0	0	0	0	0	0	0	0	0	0	0	0	0	0	0	0	0	1	0	0	17.755	2.1475	16.785	0	0	0	1	0	0	17.761	2.1499	16.789	0	0	0	0	0	0	0	0	0	0	0	0	0	0	0	10.994	-10.994	19.042	0	0	0	1	0	0	17.47	2.0148	16.554	2
7889	78.89	0	0	0	0	0	0	0	0	0	0	0	0	0	0	0	0	0	0	0	0	0	1	0	0	17.755	2.1475	16.785	0	0	0	1	0	0	17.761	2.1499	16.789	0	0	0	0	0	0	0	0	0	0	0	0	0	0	0	0	0	0	0	0	0	0	0	0	0	0	0	2
7890	78.9	0	0	0	0	0	0	10.917	-10.917	18.908	0	0	0	0	0	0	0	0	0	0	0	0	0	0	0	10.989	-10.989	19.033	0	0	0	1	0	0	17.883	2.027	16.961	0	0	0	0	0	0	0	0	0	0	0	0	1	-1	0	7.5503	-27.469	31.921	0	0	0	0	0	0	0	0	0	2
7891	78.91	0	0	0	0	0	0	0	0	0	0	0	0	0	0	0	0	0	0	0	0	0	1	0	0	17.755	2.1475	16.785	0	0	0	1	0	0	17.883	2.027	16.961	0	0	0	0	0	0	0	0	0	0	0	0	0	0	0	10.994	-10.994	19.042	0	0	0	1	0	0	17.47	2.0148	16.554	2
7892	78.92	0	0	0	0	0	0	10.917	-10.917	18.908	0	0	0	0	0	0	0	0	0	0	0	0	0	0	0	10.989	-10.989	19.033	0	0	0	1	0	0	17.761	2.1499	16.789	0	0	0	0	0	0	0	0	0	0	0	0	1	-1	0	7.5503	-27.469	31.921	0	0	0	0	0	0	0	0	0	2
7893	78.93	0	0	0	0	0	0	0	0	0	0	0	0	0	0	0	0	0	0	0	0	0	1	0	0	17.755	2.1475	16.785	0	0	0	1	0	0	17.761	2.1499	16.789	0	0	0	0	0	0	0	0	0	0	0	0	1	-1	0	7.5503	-27.469	31.921	0	0	0	1	0	0	17.47	2.0148	16.554	2
7894	78.94	0	0	0	0	0	0	0	0	0	0	0	0	0	0	0	0	0	0	0	0	0	1	0	0	17.755	2.1475	16.785	0	0	0	1	0	0	17.761	2.1499	16.789	0	0	0	0	0	0	0	0	0	0	0	0	1	-1	0	7.5503	-27.469	31.921	0	0	0	1	0	0	17.47	2.0148	16.554	2
7895	78.95	0	0	0	0	0	0	10.917	-10.917	18.908	0	0	0	0	0	0	0	0	0	0	0	0	0	0	0	10.989	-10.989	19.033	0	0	0	1	0	0	17.761	2.1499	16.789	0	0	0	0	0	0	0	0	0	0	0	0	1	-1	0	7.5503	-27.469	31.921	0	0	0	1	0	0	17.47	2.0148	16.554	2
7896	78.96	0	0	0	0	0	0	10.917	-10.917	18.908	0	0	0	0	0	0	0	0	0	0	0	0	1	0	0	17.755	2.1475	16.785	0	0	0	1	0	0	17.761	2.1499	16.789	0	0	0	0	0	0	0	0	0	0	0	0	0	-1	0	-2.0278	-17.891	16.968	0	0	0	0	0	0	0	0	0	2
7897	78.97	0	0	0	0	0	0	0	0	0	0	0	0	0	0	0	0	0	0	0	0	0	0	0	0	10.989	-10.989	19.033	0	0	0	1	0	0	17.761	2.1499	16.789	0	0	0	0	0	0	0	0	0	0	0	0	1	-1	0	7.5503	-27.469	31.921	0	0	0	0	0	0	0	0	0	2
7898	78.98	0	0	0	0	0	0	10.917	-10.917	18.908	0	0	0	0	0	0	0	0	0	0	0	0	1	0	0	17.755	2.1475	16.785	0	0	0	1	0	0	17.761	2.1499	16.789	0	0	0	0	0	0	0	0	0	0	0	0	1	-1	0	7.5503	-27.469	31.921	0	0	0	1	0	0	17.47	2.0148	16.554	2
7899	78.99	0	0	0	0	0	0	0	0	0	0	0	0	0	0	0	0	0	0	0	0	0	0	0	0	10.989	-10.989	19.033	0	0	0	1	0	0	17.883	2.027	16.961	0	0	0	0	0	0	0	0	0	0	0	0	0	0	0	10.994	-10.994	19.042	0	0	0	0	0	0	0	0	0	2
7900	79	0	0	0	0	0	0	0	0	0	0	0	0	0	0	0	0	0	0	0	0	0	0	0	0	10.989	-10.989	19.033	0	0	0	1	0	0	17.761	2.1499	16.789	0	0	0	0	0	0	0	0	0	0	0	0	0	0	0	0	0	0	0	0	0	1	0	0	17.47	2.0148	16.554	2
7901	79.01	0	0	0	0	0	0	0	0	0	0	0	0	0	0	0	0	0	0	0	0	0	0	0	0	10.989	-10.989	19.033	0	0	0	1	0	0	17.761	2.1499	16.789	0	0	0	0	0	0	0	0	0	0	0	0	1	-1	0	7.5503	-27.469	31.921	0	0	0	1	0	0	17.47	2.0148	16.554	2
7902	79.02	0	0	0	0	0	0	0	0	0	0	0	0	0	0	0	0	0	0	0	0	0	0	0	0	10.989	-10.989	19.033	0	0	0	1	0	0	17.761	2.1499	16.789	0	0	0	0	0	0	0	0	0	0	0	0	0	0	0	0	0	0	0	0	0	0	0	0	0	0	0	2
7903	79.03	0	0	0	0	0	0	0	0	0	0	0	0	0	0	0	0	0	0	0	0	0	1	0	0	17.755	2.1475	16.785	0	0	0	1	0	0	17.883	2.027	16.961	0	0	0	0	0	0	0	0	0	0	0	0	0	0	0	10.994	-10.994	19.042	0	0	0	0	0	0	0	0	0	2
7904	79.04	0	0	0	0	0	0	0	0	0	0	0	0	0	0	0	0	0	0	0	0	0	1	0	0	17.755	2.1475	16.785	0	0	0	1	0	0	17.761	2.1499	16.789	0	0	0	0	0	0	0	0	0	0	0	0	1	-1	0	7.5503	-27.469	31.921	0	0	0	1	0	0	17.47	2.0148	16.554	2
7905	79.05	0	0	0	0	0	0	0	0	0	0	0	0	0	0	0	0	0	0	0	0	0	1	0	0	17.755	2.1475	16.785	0	0	0	1	0	0	17.761	2.1499	16.789	0	0	0	0	0	0	0	0	0	0	0	0	0	0	0	10.994	-10.994	19.042	0	0	0	1	0	0	17.47	2.0148	16.554	0
7906	79.06	0	0	0	0	0	0	0	0	0	0	0	0	0	0	0	0	0	0	0	0	0	1	0	0	17.755	2.1475	16.785	0	0	0	1	0	0	17.761	2.1499	16.789	0	0	0	0	0	0	0	0	0	0	0	0	0	-1	0	-2.0278	-17.891	16.968	0	0	0	1	0	0	17.47	2.0148	16.554	2
7907	79.07	0	0	0	0	0	0	0	0	0	0	0	0	0	0	0	0	0	0	0	0	0	0	0	0	10.989	-10.989	19.033	0	0	0	1	0	0	17.883	2.027	16.961	0	0	0	0	0	0	0	0	0	0	0	0	1	-1	0	7.5503	-27.469	31.921	0	0	0	1	0	0	17.47	2.0148	16.554	2
7908	79.08	0	0	0	0	0	0	10.917	-10.917	18.908	0	0	0	0	0	0	0	0	0	0	0	0	1	0	0	17.755	2.1475	16.785	0	0	0	1	0	0	17.761	2.1499	16.789	0	0	0	0	0	0	0	0	0	0	0	0	0	0	0	10.994	-10.994	19.042	0	0	0	0	0	0	0	0	0	2
7909	79.09	0	0	0	0	0	0	10.917	-10.917	18.908	0	0	0	0	0	0	0	0	0	0	0	0	1	0	0	17.755	2.1475	16.785	0	0	0	1	0	0	17.761	2.1499	16.789	0	0	0	0	0	0	0	0	0	0	0	0	1	-1	0	7.5503	-27.469	31.921	0	0	0	1	0	0	17.47	2.0148	16.554	2
7910	79.1	0	0	0	0	0	0	0	0	0	0	0	0	0	0	0	0	0	0	0	0	0	0	0	0	10.989	-10.989	19.033	0	0	0	1	0	0	17.761	2.1499	16.789	0	0	0	0	0	0	0	0	0	0	0	0	1	-1	0	7.5503	-27.469	31.921	0	0	0	0	0	0	0	0	0	2
7911	79.11	0	0	0	0	0	0	0	0	0	0	0	0	0	0	0	0	0	0	0	0	0	1	0	0	17.755	2.1475	16.785	0	0	0	1	0	0	17.761	2.1499	16.789	0	0	0	0	0	0	0	0	0	0	0	0	1	-1	0	7.5503	-27.469	31.921	0	0	0	1	0	0	17.47	2.0148	16.554	2
7912	79.12	0	0	0	0	0	0	0	0	0	0	0	0	0	0	0	0	0	0	0	0	0	0	0	0	10.989	-10.989	19.033	0	0	0	1	0	0	17.883	2.027	16.961	0	0	0	0	0	0	0	0	0	0	0	0	1	-1	0	7.5503	-27.469	31.921	0	0	0	0	0	0	0	0	0	2
7913	79.13	0	0	0	0	0	0	0	0	0	0	0	0	0	0	0	0	0	0	0	0	0	1	0	0	17.755	2.1475	16.785	0	0	0	1	0	0	17.761	2.1499	16.789	0	0	0	0	0	0	0	0	0	0	0	0	0	0	0	10.994	-10.994	19.042	0	0	0	1	0	0	17.47	2.0148	16.554	2
7914	79.14	0	0	0	0	0	0	0	0	0	0	0	0	0	0	0	0	0	0	0	0	0	1	0	0	17.755	2.1475	16.785	0	0	0	1	0	0	17.761	2.1499	16.789	0	0	0	0	0	0	0	0	0	0	0	0	1	-1	0	7.5503	-27.469	31.921	0	0	0	1	0	0	17.47	2.0148	16.554	2
7915	79.15	0	0	0	0	0	0	10.917	-10.917	18.908	0	0	0	0	0	0	0	0	0	0	0	0	0	0	0	10.989	-10.989	19.033	0	0	0	1	0	0	17.883	2.027	16.961	0	0	0	0	0	0	0	0	0	0	0	0	0	0	0	10.994	-10.994	19.042	0	0	0	0	0	0	0	0	0	2
7916	79.16	0	0	0	0	0	0	10.917	-10.917	18.908	0	0	0	0	0	0	0	0	0	0	0	0	1	0	0	17.755	2.1475	16.785	0	0	0	1	0	0	17.883	2.027	16.961	0	0	0	0	0	0	0	0	0	0	0	0	1	-1	0	7.5503	-27.469	31.921	0	0	0	0	0	0	0	0	0	2
7917	79.17	0	0	0	0	0	0	0	0	0	0	0	0	0	0	0	0	0	0	0	0	0	0	0	0	10.989	-10.989	19.033	0	0	0	1	0	0	17.883	2.027	16.961	0	0	0	0	0	0	0	0	0	0	0	0	1	-1	0	7.5503	-27.469	31.921	0	0	0	0	0	0	0	0	0	2
7918	79.18	0	0	0	0	0	0	0	0	0	0	0	0	0	0	0	0	0	0	0	0	0	1	0	0	17.755	2.1475	16.785	0	0	0	1	0	0	17.761	2.1499	16.789	0	0	0	0	0	0	0	0	0	0	0	0	1	-1	0	7.5503	-27.469	31.921	0	0	0	0	0	0	0	0	0	2
7919	79.19	0	0	0	0	0	0	10.917	-10.917	18.908	0	0	0	0	0	0	0	0	0	0	0	0	1	0	0	17.755	2.1475	16.785	0	0	0	1	0	0	17.761	2.1499	16.789	0	0	0	0	0	0	0	0	0	0	0	0	1	-1	0	7.5503	-27.469	31.921	0	0	0	0	0	0	0	0	0	2
7920	79.2	0	0	0	0	0	0	0	0	0	0	0	0	0	0	0	0	0	0	0	0	0	0	0	0	10.989	-10.989	19.033	0	0	0	1	0	0	17.761	2.1499	16.789	0	0	0	0	0	0	0	0	0	0	0	0	0	0	0	0	0	0	0	0	0	1	0	0	17.47	2.0148	16.554	2
7921	79.21	0	0	0	0	0	0	0	0	0	0	0	0	0	0	0	0	0	0	0	0	0	1	0	0	17.755	2.1475	16.785	0	0	0	1	0	0	17.761	2.1499	16.789	0	0	0	0	0	0	0	0	0	0	0	0	1	-1	0	7.5503	-27.469	31.921	0	0	0	0	0	0	0	0	0	2
7922	79.22	0	0	0	0	0	0	0	0	0	0	0	0	0	0	0	0	0	0	0	0	0	0	0	0	10.989	-10.989	19.033	0	0	0	1	0	0	17.761	2.1499	16.789	0	0	0	0	0	0	0	0	0	0	0	0	1	-1	0	7.5503	-27.469	31.921	0	0	0	0	0	0	0	0	0	2
7923	79.23	0	0	0	0	0	0	10.917	-10.917	18.908	0	0	0	0	0	0	0	0	0	0	0	0	1	0	0	17.755	2.1475	16.785	0	0	0	1	0	0	17.761	2.1499	16.789	0	0	0	0	0	0	0	0	0	0	0	0	1	-1	0	7.5503	-27.469	31.921	0	0	0	1	0	0	17.47	2.0148	16.554	2
7924	79.24	0	0	0	0	0	0	0	0	0	0	0	0	0	0	0	0	0	0	0	0	0	1	0	0	17.755	2.1475	16.785	0	0	0	1	0	0	17.761	2.1499	16.789	0	0	0	0	0	0	0	0	0	0	0	0	1	-1	0	7.5503	-27.469	31.921	0	0	0	1	0	0	17.47	2.0148	16.554	2
7925	79.25	0	0	0	0	0	0	0	0	0	0	0	0	0	0	0	0	0	0	0	0	0	0	0	0	10.989	-10.989	19.033	0	0	0	1	0	0	17.883	2.027	16.961	0	0	0	0	0	0	0	0	0	0	0	0	0	0	0	10.994	-10.994	19.042	0	0	0	0	0	0	0	0	0	2
7926	79.26	0	0	0	0	0	0	0	0	0	0	0	0	0	0	0	0	0	0	0	0	0	1	0	0	17.755	2.1475	16.785	0	0	0	1	0	0	17.761	2.1499	16.789	0	0	0	0	0	0	0	0	0	0	0	0	0	0	0	10.994	-10.994	19.042	0	0	0	1	0	0	17.47	2.0148	16.554	2
7927	79.27	0	0	0	0	0	0	0	0	0	0	0	0	0	0	0	0	0	0	0	0	0	0	0	0	10.989	-10.989	19.033	0	0	0	1	0	0	17.883	2.027	16.961	0	0	0	0	0	0	0	0	0	0	0	0	1	-1	0	7.5503	-27.469	31.921	0	0	0	1	0	0	17.47	2.0148	16.554	2
7928	79.28	0	0	0	0	0	0	0	0	0	0	0	0	0	0	0	0	0	0	0	0	0	1	0	0	17.755	2.1475	16.785	0	0	0	1	0	0	17.761	2.1499	16.789	0	0	0	0	0	0	0	0	0	0	0	0	1	-1	0	7.5503	-27.469	31.921	0	0	0	0	0	0	0	0	0	2
7929	79.29	0	0	0	0	0	0	0	0	0	0	0	0	0	0	0	0	0	0	0	0	0	1	0	0	17.755	2.1475	16.785	0	0	0	1	0	0	17.761	2.1499	16.789	0	0	0	0	0	0	0	0	0	0	0	0	1	-1	0	7.5503	-27.469	31.921	0	0	0	0	0	0	0	0	0	2
7930	79.3	0	0	0	0	0	0	0	0	0	0	0	0	0	0	0	0	0	0	0	0	0	0	0	0	10.989	-10.989	19.033	0	0	0	1	0	0	17.761	2.1499	16.789	0	0	0	0	0	0	0	0	0	0	0	0	0	0	0	10.994	-10.994	19.042	0	0	0	0	0	0	0	0	0	2
7931	79.31	0	0	0	0	0	0	0	0	0	0	0	0	0	0	0	0	0	0	0	0	0	1	0	0	17.755	2.1475	16.785	0	0	0	1	0	0	17.761	2.1499	16.789	0	0	0	0	0	0	0	0	0	0	0	0	1	-1	0	7.5503	-27.469	31.921	0	0	0	1	0	0	17.47	2.0148	16.554	2
7932	79.32	0	0	0	0	0	0	0	0	0	0	0	0	0	0	0	0	0	0	0	0	0	0	0	0	10.989	-10.989	19.033	0	0	0	1	0	0	17.883	2.027	16.961	0	0	0	0	0	0	0	0	0	0	0	0	0	-1	0	-2.0278	-17.891	16.968	0	0	0	0	0	0	0	0	0	2
7933	79.33	0	0	0	0	0	0	0	0	0	0	0	0	0	0	0	0	0	0	0	0	0	0	0	0	10.989	-10.989	19.033	0	0	0	1	0	0	17.761	2.1499	16.789	0	0	0	0	0	0	0	0	0	0	0	0	1	-1	0	7.5503	-27.469	31.921	0	0	0	0	0	0	0	0	0	2
7934	79.34	0	0	0	0	0	0	0	0	0	0	0	0	0	0	0	0	0	0	0	0	0	1	0	0	17.755	2.1475	16.785	0	0	0	1	0	0	17.761	2.1499	16.789	0	0	0	0	0	0	0	0	0	0	0	0	0	0	0	10.994	-10.994	19.042	0	0	0	0	0	0	0	0	0	2
7935	79.35	0	0	0	0	0	0	0	0	0	0	0	0	0	0	0	0	0	0	0	0	0	0	0	0	10.989	-10.989	19.033	0	0	0	1	0	0	17.883	2.027	16.961	0	0	0	0	0	0	0	0	0	0	0	0	1	-1	0	7.5503	-27.469	31.921	0	0	0	0	0	0	0	0	0	2
7936	79.36	0	0	0	0	0	0	0	0	0	0	0	0	0	0	0	0	0	0	0	0	0	1	0	0	17.755	2.1475	16.785	0	0	0	1	0	0	17.761	2.1499	16.789	0	0	0	0	0	0	0	0	0	0	0	0	1	-1	0	7.5503	-27.469	31.921	0	0	0	1	0	0	17.47	2.0148	16.554	2
7937	79.37	0	0	0	0	0	0	0	0	0	0	0	0	0	0	0	0	0	0	0	0	0	0	0	0	10.989	-10.989	19.033	0	0	0	1	0	0	17.761	2.1499	16.789	0	0	0	0	0	0	0	0	0	0	0	0	1	-1	0	7.5503	-27.469	31.921	0	0	0	1	0	0	17.47	2.0148	16.554	2
7938	79.38	0	0	0	0	0	0	0	0	0	0	0	0	0	0	0	0	0	0	0	0	0	0	0	0	10.989	-10.989	19.033	0	0	0	1	0	0	17.761	2.1499	16.789	0	0	0	0	0	0	0	0	0	0	0	0	0	-1	0	-2.0278	-17.891	16.968	0	0	0	1	0	0	17.47	2.0148	16.554	2
7939	79.39	0	0	0	0	0	0	0	0	0	0	0	0	0	0	0	0	0	0	0	0	0	1	0	0	17.755	2.1475	16.785	0	0	0	1	0	0	17.761	2.1499	16.789	0	0	0	0	0	0	0	0	0	0	0	0	0	-1	0	-2.0278	-17.891	16.968	0	0	0	1	0	0	17.47	2.0148	16.554	2
7940	79.4	0	0	0	0	0	0	0	0	0	0	0	0	0	0	0	0	0	0	0	0	0	0	0	0	10.989	-10.989	19.033	0	0	0	1	0	0	17.761	2.1499	16.789	0	0	0	0	0	0	0	0	0	0	0	0	1	-1	0	7.5503	-27.469	31.921	0	0	0	1	0	0	17.47	2.0148	16.554	2
7941	79.41	0	0	0	0	0	0	0	0	0	0	0	0	0	0	0	0	0	0	0	0	0	1	0	0	17.755	2.1475	16.785	0	0	0	1	0	0	17.761	2.1499	16.789	0	0	0	0	0	0	0	0	0	0	0	0	1	-1	0	7.5503	-27.469	31.921	0	0	0	1	0	0	17.47	2.0148	16.554	2
7942	79.42	0	0	0	0	0	0	0	0	0	0	0	0	0	0	0	0	0	0	0	0	0	0	0	0	10.989	-10.989	19.033	0	0	0	1	0	0	17.761	2.1499	16.789	0	0	0	0	0	0	0	0	0	0	0	0	0	0	0	10.994	-10.994	19.042	0	0	0	0	0	0	0	0	0	2
7943	79.43	0	0	0	0	0	0	0	0	0	0	0	0	0	0	0	0	0	0	0	0	0	1	0	0	17.755	2.1475	16.785	0	0	0	1	0	0	17.761	2.1499	16.789	0	0	0	0	0	0	0	0	0	0	0	0	0	-1	0	-2.0278	-17.891	16.968	0	0	0	1	0	0	17.47	2.0148	16.554	2
7944	79.44	0	0	0	0	0	0	0	0	0	0	0	0	0	0	0	0	0	0	0	0	0	1	0	0	17.755	2.1475	16.785	0	0	0	1	0	0	17.761	2.1499	16.789	0	0	0	0	0	0	0	0	0	0	0	0	1	-1	0	7.5503	-27.469	31.921	0	0	0	1	0	0	17.47	2.0148	16.554	2
7945	79.45	0	0	0	0	0	0	0	0	0	0	0	0	0	0	0	0	0	0	0	0	0	0	0	0	10.989	-10.989	19.033	0	0	0	1	0	0	17.883	2.027	16.961	0	0	0	0	0	0	0	0	0	0	0	0	0	0	0	0	0	0	0	0	0	0	0	0	0	0	0	2
7946	79.46	0	0	0	0	0	0	10.917	-10.917	18.908	0	0	0	0	0	0	0	0	0	0	0	0	0	0	0	10.989	-10.989	19.033	0	0	0	1	0	0	17.761	2.1499	16.789	0	0	0	0	0	0	0	0	0	0	0	0	0	-1	0	-2.0278	-17.891	16.968	0	0	0	1	0	0	17.47	2.0148	16.554	2
7947	79.47	0	0	0	0	0	0	0	0	0	0	0	0	0	0	0	0	0	0	0	0	0	0	0	0	10.989	-10.989	19.033	0	0	0	1	0	0	17.761	2.1499	16.789	0	0	0	0	0	0	0	0	0	0	0	0	1	-1	0	7.5503	-27.469	31.921	0	0	0	0	0	0	0	0	0	2
7948	79.48	0	0	0	0	0	0	0	0	0	0	0	0	0	0	0	0	0	0	0	0	0	1	0	0	17.755	2.1475	16.785	0	0	0	1	0	0	17.761	2.1499	16.789	0	0	0	0	0	0	0	0	0	0	0	0	0	0	0	10.994	-10.994	19.042	0	0	0	1	0	0	17.47	2.0148	16.554	2
7949	79.49	0	0	0	0	0	0	0	0	0	0	0	0	0	0	0	0	0	0	0	0	0	0	0	0	10.989	-10.989	19.033	0	0	0	1	0	0	17.761	2.1499	16.789	0	0	0	0	0	0	0	0	0	0	0	0	1	-1	0	7.5503	-27.469	31.921	0	0	0	0	0	0	0	0	0	2
7950	79.5	0	0	0	0	0	0	0	0	0	0	0	0	0	0	0	0	0	0	0	0	0	0	0	0	10.989	-10.989	19.033	0	0	0	1	0	0	17.883	2.027	16.961	0	0	0	0	0	0	0	0	0	0	0	0	1	-1	0	7.5503	-27.469	31.921	0	0	0	0	0	0	0	0	0	2
7951	79.51	0	0	0	0	0	0	10.917	-10.917	18.908	0	0	0	0	0	0	0	0	0	0	0	0	1	0	0	17.755	2.1475	16.785	0	0	0	1	0	0	17.761	2.1499	16.789	0	0	0	0	0	0	0	0	0	0	0	0	0	0	0	10.994	-10.994	19.042	0	0	0	1	0	0	17.47	2.0148	16.554	2
7952	79.52	0	0	0	0	0	0	10.917	-10.917	18.908	0	0	0	0	0	0	0	0	0	0	0	0	0	0	0	10.989	-10.989	19.033	0	0	0	1	0	0	17.761	2.1499	16.789	0	0	0	0	0	0	0	0	0	0	0	0	1	-1	0	7.5503	-27.469	31.921	0	0	0	0	0	0	0	0	0	2
7953	79.53	0	0	0	0	0	0	0	0	0	0	0	0	0	0	0	0	0	0	0	0	0	1	0	0	17.755	2.1475	16.785	0	0	0	1	0	0	17.761	2.1499	16.789	0	0	0	0	0	0	0	0	0	0	0	0	0	-1	0	-2.0278	-17.891	16.968	0	0	0	1	0	0	17.47	2.0148	16.554	2
7954	79.54	0	0	0	0	0	0	0	0	0	0	0	0	0	0	0	0	0	0	0	0	0	0	0	0	10.989	-10.989	19.033	0	0	0	1	0	0	17.761	2.1499	16.789	0	0	0	0	0	0	0	0	0	0	0	0	1	-1	0	7.5503	-27.469	31.921	0	0	0	1	0	0	17.47	2.0148	16.554	2
7955	79.55	0	0	0	0	0	0	10.917	-10.917	18.908	0	0	0	0	0	0	0	0	0	0	0	0	0	0	0	10.989	-10.989	19.033	0	0	0	1	0	0	17.883	2.027	16.961	0	0	0	0	0	0	0	0	0	0	0	0	1	-1	0	7.5503	-27.469	31.921	0	0	0	0	0	0	0	0	0	2
7956	79.56	0	0	0	0	0	0	0	0	0	0	0	0	0	0	0	0	0	0	0	0	0	1	0	0	17.755	2.1475	16.785	0	0	0	1	0	0	17.883	2.027	16.961	0	0	0	0	0	0	0	0	0	0	0	0	1	-1	0	7.5503	-27.469	31.921	0	0	0	1	0	0	17.47	2.0148	16.554	2
7957	79.57	0	0	0	0	0	0	0	0	0	0	0	0	0	0	0	0	0	0	0	0	0	0	0	0	10.989	-10.989	19.033	0	0	0	1	0	0	17.883	2.027	16.961	0	0	0	0	0	0	0	0	0	0	0	0	0	0	0	10.994	-10.994	19.042	0	0	0	0	0	0	0	0	0	2
7958	79.58	0	0	0	0	0	0	0	0	0	0	0	0	0	0	0	0	0	0	0	0	0	0	0	0	10.989	-10.989	19.033	0	0	0	1	0	0	17.761	2.1499	16.789	0	0	0	0	0	0	0	0	0	0	0	0	0	0	0	10.994	-10.994	19.042	0	0	0	1	0	0	17.47	2.0148	16.554	2
7959	79.59	0	0	0	0	0	0	0	0	0	0	0	0	0	0	0	0	0	0	0	0	0	0	0	0	10.989	-10.989	19.033	0	0	0	1	0	0	17.883	2.027	16.961	0	0	0	0	0	0	0	0	0	0	0	0	1	-1	0	7.5503	-27.469	31.921	0	0	0	1	0	0	17.47	2.0148	16.554	2
7960	79.6	0	0	0	0	0	0	10.917	-10.917	18.908	0	0	0	0	0	0	0	0	0	0	0	0	0	0	0	10.989	-10.989	19.033	0	0	0	1	0	0	17.761	2.1499	16.789	0	0	0	0	0	0	0	0	0	0	0	0	0	-1	0	-2.0278	-17.891	16.968	0	0	0	1	0	0	17.47	2.0148	16.554	2
7961	79.61	0	0	0	0	0	0	0	0	0	0	0	0	0	0	0	0	0	0	0	0	0	1	0	0	17.755	2.1475	16.785	0	0	0	1	0	0	17.761	2.1499	16.789	0	0	0	0	0	0	0	0	0	0	0	0	1	-1	0	7.5503	-27.469	31.921	0	0	0	0	0	0	0	0	0	2
7962	79.62	0	0	0	0	0	0	10.917	-10.917	18.908	0	0	0	0	0	0	0	0	0	0	0	0	0	0	0	10.989	-10.989	19.033	0	0	0	1	0	0	17.761	2.1499	16.789	0	0	0	0	0	0	0	0	0	0	0	0	0	-1	0	-2.0278	-17.891	16.968	0	0	0	0	0	0	0	0	0	2
7963	79.63	0	0	0	0	0	0	10.917	-10.917	18.908	0	0	0	0	0	0	0	0	0	0	0	0	1	0	0	17.755	2.1475	16.785	0	0	0	1	0	0	17.761	2.1499	16.789	0	0	0	0	0	0	0	0	0	0	0	0	1	-1	0	7.5503	-27.469	31.921	0	0	0	1	0	0	17.47	2.0148	16.554	2
7964	79.64	0	0	0	0	0	0	0	0	0	0	0	0	0	0	0	0	0	0	0	0	0	1	0	0	17.755	2.1475	16.785	0	0	0	1	0	0	17.883	2.027	16.961	0	0	0	0	0	0	0	0	0	0	0	0	1	-1	0	7.5503	-27.469	31.921	0	0	0	0	0	0	0	0	0	2
7965	79.65	0	0	0	0	0	0	10.917	-10.917	18.908	0	0	0	0	0	0	0	0	0	0	0	0	0	0	0	10.989	-10.989	19.033	0	0	0	1	0	0	17.761	2.1499	16.789	0	0	0	0	0	0	0	0	0	0	0	0	1	-1	0	7.5503	-27.469	31.921	0	0	0	0	0	0	0	0	0	2
7966	79.66	0	0	0	0	0	0	0	0	0	0	0	0	0	0	0	0	0	0	0	0	0	1	0	0	17.755	2.1475	16.785	0	0	0	1	0	0	17.883	2.027	16.961	0	0	0	0	0	0	0	0	0	0	0	0	1	-1	0	7.5503	-27.469	31.921	0	0	0	1	0	0	17.47	2.0148	16.554	2
7967	79.67	0	0	0	0	0	0	0	0	0	0	0	0	0	0	0	0	0	0	0	0	0	0	0	0	10.989	-10.989	19.033	0	0	0	1	0	0	17.883	2.027	16.961	0	0	0	0	0	0	0	0	0	0	0	0	1	-1	0	7.5503	-27.469	31.921	0	0	0	0	0	0	0	0	0	2
7968	79.68	0	0	0	0	0	0	0	0	0	0	0	0	0	0	0	0	0	0	0	0	0	0	0	0	10.989	-10.989	19.033	0	0	0	1	0	0	17.761	2.1499	16.789	0	0	0	0	0	0	0	0	0	0	0	0	0	0	0	10.994	-10.994	19.042	0	0	0	1	0	0	17.47	2.0148	16.554	2
7969	79.69	0	0	0	0	0	0	0	0	0	0	0	0	0	0	0	0	0	0	0	0	0	1	0	0	17.755	2.1475	16.785	0	0	0	1	0	0	17.883	2.027	16.961	0	0	0	1	0	0	17.883	2.027	16.961	0	0	0	0	0	0	10.994	-10.994	19.042	0	0	0	0	0	0	0	0	0	0
7970	79.7	0	0	0	0	0	0	0	0	0	0	0	0	0	0	0	0	0	0	0	0	0	0	0	0	10.989	-10.989	19.033	0	0	0	1	0	0	17.761	2.1499	16.789	0	0	0	0	0	0	0	0	0	0	0	0	0	0	0	0	0	0	0	0	0	1	0	0	17.47	2.0148	16.554	2
7971	79.71	0	0	0	0	0	0	0	0	0	0	0	0	0	0	0	0	0	0	0	0	0	1	0	0	17.755	2.1475	16.785	0	0	0	1	0	0	17.761	2.1499	16.789	0	0	0	0	0	0	0	0	0	0	0	0	0	0	0	0	0	0	0	0	0	0	0	0	0	0	0	2
7972	79.72	0	0	0	0	0	0	0	0	0	0	0	0	0	0	0	0	0	0	0	0	0	0	0	0	10.989	-10.989	19.033	0	0	0	1	0	0	17.761	2.1499	16.789	0	0	0	0	0	0	0	0	0	0	0	0	0	-1	0	-2.0278	-17.891	16.968	0	0	0	0	0	0	0	0	0	2
7973	79.73	0	0	0	0	0	0	10.917	-10.917	18.908	0	0	0	0	0	0	0	0	0	0	0	0	1	0	0	17.755	2.1475	16.785	0	0	0	1	0	0	17.761	2.1499	16.789	0	0	0	0	0	0	0	0	0	0	0	0	0	-1	0	-2.0278	-17.891	16.968	0	0	0	1	0	0	17.47	2.0148	16.554	2
7974	79.74	0	0	0	0	0	0	10.917	-10.917	18.908	0	0	0	0	0	0	0	0	0	0	0	0	1	0	0	17.755	2.1475	16.785	0	0	0	1	0	0	17.883	2.027	16.961	0	0	0	0	0	0	0	0	0	0	0	0	1	-1	0	7.5503	-27.469	31.921	0	0	0	0	0	0	0	0	0	2
7975	79.75	0	0	0	0	0	0	0	0	0	0	0	0	0	0	0	0	0	0	0	0	0	0	0	0	10.989	-10.989	19.033	0	0	0	1	0	0	17.883	2.027	16.961	0	0	0	0	0	0	0	0	0	0	0	0	0	0	0	10.994	-10.994	19.042	0	0	0	0	0	0	0	0	0	2
7976	79.76	0	0	0	0	0	0	0	0	0	0	0	0	0	0	0	0	0	0	0	0	0	0	0	0	10.989	-10.989	19.033	0	0	0	1	0	0	17.761	2.1499	16.789	0	0	0	0	0	0	0	0	0	0	0	0	1	-1	0	7.5503	-27.469	31.921	0	0	0	1	0	0	17.47	2.0148	16.554	2
7977	79.77	0	0	0	0	0	0	0	0	0	0	0	0	0	0	0	0	0	0	0	0	0	0	0	0	10.989	-10.989	19.033	0	0	0	1	0	0	17.761	2.1499	16.789	0	0	0	0	0	0	0	0	0	0	0	0	1	-1	0	7.5503	-27.469	31.921	0	0	0	0	0	0	0	0	0	2
7978	79.78	0	0	0	0	0	0	0	0	0	0	0	0	0	0	0	0	0	0	0	0	0	0	0	0	10.989	-10.989	19.033	0	0	0	1	0	0	17.761	2.1499	16.789	0	0	0	0	0	0	0	0	0	0	0	0	1	-1	0	7.5503	-27.469	31.921	0	0	0	0	0	0	0	0	0	2
7979	79.79	0	0	0	0	0	0	0	0	0	0	0	0	0	0	0	0	0	0	0	0	0	0	0	0	10.989	-10.989	19.033	0	0	0	1	0	0	17.883	2.027	16.961	0	0	0	0	0	0	0	0	0	0	0	0	0	-1	0	-2.0278	-17.891	16.968	0	0	0	1	0	0	17.47	2.0148	16.554	2
7980	79.8	0	0	0	0	0	0	0	0	0	0	0	0	0	0	0	0	0	0	0	0	0	0	0	0	10.989	-10.989	19.033	0	0	0	1	0	0	17.883	2.027	16.961	0	0	0	0	0	0	0	0	0	0	0	0	0	0	0	10.994	-10.994	19.042	0	0	0	0	0	0	0	0	0	2
7981	79.81	0	0	0	0	0	0	10.917	-10.917	18.908	0	0	0	0	0	0	0	0	0	0	0	0	1	0	0	17.755	2.1475	16.785	0	0	0	1	0	0	17.883	2.027	16.961	0	0	0	0	0	0	0	0	0	0	0	0	0	0	0	0	0	0	0	0	0	0	0	0	0	0	0	2
7982	79.82	0	0	0	0	0	0	0	0	0	0	0	0	0	0	0	0	0	0	0	0	0	1	0	0	17.755	2.1475	16.785	0	0	0	1	0	0	17.883	2.027	16.961	0	0	0	0	0	0	0	0	0	0	0	0	0	0	0	0	0	0	0	0	0	0	0	0	0	0	0	2
7983	79.83	0	0	0	0	0	0	0	0	0	0	0	0	0	0	0	0	0	0	0	0	0	1	0	0	17.755	2.1475	16.785	0	0	0	1	0	0	17.883	2.027	16.961	0	0	0	0	0	0	0	0	0	0	0	0	0	0	0	10.994	-10.994	19.042	0	0	0	1	0	0	17.47	2.0148	16.554	2
7984	79.84	0	0	0	0	0	0	10.917	-10.917	18.908	0	0	0	0	0	0	0	0	0	0	0	0	1	0	0	17.755	2.1475	16.785	0	0	0	1	0	0	17.761	2.1499	16.789	0	0	0	0	0	0	0	0	0	0	0	0	0	-1	0	-2.0278	-17.891	16.968	0	0	0	0	0	0	0	0	0	2
7985	79.85	0	0	0	0	0	0	0	0	0	0	0	0	0	0	0	0	0	0	0	0	0	0	0	0	10.989	-10.989	19.033	0	0	0	1	0	0	17.883	2.027	16.961	0	0	0	0	0	0	0	0	0	0	0	0	1	-1	0	7.5503	-27.469	31.921	0	0	0	0	0	0	0	0	0	2
7986	79.86	0	0	0	0	0	0	10.917	-10.917	18.908	0	0	0	0	0	0	0	0	0	0	0	0	1	0	0	17.755	2.1475	16.785	0	0	0	1	0	0	17.761	2.1499	16.789	0	0	0	0	0	0	0	0	0	0	0	0	0	0	0	10.994	-10.994	19.042	0	0	0	1	0	0	17.47	2.0148	16.554	2
7987	79.87	0	0	0	0	0	0	0	0	0	0	0	0	0	0	0	0	0	0	0	0	0	0	0	0	10.989	-10.989	19.033	0	0	0	1	0	0	17.883	2.027	16.961	0	0	0	0	0	0	0	0	0	0	0	0	1	-1	0	7.5503	-27.469	31.921	0	0	0	0	0	0	0	0	0	2
7988	79.88	0	0	0	0	0	0	0	0	0	0	0	0	0	0	0	0	0	0	0	0	0	1	0	0	17.755	2.1475	16.785	0	0	0	1	0	0	17.761	2.1499	16.789	0	0	0	0	0	0	0	0	0	0	0	0	0	0	0	10.994	-10.994	19.042	0	0	0	1	0	0	17.47	2.0148	16.554	2
7989	79.89	0	0	0	0	0	0	10.917	-10.917	18.908	0	0	0	0	0	0	0	0	0	0	0	0	0	0	0	10.989	-10.989	19.033	0	0	0	1	0	0	17.883	2.027	16.961	0	0	0	0	0	0	0	0	0	0	0	0	0	0	0	0	0	0	0	0	0	1	0	0	17.47	2.0148	16.554	2
7990	79.9	0	0	0	0	0	0	10.917	-10.917	18.908	0	0	0	0	0	0	0	0	0	0	0	0	0	0	0	10.989	-10.989	19.033	0	0	0	1	0	0	17.761	2.1499	16.789	0	0	0	0	0	0	0	0	0	0	0	0	0	0	0	0	0	0	0	0	0	0	0	0	0	0	0	2
7991	79.91	0	0	0	0	0	0	0	0	0	0	0	0	0	0	0	0	0	0	0	0	0	1	0	0	17.755	2.1475	16.785	0	0	0	1	0	0	17.761	2.1499	16.789	0	0	0	0	0	0	0	0	0	0	0	0	1	-1	0	7.5503	-27.469	31.921	0	0	0	1	0	0	17.47	2.0148	16.554	2
7992	79.92	0	0	0	0	0	0	0	0	0	0	0	0	0	0	0	0	0	0	0	0	0	0	0	0	10.989	-10.989	19.033	0	0	0	1	0	0	17.883	2.027	16.961	0	0	0	0	0	0	0	0	0	0	0	0	0	-1	0	-2.0278	-17.891	16.968	0	0	0	0	0	0	0	0	0	2
7993	79.93	0	0	0	0	0	0	10.917	-10.917	18.908	0	0	0	0	0	0	0	0	0	0	0	0	1	0	0	17.755	2.1475	16.785	0	0	0	1	0	0	17.761	2.1499	16.789	0	0	0	0	0	0	0	0	0	0	0	0	0	0	0	10.994	-10.994	19.042	0	0	0	0	0	0	0	0	0	2
7994	79.94	0	0	0	0	0	0	0	0	0	0	0	0	0	0	0	0	0	0	0	0	0	1	0	0	17.755	2.1475	16.785	0	0	0	1	0	0	17.883	2.027	16.961	0	0	0	0	0	0	0	0	0	0	0	0	0	-1	0	-2.0278	-17.891	16.968	0	0	0	1	0	0	17.47	2.0148	16.554	2
7995	79.95	0	0	0	0	0	0	0	0	0	0	0	0	0	0	0	0	0	0	0	0	0	0	0	0	10.989	-10.989	19.033	0	0	0	1	0	0	17.883	2.027	16.961	0	0	0	0	0	0	0	0	0	0	0	0	0	0	0	10.994	-10.994	19.042	0	0	0	0	0	0	0	0	0	2
7996	79.96	0	0	0	0	0	0	10.917	-10.917	18.908	0	0	0	0	0	0	0	0	0	0	0	0	1	0	0	17.755	2.1475	16.785	0	0	0	1	0	0	17.883	2.027	16.961	0	0	0	0	0	0	0	0	0	0	0	0	1	-1	0	7.5503	-27.469	31.921	0	0	0	1	0	0	17.47	2.0148	16.554	2
7997	79.97	0	0	0	0	0	0	0	0	0	0	0	0	0	0	0	0	0	0	0	0	0	0	0	0	10.989	-10.989	19.033	0	0	0	1	0	0	17.883	2.027	16.961	0	0	0	0	0	0	0	0	0	0	0	0	0	0	0	0	0	0	0	0	0	0	0	0	0	0	0	2
7998	79.98	0	0	0	0	0	0	0	0	0	0	0	0	0	0	0	0	0	0	0	0	0	1	0	0	17.755	2.1475	16.785	0	0	0	1	0	0	17.883	2.027	16.961	0	0	0	0	0	0	0	0	0	0	0	0	0	0	0	10.994	-10.994	19.042	0	0	0	1	0	0	17.47	2.0148	16.554	2
7999	79.99	0	0	0	0	0	0	0	0	0	0	0	0	0	0	0	0	0	0	0	0	0	0	0	0	10.989	-10.989	19.033	0	0	0	1	0	0	17.761	2.1499	16.789	0	0	0	0	0	0	0	0	0	0	0	0	1	-1	0	7.5503	-27.469	31.921	0	0	0	1	0	0	17.47	2.0148	16.554	2
8000	80	0	0	0	0	0	0	0	0	0	0	0	0	0	0	0	0	0	0	0	0	0	0	0	0	10.989	-10.989	19.033	0	0	0	1	0	0	17.883	2.027	16.961	0	0	0	0	0	0	0	0	0	0	0	0	0	0	0	10.994	-10.994	19.042	0	0	0	1	0	0	17.47	2.0148	16.554	2
8001	80.01	0	0	0	0	0	0	10.917	-10.917	18.908	0	0	0	0	0	0	0	0	0	0	0	0	1	0	0	17.755	2.1475	16.785	0	0	0	1	0	0	17.761	2.1499	16.789	0	0	0	0	0	0	0	0	0	0	0	0	1	-1	0	7.5503	-27.469	31.921	0	0	0	0	0	0	0	0	0	2
8002	80.02	0	0	0	0	0	0	0	0	0	0	0	0	0	0	0	0	0	0	0	0	0	1	0	0	17.755	2.1475	16.785	0	0	0	1	0	0	17.761	2.1499	16.789	0	0	0	0	0	0	0	0	0	0	0	0	1	-1	0	7.5503	-27.469	31.921	0	0	0	1	0	0	17.47	2.0148	16.554	2
8003	80.03	0	0	0	0	0	0	0	0	0	0	0	0	0	0	0	0	0	0	0	0	0	1	0	0	17.755	2.1475	16.785	0	0	0	1	0	0	17.761	2.1499	16.789	0	0	0	0	0	0	0	0	0	0	0	0	1	-1	0	7.5503	-27.469	31.921	0	0	0	1	0	0	17.47	2.0148	16.554	2
8004	80.04	0	0	0	0	0	0	0	0	0	0	0	0	0	0	0	0	0	0	0	0	0	0	0	0	10.989	-10.989	19.033	0	0	0	1	0	0	17.761	2.1499	16.789	0	0	0	0	0	0	0	0	0	0	0	0	0	0	0	10.994	-10.994	19.042	0	0	0	1	0	0	17.47	2.0148	16.554	2
8005	80.05	0	0	0	0	0	0	0	0	0	0	0	0	0	0	0	0	0	0	0	0	0	1	0	0	17.755	2.1475	16.785	0	0	0	1	0	0	17.761	2.1499	16.789	0	0	0	0	0	0	0	0	0	0	0	0	0	0	0	10.994	-10.994	19.042	0	0	0	0	0	0	0	0	0	2
8006	80.06	0	0	0	0	0	0	0	0	0	0	0	0	0	0	0	0	0	0	0	0	0	1	0	0	17.755	2.1475	16.785	0	0	0	1	0	0	17.761	2.1499	16.789	0	0	0	0	0	0	0	0	0	0	0	0	0	0	0	10.994	-10.994	19.042	0	0	0	0	0	0	0	0	0	2
8007	80.07	0	0	0	0	0	0	0	0	0	0	0	0	0	0	0	0	0	0	0	0	0	1	0	0	17.755	2.1475	16.785	0	0	0	1	0	0	17.883	2.027	16.961	0	0	0	0	0	0	0	0	0	0	0	0	0	0	0	10.994	-10.994	19.042	0	0	0	0	0	0	0	0	0	2
8008	80.08	0	0	0	0	0	0	0	0	0	0	0	0	0	0	0	0	0	0	0	0	0	1	0	0	17.755	2.1475	16.785	0	0	0	1	0	0	17.761	2.1499	16.789	0	0	0	0	0	0	0	0	0	0	0	0	0	-1	0	-2.0278	-17.891	16.968	0	0	0	0	0	0	0	0	0	2
8009	80.09	0	0	0	0	0	0	0	0	0	0	0	0	0	0	0	0	0	0	0	0	0	1	0	0	17.755	2.1475	16.785	0	0	0	1	0	0	17.883	2.027	16.961	0	0	0	0	0	0	0	0	0	0	0	0	1	-1	0	7.5503	-27.469	31.921	0	0	0	1	0	0	17.471	2.0135	16.556	2
8010	80.1	0	0	0	0	0	0	0	0	0	0	0	0	0	0	0	0	0	0	0	0	0	0	0	0	10.989	-10.989	19.033	0	0	0	1	0	0	17.883	2.027	16.961	0	0	0	0	0	0	0	0	0	0	0	0	0	0	0	10.994	-10.994	19.042	0	0	0	0	0	0	0	0	0	2
8011	80.11	0	0	0	0	0	0	0	0	0	0	0	0	0	0	0	0	0	0	0	0	0	1	0	0	17.755	2.1475	16.785	0	0	0	1	0	0	17.761	2.1499	16.789	0	0	0	0	0	0	0	0	0	0	0	0	0	0	0	10.994	-10.994	19.042	0	0	0	1	0	0	17.47	2.0148	16.554	2
8012	80.12	0	0	0	0	0	0	10.917	-10.917	18.908	0	0	0	0	0	0	0	0	0	0	0	0	0	0	0	10.989	-10.989	19.033	0	0	0	1	0	0	17.761	2.1499	16.789	0	0	0	0	0	0	0	0	0	0	0	0	1	-1	0	7.5503	-27.469	31.921	0	0	0	1	0	0	17.47	2.0148	16.554	2
8013	80.13	0	0	0	0	0	0	0	0	0	0	0	0	0	0	0	0	0	0	0	0	0	0	0	0	10.989	-10.989	19.033	0	0	0	1	0	0	17.761	2.1499	16.789	0	0	0	0	0	0	0	0	0	0	0	0	0	0	0	10.994	-10.994	19.042	0	0	0	0	0	0	10.93	-10.93	18.931	2
8014	80.14	0	0	0	0	0	0	10.917	-10.917	18.908	0	0	0	0	0	0	0	0	0	0	0	0	0	0	0	10.989	-10.989	19.033	0	0	0	1	0	0	17.761	2.1499	16.789	0	0	0	0	0	0	0	0	0	0	0	0	0	0	0	10.994	-10.994	19.042	0	0	0	1	0	0	17.47	2.0148	16.554	2
8015	80.15	0	0	0	0	0	0	10.917	-10.917	18.908	0	0	0	0	0	0	0	0	0	0	0	0	0	0	0	10.989	-10.989	19.033	0	0	0	1	0	0	17.883	2.027	16.961	0	0	0	0	0	0	0	0	0	0	0	0	1	-1	0	7.5503	-27.469	31.921	0	0	0	1	0	0	17.47	2.0148	16.554	2
8016	80.16	0	0	0	0	0	0	10.917	-10.917	18.908	0	0	0	0	0	0	0	0	0	0	0	0	1	0	0	17.755	2.1475	16.785	0	0	0	1	0	0	17.761	2.1499	16.789	0	0	0	0	0	0	0	0	0	0	0	0	0	0	0	10.994	-10.994	19.042	0	0	0	1	0	0	17.47	2.0148	16.554	2
8017	80.17	0	0	0	0	0	0	10.917	-10.917	18.908	0	0	0	0	0	0	0	0	0	0	0	0	1	0	0	17.755	2.1475	16.785	0	0	0	1	0	0	17.761	2.1499	16.789	0	0	0	0	0	0	0	0	0	0	0	0	0	0	0	10.994	-10.994	19.042	0	0	0	0	0	0	0	0	0	2
8018	80.18	0	0	0	0	0	0	10.917	-10.917	18.908	0	0	0	0	0	0	0	0	0	0	0	0	1	0	0	17.755	2.1475	16.785	0	0	0	1	0	0	17.883	2.027	16.961	0	0	0	0	0	0	0	0	0	0	0	0	0	0	0	10.994	-10.994	19.042	0	0	0	1	0	0	17.47	2.0148	16.554	2
8019	80.19	0	0	0	0	0	0	0	0	0	0	0	0	0	0	0	0	0	0	0	0	0	0	0	0	10.989	-10.989	19.033	0	0	0	1	0	0	17.761	2.1499	16.789	0	0	0	0	0	0	0	0	0	0	0	0	1	-1	0	7.5503	-27.469	31.921	0	0	0	0	0	0	0	0	0	2
8020	80.2	0	0	0	0	0	0	10.917	-10.917	18.908	0	0	0	0	0	0	0	0	0	0	0	0	0	0	0	10.989	-10.989	19.033	0	0	0	1	0	0	17.883	2.027	16.961	0	0	0	0	0	0	0	0	0	0	0	0	1	-1	0	7.5503	-27.469	31.921	0	0	0	1	0	0	17.47	2.0148	16.554	2
8021	80.21	0	0	0	0	0	0	0	0	0	0	0	0	0	0	0	0	0	0	0	0	0	1	0	0	17.755	2.1475	16.785	0	0	0	1	0	0	17.883	2.027	16.961	0	0	0	0	0	0	0	0	0	0	0	0	1	-1	0	7.5503	-27.469	31.921	0	0	0	0	0	0	0	0	0	2
8022	80.22	0	0	0	0	0	0	0	0	0	0	0	0	0	0	0	0	0	0	0	0	0	0	0	0	10.989	-10.989	19.033	0	0	0	1	0	0	17.883	2.027	16.961	0	0	0	0	0	0	0	0	0	0	0	0	1	-1	0	7.5503	-27.469	31.921	0	0	0	0	0	0	0	0	0	2
8023	80.23	0	0	0	0	0	0	0	0	0	0	0	0	0	0	0	0	0	0	0	0	0	0	0	0	10.989	-10.989	19.033	0	0	0	1	0	0	17.883	2.027	16.961	0	0	0	0	0	0	0	0	0	0	0	0	0	0	0	10.994	-10.994	19.042	0	0	0	0	0	0	0	0	0	2
8024	80.24	0	0	0	0	0	0	0	0	0	0	0	0	0	0	0	0	0	0	0	0	0	0	0	0	10.989	-10.989	19.033	0	0	0	1	0	0	17.761	2.1499	16.789	0	0	0	0	0	0	0	0	0	0	0	0	1	-1	0	7.5503	-27.469	31.921	0	0	0	1	0	0	17.47	2.0148	16.554	2
8025	80.25	0	0	0	0	0	0	0	0	0	0	0	0	0	0	0	0	0	0	0	0	0	0	0	0	10.989	-10.989	19.033	0	0	0	1	0	0	17.883	2.027	16.961	0	0	0	0	0	0	0	0	0	0	0	0	0	-1	0	-2.0278	-17.891	16.968	0	0	0	0	0	0	0	0	0	2
8026	80.26	0	0	0	0	0	0	0	0	0	0	0	0	0	0	0	0	0	0	0	0	0	1	0	0	17.755	2.1475	16.785	0	0	0	1	0	0	17.761	2.1499	16.789	0	0	0	0	0	0	0	0	0	0	0	0	1	-1	0	7.5503	-27.469	31.921	0	0	0	0	0	0	0	0	0	2
8027	80.27	0	0	0	0	0	0	0	0	0	0	0	0	0	0	0	0	0	0	0	0	0	0	0	0	10.989	-10.989	19.033	0	0	0	1	0	0	17.883	2.027	16.961	0	0	0	0	0	0	0	0	0	0	0	0	0	0	0	10.994	-10.994	19.042	0	0	0	0	0	0	0	0	0	2
8028	80.28	0	0	0	0	0	0	0	0	0	0	0	0	0	0	0	0	0	0	0	0	0	1	0	0	17.755	2.1475	16.785	0	0	0	1	0	0	17.761	2.1499	16.789	0	0	0	0	0	0	0	0	0	0	0	0	0	0	0	10.994	-10.994	19.042	0	0	0	1	0	0	17.47	2.0148	16.554	2
8029	80.29	0	0	0	0	0	0	0	0	0	0	0	0	0	0	0	0	0	0	0	0	0	1	0	0	17.755	2.1475	16.785	0	0	0	1	0	0	17.883	2.027	16.961	0	0	0	0	0	0	0	0	0	0	0	0	1	-1	0	7.5503	-27.469	31.921	0	0	0	0	0	0	0	0	0	0
8030	80.3	0	0	0	0	0	0	0	0	0	0	0	0	0	0	0	0	0	0	0	0	0	0	0	0	10.989	-10.989	19.033	0	0	0	1	0	0	17.761	2.1499	16.789	0	0	0	0	0	0	0	0	0	0	0	0	1	-1	0	7.5503	-27.469	31.921	0	0	0	0	0	0	0	0	0	2
8031	80.31	0	0	0	0	0	0	0	0	0	0	0	0	0	0	0	0	0	0	0	0	0	1	0	0	17.755	2.1475	16.785	0	0	0	1	0	0	17.761	2.1499	16.789	0	0	0	0	0	0	0	0	0	0	0	0	0	0	0	10.994	-10.994	19.042	0	0	0	0	0	0	0	0	0	2
8032	80.32	0	0	0	0	0	0	0	0	0	0	0	0	0	0	0	0	0	0	0	0	0	0	0	0	10.989	-10.989	19.033	0	0	0	1	0	0	17.883	2.027	16.961	0	0	0	0	0	0	0	0	0	0	0	0	1	-1	0	7.5503	-27.469	31.921	0	0	0	0	0	0	0	0	0	2
8033	80.33	0	0	0	0	0	0	0	0	0	0	0	0	0	0	0	0	0	0	0	0	0	1	0	0	17.755	2.1475	16.785	0	0	0	1	0	0	17.761	2.1499	16.789	0	0	0	0	0	0	0	0	0	0	0	0	0	-1	0	-2.0278	-17.891	16.968	0	0	0	0	0	0	0	0	0	0
8034	80.34	0	0	0	0	0	0	0	0	0	0	0	0	0	0	0	0	0	0	0	0	0	0	0	0	10.989	-10.989	19.033	0	0	0	1	0	0	17.761	2.1499	16.789	0	0	0	0	0	0	0	0	0	0	0	0	0	0	0	10.994	-10.994	19.042	0	0	0	0	0	0	0	0	0	2
8035	80.35	0	0	0	0	0	0	10.917	-10.917	18.908	0	0	0	0	0	0	0	0	0	0	0	0	0	0	0	10.989	-10.989	19.033	0	0	0	1	0	0	17.883	2.027	16.961	0	0	0	0	0	0	0	0	0	0	0	0	1	-1	0	7.5503	-27.469	31.921	0	0	0	1	0	0	17.47	2.0148	16.554	2
8036	80.36	0	0	0	0	0	0	10.917	-10.917	18.908	0	0	0	0	0	0	0	0	0	0	0	0	1	0	0	17.755	2.1475	16.785	0	0	0	1	0	0	17.761	2.1499	16.789	0	0	0	0	0	0	0	0	0	0	0	0	0	0	0	10.994	-10.994	19.042	0	0	0	0	0	0	0	0	0	2
8037	80.37	0	0	0	0	0	0	0	0	0	0	0	0	0	0	0	0	0	0	0	0	0	0	0	0	10.989	-10.989	19.033	0	0	0	1	0	0	17.883	2.027	16.961	0	0	0	0	0	0	0	0	0	0	0	0	0	-1	0	-2.0278	-17.891	16.968	0	0	0	0	0	0	0	0	0	0
8038	80.38	0	0	0	0	0	0	0	0	0	0	0	0	0	0	0	0	0	0	0	0	0	1	0	0	17.755	2.1475	16.785	0	0	0	1	0	0	17.761	2.1499	16.789	0	0	0	0	0	0	0	0	0	0	0	0	0	0	0	10.994	-10.994	19.042	0	0	0	1	0	0	17.47	2.0148	16.554	2
8039	80.39	0	0	0	0	0	0	0	0	0	0	0	0	0	0	0	0	0	0	0	0	0	0	0	0	10.989	-10.989	19.033	0	0	0	1	0	0	17.761	2.1499	16.789	0	0	0	0	0	0	0	0	0	0	0	0	1	-1	0	7.5503	-27.469	31.921	0	0	0	0	0	0	0	0	0	2
8040	80.4	0	0	0	0	0	0	10.917	-10.917	18.908	0	0	0	0	0	0	0	0	0	0	0	0	0	0	0	10.989	-10.989	19.033	0	0	0	1	0	0	17.883	2.027	16.961	0	0	0	0	0	0	0	0	0	0	0	0	1	-1	0	7.5503	-27.469	31.921	0	0	0	1	0	0	17.47	2.0148	16.554	2
8041	80.41	0	0	0	0	0	0	10.917	-10.917	18.908	0	0	0	0	0	0	0	0	0	0	0	0	1	0	0	17.755	2.1475	16.785	0	0	0	1	0	0	17.761	2.1499	16.789	0	0	0	0	0	0	0	0	0	0	0	0	1	-1	0	7.5503	-27.469	31.921	0	0	0	1	0	0	17.47	2.0148	16.554	2
8042	80.42	0	0	0	0	0	0	0	0	0	0	0	0	0	0	0	0	0	0	0	0	0	0	0	0	10.989	-10.989	19.033	0	0	0	1	0	0	17.883	2.027	16.961	0	0	0	0	0	0	0	0	0	0	0	0	1	-1	0	7.5503	-27.469	31.921	0	0	0	0	0	0	0	0	0	2
8043	80.43	0	0	0	0	0	0	10.917	-10.917	18.908	0	0	0	0	0	0	0	0	0	0	0	0	1	0	0	17.755	2.1475	16.785	0	0	0	1	0	0	17.883	2.027	16.961	0	0	0	0	0	0	0	0	0	0	0	0	0	0	0	10.994	-10.994	19.042	0	0	0	1	0	0	17.47	2.0148	16.554	2
8044	80.44	0	0	0	0	0	0	0	0	0	0	0	0	0	0	0	0	0	0	0	0	0	1	0	0	17.755	2.1475	16.785	0	0	0	1	0	0	17.883	2.027	16.961	0	0	0	1	0	0	17.883	2.027	16.961	0	0	0	1	-1	0	7.5503	-27.469	31.921	0	0	0	0	0	0	0	0	0	2
8045	80.45	0	0	0	0	0	0	0	0	0	0	0	0	0	0	0	0	0	0	0	0	0	0	0	0	10.989	-10.989	19.033	0	0	0	1	0	0	17.883	2.027	16.961	0	0	0	0	0	0	0	0	0	0	0	0	0	0	0	10.994	-10.994	19.042	0	0	0	0	0	0	0	0	0	2
8046	80.46	0	0	0	0	0	0	0	0	0	0	0	0	0	0	0	0	0	0	0	0	0	1	0	0	17.755	2.1475	16.785	0	0	0	1	0	0	17.883	2.027	16.961	0	0	0	0	0	0	0	0	0	0	0	0	0	-1	0	-2.0278	-17.891	16.968	0	0	0	1	0	0	17.47	2.0148	16.554	2
8047	80.47	0	0	0	0	0	0	0	0	0	0	0	0	0	0	0	0	0	0	0	0	0	0	0	0	10.989	-10.989	19.033	0	0	0	1	0	0	17.883	2.027	16.961	0	0	0	0	0	0	0	0	0	0	0	0	0	0	0	10.994	-10.994	19.042	0	0	0	0	0	0	0	0	0	2
8048	80.48	0	0	0	0	0	0	0	0	0	0	0	0	0	0	0	0	0	0	0	0	0	1	0	0	17.755	2.1475	16.785	0	0	0	1	0	0	17.761	2.1499	16.789	0	0	0	0	0	0	0	0	0	0	0	0	0	0	0	10.994	-10.994	19.042	0	0	0	0	0	0	10.93	-10.93	18.931	0
8049	80.49	0	0	0	0	0	0	0	0	0	0	0	0	0	0	0	0	0	0	0	0	0	1	0	0	17.755	2.1475	16.785	0	0	0	1	0	0	17.761	2.1499	16.789	0	0	0	0	0	0	0	0	0	0	0	0	1	-1	0	7.5503	-27.469	31.921	0	0	0	1	0	0	17.47	2.0148	16.554	2
8050	80.5	0	0	0	0	0	0	0	0	0	0	0	0	0	0	0	0	0	0	0	0	0	0	0	0	10.989	-10.989	19.033	0	0	0	1	0	0	17.883	2.027	16.961	0	0	0	0	0	0	0	0	0	0	0	0	0	0	0	0	0	0	0	0	0	0	0	0	0	0	0	2
8051	80.51	0	0	0	0	0	0	10.917	-10.917	18.908	0	0	0	0	0	0	0	0	0	0	0	0	1	0	0	17.755	2.1475	16.785	0	0	0	1	0	0	17.883	2.027	16.961	0	0	0	0	0	0	0	0	0	0	0	0	0	0	0	0	0	0	0	0	0	1	0	0	17.47	2.0148	16.554	2
8052	80.52	0	0	0	0	0	0	0	0	0	0	0	0	0	0	0	0	0	0	0	0	0	0	0	0	10.989	-10.989	19.033	0	0	0	1	0	0	17.761	2.1499	16.789	0	0	0	0	0	0	0	0	0	0	0	0	0	0	0	10.994	-10.994	19.042	0	0	0	0	0	0	0	0	0	2
8053	80.53	0	0	0	0	0	0	0	0	0	0	0	0	0	0	0	0	0	0	0	0	0	1	0	0	17.755	2.1475	16.785	0	0	0	1	0	0	17.761	2.1499	16.789	0	0	0	0	0	0	0	0	0	0	0	0	0	-1	0	-2.0278	-17.891	16.968	0	0	0	1	0	0	17.47	2.0148	16.554	2
8054	80.54	0	0	0	0	0	0	0	0	0	0	0	0	0	0	0	0	0	0	0	0	0	0	0	0	10.989	-10.989	19.033	0	0	0	1	0	0	17.761	2.1499	16.789	0	0	0	0	0	0	0	0	0	0	0	0	0	0	0	10.994	-10.994	19.042	0	0	0	0	0	0	0	0	0	2
8055	80.55	0	0	0	0	0	0	0	0	0	0	0	0	0	0	0	0	0	0	0	0	0	0	0	0	10.989	-10.989	19.033	0	0	0	1	0	0	17.883	2.027	16.961	0	0	0	0	0	0	0	0	0	0	0	0	1	-1	0	7.5503	-27.469	31.921	0	0	0	0	0	0	0	0	0	2
8056	80.56	0	0	0	0	0	0	0	0	0	0	0	0	0	0	0	0	0	0	0	0	0	1	0	0	17.755	2.1475	16.785	0	0	0	1	0	0	17.761	2.1499	16.789	0	0	0	0	0	0	0	0	0	0	0	0	0	0	0	10.994	-10.994	19.042	0	0	0	1	0	0	17.47	2.0148	16.554	2
8057	80.57	0	0	0	0	0	0	0	0	0	0	0	0	0	0	0	0	0	0	0	0	0	0	0	0	10.989	-10.989	19.033	0	0	0	1	0	0	17.761	2.1499	16.789	0	0	0	0	0	0	0	0	0	0	0	0	0	-1	0	-2.0278	-17.891	16.968	0	0	0	0	0	0	0	0	0	2
8058	80.58	0	0	0	0	0	0	0	0	0	0	0	0	0	0	0	0	0	0	0	0	0	0	0	0	10.989	-10.989	19.033	0	0	0	1	0	0	17.761	2.1499	16.789	0	0	0	0	0	0	0	0	0	0	0	0	0	0	0	10.994	-10.994	19.042	0	0	0	1	0	0	17.47	2.0148	16.554	2
8059	80.59	0	0	0	0	0	0	10.917	-10.917	18.908	0	0	0	0	0	0	0	0	0	0	0	0	0	0	0	10.989	-10.989	19.033	0	0	0	1	0	0	17.883	2.027	16.961	0	0	0	0	0	0	0	0	0	0	0	0	1	-1	0	7.5503	-27.469	31.921	0	0	0	1	0	0	17.47	2.0148	16.554	2
8060	80.6	0	0	0	0	0	0	0	0	0	0	0	0	0	0	0	0	0	0	0	0	0	0	0	0	10.989	-10.989	19.033	0	0	0	1	0	0	17.761	2.1499	16.789	0	0	0	0	0	0	0	0	0	0	0	0	1	-1	0	7.5503	-27.469	31.921	0	0	0	0	0	0	0	0	0	2
8061	80.61	0	0	0	0	0	0	0	0	0	0	0	0	0	0	0	0	0	0	0	0	0	1	0	0	17.755	2.1475	16.785	0	0	0	1	0	0	17.883	2.027	16.961	0	0	0	0	0	0	0	0	0	0	0	0	0	0	0	10.994	-10.994	19.042	0	0	0	1	0	0	17.47	2.0148	16.554	2
8062	80.62	0	0	0	0	0	0	10.917	-10.917	18.908	0	0	0	0	0	0	0	0	0	0	0	0	0	0	0	10.989	-10.989	19.033	0	0	0	1	0	0	17.761	2.1499	16.789	0	0	0	0	0	0	0	0	0	0	0	0	0	-1	0	-2.0278	-17.891	16.968	0	0	0	0	0	0	0	0	0	0
8063	80.63	0	0	0	0	0	0	0	0	0	0	0	0	0	0	0	0	0	0	0	0	0	0	0	0	10.989	-10.989	19.033	0	0	0	1	0	0	17.883	2.027	16.961	0	0	0	0	0	0	0	0	0	0	0	0	0	0	0	10.994	-10.994	19.042	0	0	0	1	0	0	17.47	2.0148	16.554	2
8064	80.64	0	0	0	0	0	0	0	0	0	0	0	0	0	0	0	0	0	0	0	0	0	1	0	0	17.755	2.1475	16.785	0	0	0	1	0	0	17.883	2.027	16.961	0	0	0	0	0	0	0	0	0	0	0	0	1	-1	0	7.5503	-27.469	31.921	0	0	0	1	0	0	17.47	2.0148	16.554	2
8065	80.65	0	0	0	0	0	0	10.917	-10.917	18.908	0	0	0	0	0	0	0	0	0	0	0	0	0	0	0	10.989	-10.989	19.033	0	0	0	1	0	0	17.883	2.027	16.961	0	0	0	0	0	0	0	0	0	0	0	0	0	0	0	10.994	-10.994	19.042	0	0	0	0	0	0	0	0	0	2
8066	80.66	0	0	0	0	0	0	10.917	-10.917	18.908	0	0	0	0	0	0	0	0	0	0	0	0	0	0	0	10.989	-10.989	19.033	0	0	0	1	0	0	17.761	2.1499	16.789	0	0	0	0	0	0	0	0	0	0	0	0	1	-1	0	7.5503	-27.469	31.921	0	0	0	1	0	0	17.47	2.0148	16.554	2
8067	80.67	0	0	0	0	0	0	0	0	0	0	0	0	0	0	0	0	0	0	0	0	0	0	0	0	10.989	-10.989	19.033	0	0	0	1	0	0	17.883	2.027	16.961	0	0	0	0	0	0	0	0	0	0	0	0	0	0	0	10.994	-10.994	19.042	0	0	0	0	0	0	0	0	0	2
8068	80.68	0	0	0	0	0	0	0	0	0	0	0	0	0	0	0	0	0	0	0	0	0	1	0	0	17.755	2.1475	16.785	0	0	0	1	0	0	17.883	2.027	16.961	0	0	0	1	0	0	17.883	2.027	16.961	0	0	0	0	0	0	10.994	-10.994	19.042	0	0	0	0	0	0	0	0	0	2
8069	80.69	0	0	0	0	0	0	0	0	0	0	0	0	0	0	0	0	0	0	0	0	0	1	0	0	17.755	2.1475	16.785	0	0	0	1	0	0	17.883	2.027	16.961	0	0	0	0	0	0	0	0	0	0	0	0	1	-1	0	7.5503	-27.469	31.921	0	0	0	1	0	0	17.47	2.0148	16.554	2
8070	80.7	0	0	0	0	0	0	0	0	0	0	0	0	0	0	0	0	0	0	0	0	0	0	0	0	10.989	-10.989	19.033	0	0	0	1	0	0	17.761	2.1499	16.789	0	0	0	0	0	0	0	0	0	0	0	0	0	0	0	10.994	-10.994	19.042	0	0	0	0	0	0	0	0	0	2
8071	80.71	0	0	0	0	0	0	0	0	0	0	0	0	0	0	0	0	0	0	0	0	0	1	0	0	17.755	2.1475	16.785	0	0	0	1	0	0	17.883	2.027	16.961	0	0	0	0	0	0	0	0	0	0	0	0	1	-1	0	7.5503	-27.469	31.921	0	0	0	1	0	0	17.47	2.0148	16.554	2
8072	80.72	0	0	0	0	0	0	0	0	0	0	0	0	0	0	0	0	0	0	0	0	0	1	0	0	17.755	2.1475	16.785	0	0	0	1	0	0	17.883	2.027	16.961	0	0	0	0	0	0	0	0	0	0	0	0	0	0	0	10.994	-10.994	19.042	0	0	0	0	0	0	0	0	0	2
8073	80.73	0	0	0	0	0	0	10.917	-10.917	18.908	0	0	0	0	0	0	0	0	0	0	0	0	0	0	0	10.989	-10.989	19.033	0	0	0	1	0	0	17.883	2.027	16.961	0	0	0	0	0	0	0	0	0	0	0	0	1	-1	0	7.5503	-27.469	31.921	0	0	0	0	0	0	0	0	0	2
8074	80.74	0	0	0	0	0	0	0	0	0	0	0	0	0	0	0	0	0	0	0	0	0	1	0	0	17.755	2.1475	16.785	0	0	0	1	0	0	17.761	2.1499	16.789	0	0	0	0	0	0	0	0	0	0	0	0	0	0	0	10.994	-10.994	19.042	0	0	0	1	0	0	17.47	2.0148	16.554	2
8075	80.75	0	0	0	0	0	0	0	0	0	0	0	0	0	0	0	0	0	0	0	0	0	0	0	0	10.989	-10.989	19.033	0	0	0	1	0	0	17.761	2.1499	16.789	0	0	0	0	0	0	0	0	0	0	0	0	1	-1	0	7.5503	-27.469	31.921	0	0	0	0	0	0	0	0	0	2
8076	80.76	0	0	0	0	0	0	0	0	0	0	0	0	0	0	0	0	0	0	0	0	0	1	0	0	17.755	2.1475	16.785	0	0	0	1	0	0	17.761	2.1499	16.789	0	0	0	0	0	0	0	0	0	0	0	0	0	0	0	10.994	-10.994	19.042	0	0	0	1	0	0	17.47	2.0148	16.554	2
8077	80.77	0	0	0	0	0	0	0	0	0	0	0	0	0	0	0	0	0	0	0	0	0	0	0	0	10.989	-10.989	19.033	0	0	0	1	0	0	17.883	2.027	16.961	0	0	0	0	0	0	0	0	0	0	0	0	0	0	0	10.994	-10.994	19.042	0	0	0	0	0	0	0	0	0	2
8078	80.78	0	0	0	0	0	0	0	0	0	0	0	0	0	0	0	0	0	0	0	0	0	1	0	0	17.755	2.1475	16.785	0	0	0	1	0	0	17.761	2.1499	16.789	0	0	0	0	0	0	0	0	0	0	0	0	1	-1	0	7.5503	-27.469	31.921	0	0	0	1	0	0	17.47	2.0148	16.554	2
8079	80.79	0	0	0	0	0	0	10.917	-10.917	18.908	0	0	0	0	0	0	0	0	0	0	0	0	0	0	0	10.989	-10.989	19.033	0	0	0	1	0	0	17.883	2.027	16.961	0	0	0	0	0	0	0	0	0	0	0	0	0	-1	0	-2.0278	-17.891	16.968	0	0	0	1	0	0	17.47	2.0148	16.554	2
8080	80.8	0	0	0	0	0	0	0	0	0	0	0	0	0	0	0	0	0	0	0	0	0	1	0	0	17.755	2.1475	16.785	0	0	0	1	0	0	17.761	2.1499	16.789	0	0	0	0	0	0	0	0	0	0	0	0	0	0	0	10.994	-10.994	19.042	0	0	0	0	0	0	0	0	0	2
8081	80.81	0	0	0	0	0	0	0	0	0	0	0	0	0	0	0	0	0	0	0	0	0	1	0	0	17.755	2.1475	16.785	0	0	0	1	0	0	17.761	2.1499	16.789	0	0	0	0	0	0	0	0	0	0	0	0	0	0	0	10.994	-10.994	19.042	0	0	0	1	0	0	17.47	2.0148	16.554	2
8082	80.82	0	0	0	0	0	0	0	0	0	0	0	0	0	0	0	0	0	0	0	0	0	0	0	0	10.989	-10.989	19.033	0	0	0	1	0	0	17.883	2.027	16.961	0	0	0	0	0	0	0	0	0	0	0	0	0	0	0	10.994	-10.994	19.042	0	0	0	1	0	0	17.47	2.0148	16.554	2
8083	80.83	0	0	0	0	0	0	0	0	0	0	0	0	0	0	0	0	0	0	0	0	0	1	0	0	17.755	2.1475	16.785	0	0	0	1	0	0	17.761	2.1499	16.789	0	0	0	0	0	0	0	0	0	0	0	0	1	-1	0	7.5503	-27.469	31.921	0	0	0	1	0	0	17.47	2.0148	16.554	0
8084	80.84	0	0	0	0	0	0	0	0	0	0	0	0	0	0	0	0	0	0	0	0	0	1	0	0	17.755	2.1475	16.785	0	0	0	1	0	0	17.761	2.1499	16.789	0	0	0	0	0	0	0	0	0	0	0	0	0	0	0	10.994	-10.994	19.042	0	0	0	0	0	0	0	0	0	2
8085	80.85	0	0	0	0	0	0	0	0	0	0	0	0	0	0	0	0	0	0	0	0	0	0	0	0	10.989	-10.989	19.033	0	0	0	1	0	0	17.761	2.1499	16.789	0	0	0	0	0	0	0	0	0	0	0	0	0	0	0	10.994	-10.994	19.042	0	0	0	1	0	0	17.47	2.0148	16.554	2
8086	80.86	0	0	0	0	0	0	0	0	0	0	0	0	0	0	0	0	0	0	0	0	0	1	0	0	17.755	2.1475	16.785	0	0	0	1	0	0	17.883	2.027	16.961	0	0	0	0	0	0	0	0	0	0	0	0	1	-1	0	7.5503	-27.469	31.921	0	0	0	1	0	0	17.471	2.0135	16.556	2
8087	80.87	0	0	0	0	0	0	0	0	0	0	0	0	0	0	0	0	0	0	0	0	0	0	0	0	10.989	-10.989	19.033	0	0	0	1	0	0	17.883	2.027	16.961	0	0	0	0	0	0	0	0	0	0	0	0	0	0	0	10.994	-10.994	19.042	0	0	0	0	0	0	0	0	0	2
8088	80.88	0	0	0	0	0	0	0	0	0	0	0	0	0	0	0	0	0	0	0	0	0	1	0	0	17.755	2.1475	16.785	0	0	0	1	0	0	17.883	2.027	16.961	0	0	0	0	0	0	0	0	0	0	0	0	1	-1	0	7.5503	-27.469	31.921	0	0	0	1	0	0	17.47	2.0148	16.554	2
8089	80.89	0	0	0	0	0	0	10.917	-10.917	18.908	0	0	0	0	0	0	0	0	0	0	0	0	1	0	0	17.755	2.1475	16.785	0	0	0	1	0	0	17.883	2.027	16.961	0	0	0	0	0	0	0	0	0	0	0	0	0	0	0	0	0	0	0	0	0	0	0	0	0	0	0	2
8090	80.9	0	0	0	0	0	0	10.917	-10.917	18.908	0	0	0	0	0	0	0	0	0	0	0	0	0	0	0	10.989	-10.989	19.033	0	0	0	1	0	0	17.761	2.1499	16.789	0	0	0	0	0	0	0	0	0	0	0	0	1	-1	0	7.5503	-27.469	31.921	0	0	0	1	0	0	17.47	2.0148	16.554	2
8091	80.91	0	0	0	0	0	0	10.917	-10.917	18.908	0	0	0	0	0	0	0	0	0	0	0	0	1	0	0	17.755	2.1475	16.785	0	0	0	1	0	0	17.883	2.027	16.961	0	0	0	0	0	0	0	0	0	0	0	0	0	0	0	10.994	-10.994	19.042	0	0	0	1	0	0	17.47	2.0148	16.554	2
8092	80.92	0	0	0	0	0	0	0	0	0	0	0	0	0	0	0	0	0	0	0	0	0	0	0	0	10.989	-10.989	19.033	0	0	0	1	0	0	17.883	2.027	16.961	0	0	0	0	0	0	0	0	0	0	0	0	1	-1	0	7.5503	-27.469	31.921	0	0	0	0	0	0	0	0	0	2
8093	80.93	0	0	0	0	0	0	0	0	0	0	0	0	0	0	0	0	0	0	0	0	0	0	0	0	10.989	-10.989	19.033	0	0	0	1	0	0	17.761	2.1499	16.789	0	0	0	0	0	0	0	0	0	0	0	0	0	0	0	10.994	-10.994	19.042	0	0	0	0	0	0	0	0	0	2
8094	80.94	0	0	0	0	0	0	0	0	0	0	0	0	0	0	0	0	0	0	0	0	0	0	0	0	10.989	-10.989	19.033	0	0	0	1	0	0	17.883	2.027	16.961	0	0	0	0	0	0	0	0	0	0	0	0	1	-1	0	7.5503	-27.469	31.921	0	0	0	1	0	0	17.47	2.0148	16.554	2
8095	80.95	0	0	0	0	0	0	0	0	0	0	0	0	0	0	0	0	0	0	0	0	0	0	0	0	10.989	-10.989	19.033	0	0	0	1	0	0	17.883	2.027	16.961	0	0	0	0	0	0	0	0	0	0	0	0	0	0	0	10.994	-10.994	19.042	0	0	0	0	0	0	0	0	0	2
8096	80.96	0	0	0	0	0	0	0	0	0	0	0	0	0	0	0	0	0	0	0	0	0	1	0	0	17.755	2.1475	16.785	0	0	0	1	0	0	17.883	2.027	16.961	0	0	0	0	0	0	0	0	0	0	0	0	0	0	0	10.994	-10.994	19.042	0	0	0	1	0	0	17.47	2.0148	16.554	2
8097	80.97	0	0	0	0	0	0	0	0	0	0	0	0	0	0	0	0	0	0	0	0	0	0	0	0	10.989	-10.989	19.033	0	0	0	1	0	0	17.883	2.027	16.961	0	0	0	0	0	0	0	0	0	0	0	0	1	-1	0	7.5503	-27.469	31.921	0	0	0	1	0	0	17.47	2.0148	16.554	0
8098	80.98	0	0	0	0	0	0	0	0	0	0	0	0	0	0	0	0	0	0	0	0	0	1	0	0	17.755	2.1475	16.785	0	0	0	1	0	0	17.761	2.1499	16.789	0	0	0	0	0	0	0	0	0	0	0	0	0	0	0	10.994	-10.994	19.042	0	0	0	1	0	0	17.478	2.0203	16.56	2
8099	80.99	0	0	0	0	0	0	10.917	-10.917	18.908	0	0	0	0	0	0	0	0	0	0	0	0	0	0	0	10.989	-10.989	19.033	0	0	0	1	0	0	17.761	2.1499	16.789	0	0	0	0	0	0	0	0	0	0	0	0	1	-1	0	7.5503	-27.469	31.921	0	0	0	1	0	0	17.47	2.0148	16.554	2
8100	81	0	0	0	0	0	0	0	0	0	0	0	0	0	0	0	0	0	0	0	0	0	0	0	0	10.989	-10.989	19.033	0	0	0	1	0	0	17.761	2.1499	16.789	0	0	0	0	0	0	0	0	0	0	0	0	1	-1	0	7.5503	-27.469	31.921	0	0	0	0	0	0	0	0	0	2
8101	81.01	0	0	0	0	0	0	10.917	-10.917	18.908	0	0	0	0	0	0	0	0	0	0	0	0	1	0	0	17.755	2.1475	16.785	0	0	0	1	0	0	17.761	2.1499	16.789	0	0	0	0	0	0	0	0	0	0	0	0	0	-1	0	-2.0278	-17.891	16.968	0	0	0	1	0	0	17.47	2.0148	16.554	2
8102	81.02	0	0	0	0	0	0	0	0	0	0	0	0	0	0	0	0	0	0	0	0	0	0	0	0	10.989	-10.989	19.033	0	0	0	1	0	0	17.761	2.1499	16.789	0	0	0	0	0	0	0	0	0	0	0	0	0	0	0	10.994	-10.994	19.042	0	0	0	1	0	0	17.47	2.0148	16.554	2
8103	81.03	0	0	0	0	0	0	0	0	0	0	0	0	0	0	0	0	0	0	0	0	0	1	0	0	17.755	2.1475	16.785	0	0	0	1	0	0	17.761	2.1499	16.789	0	0	0	0	0	0	0	0	0	0	0	0	1	-1	0	7.5503	-27.469	31.921	0	0	0	1	0	0	17.47	2.0148	16.554	2
8104	81.04	0	0	0	0	0	0	0	0	0	0	0	0	0	0	0	0	0	0	0	0	0	1	0	0	17.755	2.1475	16.785	0	0	0	1	0	0	17.883	2.027	16.961	0	0	0	0	0	0	0	0	0	0	0	0	1	-1	0	7.5503	-27.469	31.921	0	0	0	1	0	0	17.47	2.0148	16.554	2
8105	81.05	0	0	0	0	0	0	0	0	0	0	0	0	0	0	0	0	0	0	0	0	0	0	0	0	10.989	-10.989	19.033	0	0	0	1	0	0	17.761	2.1499	16.789	0	0	0	0	0	0	0	0	0	0	0	0	1	-1	0	7.5503	-27.469	31.921	0	0	0	0	0	0	0	0	0	2
8106	81.06	0	0	0	0	0	0	10.917	-10.917	18.908	0	0	0	0	0	0	0	0	0	0	0	0	1	0	0	17.755	2.1475	16.785	0	0	0	1	0	0	17.883	2.027	16.961	0	0	0	0	0	0	0	0	0	0	0	0	1	-1	0	7.5503	-27.469	31.921	0	0	0	1	0	0	17.47	2.0148	16.554	2
8107	81.07	0	0	0	0	0	0	10.917	-10.917	18.908	0	0	0	0	0	0	0	0	0	0	0	0	0	0	0	10.989	-10.989	19.033	0	0	0	1	0	0	17.761	2.1499	16.789	0	0	0	0	0	0	0	0	0	0	0	0	1	-1	0	7.5503	-27.469	31.921	0	0	0	0	0	0	0	0	0	2
8108	81.08	0	0	0	0	0	0	0	0	0	0	0	0	0	0	0	0	0	0	0	0	0	1	0	0	17.755	2.1475	16.785	0	0	0	1	0	0	17.761	2.1499	16.789	0	0	0	0	0	0	0	0	0	0	0	0	0	-1	0	-2.0278	-17.891	16.968	0	0	0	1	0	0	17.47	2.0148	16.554	2
8109	81.09	0	0	0	0	0	0	0	0	0	0	0	0	0	0	0	0	0	0	0	0	0	1	0	0	17.755	2.1475	16.785	0	0	0	1	0	0	17.761	2.1499	16.789	0	0	0	0	0	0	0	0	0	0	0	0	0	0	0	10.994	-10.994	19.042	0	0	0	1	0	0	17.47	2.0148	16.554	2
8110	81.1	0	0	0	0	0	0	10.917	-10.917	18.908	0	0	0	0	0	0	0	0	0	0	0	0	0	0	0	10.989	-10.989	19.033	0	0	0	1	0	0	17.761	2.1499	16.789	0	0	0	0	0	0	0	0	0	0	0	0	0	0	0	10.994	-10.994	19.042	0	0	0	1	0	0	17.47	2.0148	16.554	2
8111	81.11	0	0	0	0	0	0	10.917	-10.917	18.908	0	0	0	0	0	0	0	0	0	0	0	0	1	0	0	17.755	2.1475	16.785	0	0	0	1	0	0	17.761	2.1499	16.789	0	0	0	0	0	0	0	0	0	0	0	0	1	-1	0	7.5503	-27.469	31.921	0	0	0	1	0	0	17.47	2.0148	16.554	2
8112	81.12	0	0	0	0	0	0	10.917	-10.917	18.908	0	0	0	0	0	0	0	0	0	0	0	0	0	0	0	10.989	-10.989	19.033	0	0	0	1	0	0	17.883	2.027	16.961	0	0	0	0	0	0	0	0	0	0	0	0	0	0	0	10.994	-10.994	19.042	0	0	0	0	0	0	0	0	0	0
8113	81.13	0	0	0	0	0	0	0	0	0	0	0	0	0	0	0	0	0	0	0	0	0	1	0	0	17.755	2.1475	16.785	0	0	0	1	0	0	17.883	2.027	16.961	0	0	0	0	0	0	0	0	0	0	0	0	0	0	0	0	0	0	0	0	0	1	0	0	17.47	2.0148	16.554	2
8114	81.14	0	0	0	0	0	0	0	0	0	0	0	0	0	0	0	0	0	0	0	0	0	1	0	0	17.755	2.1475	16.785	0	0	0	1	0	0	17.761	2.1499	16.789	0	0	0	0	0	0	0	0	0	0	0	0	1	-1	0	7.5503	-27.469	31.921	0	0	0	1	0	0	17.47	2.0148	16.554	2
8115	81.15	0	0	0	0	0	0	0	0	0	0	0	0	0	0	0	0	0	0	0	0	0	0	0	0	10.989	-10.989	19.033	0	0	0	1	0	0	17.883	2.027	16.961	0	0	0	0	0	0	0	0	0	0	0	0	0	0	0	10.994	-10.994	19.042	0	0	0	0	0	0	0	0	0	2
8116	81.16	0	0	0	0	0	0	10.917	-10.917	18.908	0	0	0	0	0	0	0	0	0	0	0	0	1	0	0	17.755	2.1475	16.785	0	0	0	1	0	0	17.761	2.1499	16.789	0	0	0	0	0	0	0	0	0	0	0	0	1	-1	0	7.5503	-27.469	31.921	0	0	0	0	0	0	19.496	19.487	19.491	2
8117	81.17	0	0	0	0	0	0	0	0	0	0	0	0	0	0	0	0	0	0	0	0	0	0	0	0	10.989	-10.989	19.033	0	0	0	1	0	0	17.761	2.1499	16.789	0	0	0	0	0	0	0	0	0	0	0	0	0	-1	0	-2.0278	-17.891	16.968	0	0	0	0	0	0	0	0	0	2
8118	81.18	0	0	0	0	0	0	10.917	-10.917	18.908	0	0	0	0	0	0	0	0	0	0	0	0	1	0	0	17.755	2.1475	16.785	0	0	0	1	0	0	17.761	2.1499	16.789	0	0	0	0	0	0	0	0	0	0	0	0	0	0	0	10.994	-10.994	19.042	0	0	0	1	0	0	17.47	2.0148	16.554	2
8119	81.19	0	0	0	0	0	0	0	0	0	0	0	0	0	0	0	0	0	0	0	0	0	1	0	0	17.755	2.1475	16.785	0	0	0	1	0	0	17.883	2.027	16.961	0	0	0	0	0	0	0	0	0	0	0	0	1	-1	0	7.5503	-27.469	31.921	0	0	0	1	0	0	17.47	2.0148	16.554	2
8120	81.2	0	0	0	0	0	0	10.917	-10.917	18.908	0	0	0	0	0	0	0	0	0	0	0	0	0	0	0	10.989	-10.989	19.033	0	0	0	1	0	0	17.761	2.1499	16.789	0	0	0	0	0	0	0	0	0	0	0	0	1	-1	0	7.5503	-27.469	31.921	0	0	0	0	0	0	0	0	0	2
8121	81.21	0	0	0	0	0	0	10.917	-10.917	18.908	0	0	0	0	0	0	0	0	0	0	0	0	1	0	0	17.755	2.1475	16.785	0	0	0	1	0	0	17.761	2.1499	16.789	0	0	0	0	0	0	0	0	0	0	0	0	1	-1	0	7.5503	-27.469	31.921	0	0	0	1	0	0	17.471	2.0135	16.556	2
8122	81.22	0	0	0	0	0	0	0	0	0	0	0	0	0	0	0	0	0	0	0	0	0	0	0	0	10.989	-10.989	19.033	0	0	0	1	0	0	17.883	2.027	16.961	0	0	0	0	0	0	0	0	0	0	0	0	0	0	0	10.994	-10.994	19.042	0	0	0	0	0	0	0	0	0	2
8123	81.23	0	0	0	0	0	0	10.917	-10.917	18.908	0	0	0	0	0	0	0	0	0	0	0	0	1	0	0	17.755	2.1475	16.785	0	0	0	1	0	0	17.761	2.1499	16.789	0	0	0	0	0	0	0	0	0	0	0	0	0	0	0	10.994	-10.994	19.042	0	0	0	0	0	0	0	0	0	2
8124	81.24	0	0	0	0	0	0	0	0	0	0	0	0	0	0	0	0	0	0	0	0	0	1	0	0	17.755	2.1475	16.785	0	0	0	1	0	0	17.761	2.1499	16.789	0	0	0	0	0	0	0	0	0	0	0	0	1	-1	0	7.5503	-27.469	31.921	0	0	0	1	0	0	17.47	2.0148	16.554	2
8125	81.25	0	0	0	0	0	0	10.917	-10.917	18.908	0	0	0	0	0	0	0	0	0	0	0	0	1	0	0	17.755	2.1475	16.785	0	0	0	1	0	0	17.883	2.027	16.961	0	0	0	0	0	0	0	0	0	0	0	0	1	-1	0	7.5503	-27.469	31.921	0	0	0	1	0	0	17.47	2.0148	16.554	2
8126	81.26	0	0	0	0	0	0	0	0	0	0	0	0	0	0	0	0	0	0	0	0	0	1	0	0	17.755	2.1475	16.785	0	0	0	1	0	0	17.761	2.1499	16.789	0	0	0	0	0	0	0	0	0	0	0	0	0	0	0	10.994	-10.994	19.042	0	0	0	1	0	0	17.47	2.0148	16.554	2
8127	81.27	0	0	0	0	0	0	10.917	-10.917	18.908	0	0	0	0	0	0	0	0	0	0	0	0	1	0	0	17.755	2.1475	16.785	0	0	0	1	0	0	17.761	2.1499	16.789	0	0	0	0	0	0	0	0	0	0	0	0	1	-1	0	7.5503	-27.469	31.921	0	0	0	0	0	0	0	0	0	2
8128	81.28	0	0	0	0	0	0	10.917	-10.917	18.908	0	0	0	0	0	0	0	0	0	0	0	0	0	0	0	10.989	-10.989	19.033	0	0	0	1	0	0	17.761	2.1499	16.789	0	0	0	0	0	0	0	0	0	0	0	0	1	-1	0	7.5503	-27.469	31.921	0	0	0	0	0	0	0	0	0	2
8129	81.29	0	0	0	0	0	0	0	0	0	0	0	0	0	0	0	0	0	0	0	0	0	1	0	0	17.755	2.1475	16.785	0	0	0	1	0	0	17.761	2.1499	16.789	0	0	0	0	0	0	0	0	0	0	0	0	0	0	0	0	0	0	0	0	0	1	0	0	17.47	2.0148	16.554	2
8130	81.3	0	0	0	0	0	0	0	0	0	0	0	0	0	0	0	0	0	0	0	0	0	1	0	0	17.755	2.1475	16.785	0	0	0	1	0	0	17.883	2.027	16.961	0	0	0	0	0	0	0	0	0	0	0	0	1	-1	0	7.5503	-27.469	31.921	0	0	0	0	0	0	0	0	0	2
8131	81.31	0	0	0	0	0	0	0	0	0	0	0	0	0	0	0	0	0	0	0	0	0	1	0	0	17.755	2.1475	16.785	0	0	0	1	0	0	17.761	2.1499	16.789	0	0	0	0	0	0	0	0	0	0	0	0	0	0	0	10.994	-10.994	19.042	0	0	0	1	0	0	17.47	2.0148	16.554	2
8132	81.32	0	0	0	0	0	0	0	0	0	0	0	0	0	0	0	0	0	0	0	0	0	0	0	0	10.989	-10.989	19.033	0	0	0	1	0	0	17.761	2.1499	16.789	0	0	0	0	0	0	0	0	0	0	0	0	1	-1	0	7.5503	-27.469	31.921	0	0	0	0	0	0	0	0	0	2
8133	81.33	0	0	0	0	0	0	10.917	-10.917	18.908	0	0	0	0	0	0	0	0	0	0	0	0	1	0	0	17.755	2.1475	16.785	0	0	0	1	0	0	17.883	2.027	16.961	0	0	0	0	0	0	0	0	0	0	0	0	0	0	0	10.994	-10.994	19.042	0	0	0	1	0	0	17.47	2.0148	16.554	2
8134	81.34	0	0	0	0	0	0	0	0	0	0	0	0	0	0	0	0	0	0	0	0	0	0	0	0	10.989	-10.989	19.033	0	0	0	1	0	0	17.761	2.1499	16.789	0	0	0	0	0	0	0	0	0	0	0	0	1	-1	0	7.5503	-27.469	31.921	0	0	0	1	0	0	17.47	2.0148	16.554	2
8135	81.35	0	0	0	0	0	0	0	0	0	0	0	0	0	0	0	0	0	0	0	0	0	0	0	0	10.989	-10.989	19.033	0	0	0	1	0	0	17.761	2.1499	16.789	0	0	0	0	0	0	0	0	0	0	0	0	0	0	0	10.994	-10.994	19.042	0	0	0	0	0	0	0	0	0	2
8136	81.36	0	0	0	0	0	0	0	0	0	0	0	0	0	0	0	0	0	0	0	0	0	1	0	0	17.755	2.1475	16.785	0	0	0	1	0	0	17.761	2.1499	16.789	0	0	0	0	0	0	0	0	0	0	0	0	0	0	0	0	0	0	0	0	0	0	0	0	0	0	0	2
8137	81.37	0	0	0	0	0	0	10.917	-10.917	18.908	0	0	0	0	0	0	0	0	0	0	0	0	0	0	0	10.989	-10.989	19.033	0	0	0	1	0	0	17.761	2.1499	16.789	0	0	0	0	0	0	0	0	0	0	0	0	1	-1	0	7.5503	-27.469	31.921	0	0	0	0	0	0	0	0	0	2
8138	81.38	0	0	0	0	0	0	0	0	0	0	0	0	0	0	0	0	0	0	0	0	0	0	0	0	10.989	-10.989	19.033	0	0	0	1	0	0	17.883	2.027	16.961	0	0	0	0	0	0	0	0	0	0	0	0	0	0	0	10.994	-10.994	19.042	0	0	0	0	0	0	0	0	0	2
8139	81.39	0	0	0	0	0	0	0	0	0	0	0	0	0	0	0	0	0	0	0	0	0	1	0	0	17.755	2.1475	16.785	0	0	0	1	0	0	17.761	2.1499	16.789	0	0	0	0	0	0	0	0	0	0	0	0	0	0	0	0	0	0	0	0	0	0	0	0	0	0	0	2
8140	81.4	0	0	0	0	0	0	0	0	0	0	0	0	0	0	0	0	0	0	0	0	0	1	0	0	17.755	2.1475	16.785	0	0	0	1	0	0	17.761	2.1499	16.789	0	0	0	0	0	0	0	0	0	0	0	0	1	-1	0	7.5503	-27.469	31.921	0	0	0	0	0	0	0	0	0	2
8141	81.41	0	0	0	0	0	0	10.917	-10.917	18.908	0	0	0	0	0	0	0	0	0	0	0	0	1	0	0	17.755	2.1475	16.785	0	0	0	1	0	0	17.883	2.027	16.961	0	0	0	0	0	0	0	0	0	0	0	0	0	0	0	10.994	-10.994	19.042	0	0	0	0	0	0	0	0	0	2
8142	81.42	0	0	0	0	0	0	0	0	0	0	0	0	0	0	0	0	0	0	0	0	0	1	0	0	17.755	2.1475	16.785	0	0	0	1	0	0	17.883	2.027	16.961	0	0	0	0	0	0	0	0	0	0	0	0	0	0	0	10.994	-10.994	19.042	0	0	0	0	0	0	0	0	0	2
8143	81.43	0	0	0	0	0	0	10.917	-10.917	18.908	0	0	0	0	0	0	0	0	0	0	0	0	1	0	0	17.755	2.1475	16.785	0	0	0	1	0	0	17.761	2.1499	16.789	0	0	0	0	0	0	0	0	0	0	0	0	0	-1	0	-2.0278	-17.891	16.968	0	0	0	0	0	0	0	0	0	2
8144	81.44	0	0	0	0	0	0	10.917	-10.917	18.908	0	0	0	0	0	0	0	0	0	0	0	0	1	0	0	17.755	2.1475	16.785	0	0	0	1	0	0	17.761	2.1499	16.789	0	0	0	0	0	0	0	0	0	0	0	0	0	0	0	10.994	-10.994	19.042	0	0	0	0	0	0	0	0	0	2
8145	81.45	0	0	0	0	0	0	0	0	0	0	0	0	0	0	0	0	0	0	0	0	0	0	0	0	10.989	-10.989	19.033	0	0	0	1	0	0	17.883	2.027	16.961	0	0	0	0	0	0	0	0	0	0	0	0	1	-1	0	7.5503	-27.469	31.921	0	0	0	0	0	0	0	0	0	2
8146	81.46	0	0	0	0	0	0	10.917	-10.917	18.908	0	0	0	0	0	0	0	0	0	0	0	0	1	0	0	17.755	2.1475	16.785	0	0	0	1	0	0	17.761	2.1499	16.789	0	0	0	0	0	0	0	0	0	0	0	0	0	0	0	10.994	-10.994	19.042	0	0	0	1	0	0	17.471	2.0135	16.556	2
8147	81.47	0	0	0	0	0	0	10.917	-10.917	18.908	0	0	0	0	0	0	0	0	0	0	0	0	1	0	0	17.755	2.1475	16.785	0	0	0	1	0	0	17.883	2.027	16.961	0	0	0	0	0	0	0	0	0	0	0	0	0	0	0	0	0	0	0	0	0	0	0	0	0	0	0	2
8148	81.48	0	0	0	0	0	0	0	0	0	0	0	0	0	0	0	0	0	0	0	0	0	1	0	0	17.755	2.1475	16.785	0	0	0	1	0	0	17.761	2.1499	16.789	0	0	0	0	0	0	0	0	0	0	0	0	0	0	0	10.994	-10.994	19.042	0	0	0	0	0	0	0	0	0	2
8149	81.49	0	0	0	0	0	0	0	0	0	0	0	0	0	0	0	0	0	0	0	0	0	1	0	0	17.755	2.1475	16.785	0	0	0	1	0	0	17.761	2.1499	16.789	0	0	0	0	0	0	0	0	0	0	0	0	0	0	0	10.994	-10.994	19.042	0	0	0	0	0	0	0	0	0	2
8150	81.5	0	0	0	0	0	0	0	0	0	0	0	0	0	0	0	0	0	0	0	0	0	0	0	0	10.989	-10.989	19.033	0	0	0	1	0	0	17.883	2.027	16.961	0	0	0	0	0	0	0	0	0	0	0	0	1	-1	0	7.5503	-27.469	31.921	0	0	0	0	0	0	0	0	0	2
8151	81.51	0	0	0	0	0	0	10.917	-10.917	18.908	0	0	0	0	0	0	0	0	0	0	0	0	1	0	0	17.755	2.1475	16.785	0	0	0	1	0	0	17.883	2.027	16.961	0	0	0	0	0	0	0	0	0	0	0	0	1	-1	0	7.5503	-27.469	31.921	0	0	0	0	0	0	0	0	0	2
8152	81.52	0	0	0	0	0	0	0	0	0	0	0	0	0	0	0	0	0	0	0	0	0	0	0	0	10.989	-10.989	19.033	0	0	0	1	0	0	17.883	2.027	16.961	0	0	0	0	0	0	0	0	0	0	0	0	1	-1	0	7.5503	-27.469	31.921	0	0	0	0	0	0	0	0	0	2
8153	81.53	0	0	0	0	0	0	0	0	0	0	0	0	0	0	0	0	0	0	0	0	0	0	0	0	10.989	-10.989	19.033	0	0	0	1	0	0	17.761	2.1499	16.789	0	0	0	0	0	0	0	0	0	0	0	0	0	0	0	10.994	-10.994	19.042	0	0	0	1	0	0	17.47	2.0148	16.554	2
8154	81.54	0	0	0	0	0	0	10.917	-10.917	18.908	0	0	0	0	0	0	0	0	0	0	0	0	0	0	0	10.989	-10.989	19.033	0	0	0	1	0	0	17.761	2.1499	16.789	0	0	0	0	0	0	0	0	0	0	0	0	0	0	0	0	0	0	0	0	0	0	0	0	0	0	0	2
8155	81.55	0	0	0	0	0	0	10.917	-10.917	18.908	0	0	0	0	0	0	0	0	0	0	0	0	1	0	0	17.755	2.1475	16.785	0	0	0	1	0	0	17.883	2.027	16.961	0	0	0	0	0	0	0	0	0	0	0	0	0	0	0	10.994	-10.994	19.042	0	0	0	0	0	0	0	0	0	2
8156	81.56	0	0	0	0	0	0	0	0	0	0	0	0	0	0	0	0	0	0	0	0	0	0	0	0	10.989	-10.989	19.033	0	0	0	1	0	0	17.883	2.027	16.961	0	0	0	0	0	0	0	0	0	0	0	0	0	-1	0	-2.0278	-17.891	16.968	0	0	0	1	0	0	17.47	2.0148	16.554	2
8157	81.57	0	0	0	0	0	0	0	0	0	0	0	0	0	0	0	0	0	0	0	0	0	0	0	0	10.989	-10.989	19.033	0	0	0	1	0	0	17.883	2.027	16.961	0	0	0	0	0	0	0	0	0	0	0	0	1	-1	0	7.5503	-27.469	31.921	0	0	0	0	0	0	0	0	0	2
8158	81.58	0	0	0	0	0	0	0	0	0	0	0	0	0	0	0	0	0	0	0	0	0	0	0	0	10.989	-10.989	19.033	0	0	0	1	0	0	17.761	2.1499	16.789	0	0	0	0	0	0	0	0	0	0	0	0	0	0	0	10.994	-10.994	19.042	0	0	0	1	0	0	17.47	2.0148	16.554	2
8159	81.59	0	0	0	0	0	0	10.917	-10.917	18.908	0	0	0	0	0	0	0	0	0	0	0	0	1	0	0	17.755	2.1475	16.785	0	0	0	1	0	0	17.761	2.1499	16.789	0	0	0	0	0	0	0	0	0	0	0	0	0	0	0	10.994	-10.994	19.042	0	0	0	0	0	0	0	0	0	2
8160	81.6	0	0	0	0	0	0	0	0	0	0	0	0	0	0	0	0	0	0	0	0	0	0	0	0	10.989	-10.989	19.033	0	0	0	1	0	0	17.761	2.1499	16.789	0	0	0	0	0	0	0	0	0	0	0	0	0	0	0	10.994	-10.994	19.042	0	0	0	0	0	0	0	0	0	2
8161	81.61	0	0	0	0	0	0	10.917	-10.917	18.908	0	0	0	0	0	0	0	0	0	0	0	0	1	0	0	17.755	2.1475	16.785	0	0	0	1	0	0	17.761	2.1499	16.789	0	0	0	0	0	0	0	0	0	0	0	0	0	-1	0	-2.0278	-17.891	16.968	0	0	0	1	0	0	17.47	2.0148	16.554	0
8162	81.62	0	0	0	0	0	0	0	0	0	0	0	0	0	0	0	0	0	0	0	0	0	0	0	0	10.989	-10.989	19.033	0	0	0	1	0	0	17.883	2.027	16.961	0	0	0	0	0	0	0	0	0	0	0	0	1	-1	0	7.5503	-27.469	31.921	0	0	0	0	0	0	0	0	0	2
8163	81.63	0	0	0	0	0	0	10.917	-10.917	18.908	0	0	0	0	0	0	0	0	0	0	0	0	0	0	0	10.989	-10.989	19.033	0	0	0	1	0	0	17.883	2.027	16.961	0	0	0	0	0	0	0	0	0	0	0	0	0	0	0	10.994	-10.994	19.042	0	0	0	1	0	0	17.47	2.0148	16.554	2
8164	81.64	0	0	0	0	0	0	0	0	0	0	0	0	0	0	0	0	0	0	0	0	0	1	0	0	17.755	2.1475	16.785	0	0	0	1	0	0	17.761	2.1499	16.789	0	0	0	0	0	0	0	0	0	0	0	0	1	-1	0	7.5503	-27.469	31.921	0	0	0	1	0	0	17.47	2.0148	16.554	2
8165	81.65	0	0	0	0	0	0	0	0	0	0	0	0	0	0	0	0	0	0	0	0	0	1	0	0	17.755	2.1475	16.785	0	0	0	1	0	0	17.883	2.027	16.961	0	0	0	0	0	0	0	0	0	0	0	0	0	0	0	10.994	-10.994	19.042	0	0	0	1	0	0	17.47	2.0148	16.554	2
8166	81.66	0	0	0	0	0	0	10.917	-10.917	18.908	0	0	0	0	0	0	0	0	0	0	0	0	1	0	0	17.755	2.1475	16.785	0	0	0	1	0	0	17.883	2.027	16.961	0	0	0	0	0	0	0	0	0	0	0	0	0	0	0	10.994	-10.994	19.042	0	0	0	1	0	0	17.47	2.0148	16.554	2
8167	81.67	0	0	0	0	0	0	0	0	0	0	0	0	0	0	0	0	0	0	0	0	0	1	0	0	17.755	2.1475	16.785	0	0	0	1	0	0	17.883	2.027	16.961	0	0	0	0	0	0	0	0	0	0	0	0	0	0	0	10.994	-10.994	19.042	0	0	0	0	0	0	0	0	0	2
8168	81.68	0	0	0	0	0	0	10.917	-10.917	18.908	0	0	0	0	0	0	0	0	0	0	0	0	1	0	0	17.755	2.1475	16.785	0	0	0	1	0	0	17.761	2.1499	16.789	0	0	0	0	0	0	0	0	0	0	0	0	0	0	0	10.994	-10.994	19.042	0	0	0	0	0	0	0	0	0	2
8169	81.69	0	0	0	0	0	0	0	0	0	0	0	0	0	0	0	0	0	0	0	0	0	0	0	0	10.989	-10.989	19.033	0	0	0	1	0	0	17.761	2.1499	16.789	0	0	0	0	0	0	0	0	0	0	0	0	1	-1	0	7.5503	-27.469	31.921	0	0	0	1	0	0	17.47	2.0148	16.554	2
8170	81.7	0	0	0	0	0	0	10.917	-10.917	18.908	0	0	0	0	0	0	0	0	0	0	0	0	0	0	0	10.989	-10.989	19.033	0	0	0	1	0	0	17.761	2.1499	16.789	0	0	0	0	0	0	0	0	0	0	0	0	0	0	0	0	0	0	0	0	0	0	0	0	0	0	0	2
8171	81.71	0	0	0	0	0	0	0	0	0	0	0	0	0	0	0	0	0	0	0	0	0	1	0	0	17.755	2.1475	16.785	0	0	0	1	0	0	17.761	2.1499	16.789	0	0	0	0	0	0	0	0	0	0	0	0	1	-1	0	7.5503	-27.469	31.921	0	0	0	1	0	0	17.47	2.0148	16.554	2
8172	81.72	0	0	0	0	0	0	10.917	-10.917	18.908	0	0	0	0	0	0	0	0	0	0	0	0	0	0	0	10.989	-10.989	19.033	0	0	0	1	0	0	17.883	2.027	16.961	0	0	0	0	0	0	0	0	0	0	0	0	0	0	0	10.994	-10.994	19.042	0	0	0	0	0	0	0	0	0	2
8173	81.73	0	0	0	0	0	0	10.917	-10.917	18.908	0	0	0	0	0	0	0	0	0	0	0	0	1	0	0	17.755	2.1475	16.785	0	0	0	1	0	0	17.761	2.1499	16.789	0	0	0	0	0	0	0	0	0	0	0	0	1	-1	0	7.5503	-27.469	31.921	0	0	0	0	0	0	0	0	0	2
8174	81.74	0	0	0	0	0	0	10.917	-10.917	18.908	0	0	0	0	0	0	0	0	0	0	0	0	0	0	0	10.989	-10.989	19.033	0	0	0	1	0	0	17.883	2.027	16.961	0	0	0	0	0	0	0	0	0	0	0	0	0	0	0	10.994	-10.994	19.042	0	0	0	1	0	0	17.482	2.0162	16.566	2
8175	81.75	0	0	0	0	0	0	0	0	0	0	0	0	0	0	0	0	0	0	0	0	0	1	0	0	17.755	2.1475	16.785	0	0	0	1	0	0	17.761	2.1499	16.789	0	0	0	0	0	0	0	0	0	0	0	0	1	-1	0	7.5503	-27.469	31.921	0	0	0	0	0	0	0	0	0	2
8176	81.76	0	0	0	0	0	0	0	0	0	0	0	0	0	0	0	0	0	0	0	0	0	1	0	0	17.755	2.1475	16.785	0	0	0	1	0	0	17.761	2.1499	16.789	0	0	0	0	0	0	0	0	0	0	0	0	1	-1	0	7.5503	-27.469	31.921	0	0	0	1	0	0	17.47	2.0148	16.554	2
8177	81.77	0	0	0	0	0	0	10.917	-10.917	18.908	0	0	0	0	0	0	0	0	0	0	0	0	0	0	0	10.989	-10.989	19.033	0	0	0	1	0	0	17.883	2.027	16.961	0	0	0	0	0	0	0	0	0	0	0	0	1	-1	0	7.5503	-27.469	31.921	0	0	0	0	0	0	0	0	0	2
8178	81.78	0	0	0	0	0	0	10.917	-10.917	18.908	0	0	0	0	0	0	0	0	0	0	0	0	1	0	0	17.755	2.1475	16.785	0	0	0	1	0	0	17.883	2.027	16.961	0	0	0	0	0	0	0	0	0	0	0	0	0	0	0	10.994	-10.994	19.042	0	0	0	1	0	0	17.47	2.0148	16.554	2
8179	81.79	0	0	0	0	0	0	0	0	0	0	0	0	0	0	0	0	0	0	0	0	0	0	0	0	10.989	-10.989	19.033	0	0	0	1	0	0	17.761	2.1499	16.789	0	0	0	0	0	0	0	0	0	0	0	0	0	0	0	10.994	-10.994	19.042	0	0	0	0	0	0	0	0	0	2
8180	81.8	0	0	0	0	0	0	10.917	-10.917	18.908	0	0	0	0	0	0	0	0	0	0	0	0	0	0	0	10.989	-10.989	19.033	0	0	0	1	0	0	17.761	2.1499	16.789	0	0	0	0	0	0	0	0	0	0	0	0	0	0	0	10.994	-10.994	19.042	0	0	0	0	0	0	0	0	0	2
8181	81.81	0	0	0	0	0	0	10.917	-10.917	18.908	0	0	0	0	0	0	0	0	0	0	0	0	1	0	0	17.755	2.1475	16.785	0	0	0	1	0	0	17.761	2.1499	16.789	0	0	0	0	0	0	0	0	0	0	0	0	1	-1	0	7.5503	-27.469	31.921	0	0	0	1	0	0	17.47	2.0148	16.554	0
8182	81.82	0	0	0	0	0	0	0	0	0	0	0	0	0	0	0	0	0	0	0	0	0	1	0	0	17.755	2.1475	16.785	0	0	0	1	0	0	17.761	2.1499	16.789	0	0	0	0	0	0	0	0	0	0	0	0	1	-1	0	7.5503	-27.469	31.921	0	0	0	0	0	0	0	0	0	2
8183	81.83	0	0	0	0	0	0	0	0	0	0	0	0	0	0	0	0	0	0	0	0	0	0	0	0	10.989	-10.989	19.033	0	0	0	1	0	0	17.761	2.1499	16.789	0	0	0	0	0	0	0	0	0	0	0	0	1	-1	0	7.5503	-27.469	31.921	0	0	0	0	0	0	0	0	0	2
8184	81.84	0	0	0	0	0	0	0	0	0	0	0	0	0	0	0	0	0	0	0	0	0	1	0	0	17.755	2.1475	16.785	0	0	0	1	0	0	17.761	2.1499	16.789	0	0	0	0	0	0	0	0	0	0	0	0	1	-1	0	7.5503	-27.469	31.921	0	0	0	1	0	0	17.47	2.0148	16.554	2
8185	81.85	0	0	0	0	0	0	0	0	0	0	0	0	0	0	0	0	0	0	0	0	0	0	0	0	10.989	-10.989	19.033	0	0	0	1	0	0	17.761	2.1499	16.789	0	0	0	0	0	0	0	0	0	0	0	0	1	-1	0	7.5503	-27.469	31.921	0	0	0	0	0	0	0	0	0	2
8186	81.86	0	0	0	0	0	0	10.917	-10.917	18.908	0	0	0	0	0	0	0	0	0	0	0	0	1	0	0	17.755	2.1475	16.785	0	0	0	1	0	0	17.883	2.027	16.961	0	0	0	1	0	0	17.883	2.027	16.961	0	0	0	1	-1	0	7.5503	-27.469	31.921	0	0	0	1	0	0	17.47	2.0148	16.554	2
8187	81.87	0	0	0	0	0	0	10.917	-10.917	18.908	0	0	0	0	0	0	0	0	0	0	0	0	1	0	0	17.755	2.1475	16.785	0	0	0	1	0	0	17.761	2.1499	16.789	0	0	0	0	0	0	0	0	0	0	0	0	1	-1	0	7.5503	-27.469	31.921	0	0	0	0	0	0	0	0	0	2
8188	81.88	0	0	0	0	0	0	10.917	-10.917	18.908	0	0	0	0	0	0	0	0	0	0	0	0	0	0	0	10.989	-10.989	19.033	0	0	0	1	0	0	17.761	2.1499	16.789	0	0	0	0	0	0	0	0	0	0	0	0	1	-1	0	7.5503	-27.469	31.921	0	0	0	0	0	0	0	0	0	2
8189	81.89	0	0	0	0	0	0	0	0	0	0	0	0	0	0	0	0	0	0	0	0	0	0	0	0	10.989	-10.989	19.033	0	0	0	1	0	0	17.761	2.1499	16.789	0	0	0	0	0	0	0	0	0	0	0	0	1	-1	0	7.5503	-27.469	31.921	0	0	0	0	0	0	0	0	0	2
8190	81.9	0	0	0	0	0	0	0	0	0	0	0	0	0	0	0	0	0	0	0	0	0	0	0	0	10.989	-10.989	19.033	0	0	0	1	0	0	17.761	2.1499	16.789	0	0	0	0	0	0	0	0	0	0	0	0	1	-1	0	7.5503	-27.469	31.921	0	0	0	0	0	0	0	0	0	2
8191	81.91	0	0	0	0	0	0	10.917	-10.917	18.908	0	0	0	0	0	0	0	0	0	0	0	0	1	0	0	17.755	2.1475	16.785	0	0	0	1	0	0	17.761	2.1499	16.789	0	0	0	0	0	0	0	0	0	0	0	0	1	-1	0	7.5503	-27.469	31.921	0	0	0	0	0	0	0	0	0	2
8192	81.92	0	0	0	0	0	0	10.917	-10.917	18.908	0	0	0	0	0	0	0	0	0	0	0	0	0	0	0	10.989	-10.989	19.033	0	0	0	1	0	0	17.883	2.027	16.961	0	0	0	0	0	0	0	0	0	0	0	0	1	-1	0	7.5503	-27.469	31.921	0	0	0	0	0	0	0	0	0	2
8193	81.93	0	0	0	0	0	0	0	0	0	0	0	0	0	0	0	0	0	0	0	0	0	1	0	0	17.755	2.1475	16.785	0	0	0	1	0	0	17.761	2.1499	16.789	0	0	0	0	0	0	0	0	0	0	0	0	0	0	0	10.994	-10.994	19.042	0	0	0	1	0	0	17.47	2.0148	16.554	2
8194	81.94	0	0	0	0	0	0	0	0	0	0	0	0	0	0	0	0	0	0	0	0	0	0	0	0	10.989	-10.989	19.033	0	0	0	1	0	0	17.761	2.1499	16.789	0	0	0	0	0	0	0	0	0	0	0	0	0	0	0	10.994	-10.994	19.042	0	0	0	0	0	0	0	0	0	2
8195	81.95	0	0	0	0	0	0	0	0	0	0	0	0	0	0	0	0	0	0	0	0	0	0	0	0	10.989	-10.989	19.033	0	0	0	1	0	0	17.761	2.1499	16.789	0	0	0	0	0	0	0	0	0	0	0	0	1	-1	0	7.5503	-27.469	31.921	0	0	0	0	0	0	0	0	0	2
8196	81.96	0	0	0	0	0	0	10.917	-10.917	18.908	0	0	0	0	0	0	0	0	0	0	0	0	1	0	0	17.755	2.1475	16.785	0	0	0	1	0	0	17.761	2.1499	16.789	0	0	0	0	0	0	0	0	0	0	0	0	1	-1	0	7.5503	-27.469	31.921	0	0	0	1	0	0	17.47	2.0148	16.554	2
8197	81.97	0	0	0	0	0	0	10.917	-10.917	18.908	0	0	0	0	0	0	0	0	0	0	0	0	0	0	0	10.989	-10.989	19.033	0	0	0	1	0	0	17.883	2.027	16.961	0	0	0	0	0	0	0	0	0	0	0	0	0	0	0	10.994	-10.994	19.042	0	0	0	0	0	0	0	0	0	2
8198	81.98	0	0	0	0	0	0	10.917	-10.917	18.908	0	0	0	0	0	0	0	0	0	0	0	0	1	0	0	17.755	2.1475	16.785	0	0	0	1	0	0	17.883	2.027	16.961	0	0	0	0	0	0	0	0	0	0	0	0	1	-1	0	7.5503	-27.469	31.921	0	0	0	1	0	0	17.47	2.0148	16.554	2
8199	81.99	0	0	0	0	0	0	10.917	-10.917	18.908	0	0	0	0	0	0	0	0	0	0	0	0	0	0	0	10.989	-10.989	19.033	0	0	0	1	0	0	17.761	2.1499	16.789	0	0	0	0	0	0	0	0	0	0	0	0	1	-1	0	7.5503	-27.469	31.921	0	0	0	0	0	0	0	0	0	2
8200	82	0	0	0	0	0	0	0	0	0	0	0	0	0	0	0	0	0	0	0	0	0	0	0	0	10.989	-10.989	19.033	0	0	0	1	0	0	17.761	2.1499	16.789	0	0	0	0	0	0	0	0	0	0	0	0	0	0	0	10.994	-10.994	19.042	0	0	0	0	0	0	0	0	0	2
8201	82.01	0	0	0	0	0	0	10.917	-10.917	18.908	0	0	0	0	0	0	0	0	0	0	0	0	0	0	0	10.989	-10.989	19.033	0	0	0	1	0	0	17.761	2.1499	16.789	0	0	0	0	0	0	0	0	0	0	0	0	0	0	0	10.994	-10.994	19.042	0	0	0	1	0	0	17.47	2.0148	16.554	2
8202	82.02	0	0	0	0	0	0	0	0	0	0	0	0	0	0	0	0	0	0	0	0	0	0	0	0	10.989	-10.989	19.033	0	0	0	1	0	0	17.761	2.1499	16.789	0	0	0	0	0	0	0	0	0	0	0	0	0	0	0	0	0	0	0	0	0	0	0	0	0	0	0	2
8203	82.03	0	0	0	0	0	0	0	0	0	0	0	0	0	0	0	0	0	0	0	0	0	1	0	0	17.755	2.1475	16.785	0	0	0	1	0	0	17.761	2.1499	16.789	0	0	0	0	0	0	0	0	0	0	0	0	1	-1	0	7.5503	-27.469	31.921	0	0	0	1	0	0	17.47	2.0148	16.554	2
8204	82.04	0	0	0	0	0	0	0	0	0	0	0	0	0	0	0	0	0	0	0	0	0	0	0	0	10.989	-10.989	19.033	0	0	0	1	0	0	17.883	2.027	16.961	0	0	0	0	0	0	0	0	0	0	0	0	0	0	0	10.994	-10.994	19.042	0	0	0	1	0	0	17.47	2.0148	16.554	2
8205	82.05	0	0	0	0	0	0	0	0	0	0	0	0	0	0	0	0	0	0	0	0	0	0	0	0	10.989	-10.989	19.033	0	0	0	1	0	0	17.761	2.1499	16.789	0	0	0	0	0	0	0	0	0	0	0	0	1	-1	0	7.5503	-27.469	31.921	0	0	0	0	0	0	0	0	0	2
8206	82.06	0	0	0	0	0	0	10.917	-10.917	18.908	0	0	0	0	0	0	0	0	0	0	0	0	0	0	0	10.989	-10.989	19.033	0	0	0	1	0	0	17.761	2.1499	16.789	0	0	0	0	0	0	0	0	0	0	0	0	1	-1	0	7.5503	-27.469	31.921	0	0	0	1	0	0	17.47	2.0148	16.554	2
8207	82.07	0	0	0	0	0	0	0	0	0	0	0	0	0	0	0	0	0	0	0	0	0	0	0	0	10.989	-10.989	19.033	0	0	0	1	0	0	17.883	2.027	16.961	0	0	0	0	0	0	0	0	0	0	0	0	1	-1	0	7.5503	-27.469	31.921	0	0	0	0	0	0	0	0	0	2
8208	82.08	0	0	0	0	0	0	0	0	0	0	0	0	0	0	0	0	0	0	0	0	0	1	0	0	17.755	2.1475	16.785	0	0	0	1	0	0	17.761	2.1499	16.789	0	0	0	0	0	0	0	0	0	0	0	0	1	-1	0	7.5503	-27.469	31.921	0	0	0	0	0	0	0	0	0	2
8209	82.09	0	0	0	0	0	0	10.917	-10.917	18.908	0	0	0	0	0	0	0	0	0	0	0	0	0	0	0	10.989	-10.989	19.033	0	0	0	1	0	0	17.761	2.1499	16.789	0	0	0	0	0	0	0	0	0	0	0	0	1	-1	0	7.5503	-27.469	31.921	0	0	0	0	0	0	0	0	0	2
8210	82.1	0	0	0	0	0	0	0	0	0	0	0	0	0	0	0	0	0	0	0	0	0	0	0	0	10.989	-10.989	19.033	0	0	0	1	0	0	17.761	2.1499	16.789	0	0	0	0	0	0	0	0	0	0	0	0	1	-1	0	7.5503	-27.469	31.921	0	0	0	0	0	0	0	0	0	2
8211	82.11	0	0	0	0	0	0	0	0	0	0	0	0	0	0	0	0	0	0	0	0	0	1	0	0	17.755	2.1475	16.785	0	0	0	1	0	0	17.761	2.1499	16.789	0	0	0	0	0	0	0	0	0	0	0	0	1	-1	0	7.5503	-27.469	31.921	0	0	0	1	0	0	17.47	2.0148	16.554	2
8212	82.12	0	0	0	0	0	0	10.917	-10.917	18.908	0	0	0	0	0	0	0	0	0	0	0	0	0	0	0	10.989	-10.989	19.033	0	0	0	1	0	0	17.761	2.1499	16.789	0	0	0	0	0	0	0	0	0	0	0	0	0	0	0	0	0	0	0	0	0	1	0	0	17.47	2.0148	16.554	2
8213	82.13	0	0	0	0	0	0	0	0	0	0	0	0	0	0	0	0	0	0	0	0	0	1	0	0	17.755	2.1475	16.785	0	0	0	1	0	0	17.883	2.027	16.961	0	0	0	0	0	0	0	0	0	0	0	0	1	-1	0	7.5503	-27.469	31.921	0	0	0	0	0	0	0	0	0	2
8214	82.14	0	0	0	0	0	0	0	0	0	0	0	0	0	0	0	0	0	0	0	0	0	0	0	0	10.989	-10.989	19.033	0	0	0	1	0	0	17.883	2.027	16.961	0	0	0	0	0	0	0	0	0	0	0	0	0	0	0	10.994	-10.994	19.042	0	0	0	0	0	0	0	0	0	2
8215	82.15	0	0	0	0	0	0	10.917	-10.917	18.908	0	0	0	0	0	0	0	0	0	0	0	0	0	0	0	10.989	-10.989	19.033	0	0	0	1	0	0	17.761	2.1499	16.789	0	0	0	0	0	0	0	0	0	0	0	0	1	-1	0	7.5503	-27.469	31.921	0	0	0	0	0	0	0	0	0	2
8216	82.16	0	0	0	0	0	0	10.917	-10.917	18.908	0	0	0	0	0	0	0	0	0	0	0	0	1	0	0	17.755	2.1475	16.785	0	0	0	1	0	0	17.761	2.1499	16.789	0	0	0	0	0	0	0	0	0	0	0	0	1	-1	0	7.5503	-27.469	31.921	0	0	0	0	0	0	0	0	0	2
8217	82.17	0	0	0	0	0	0	10.917	-10.917	18.908	0	0	0	0	0	0	0	0	0	0	0	0	0	0	0	10.989	-10.989	19.033	0	0	0	1	0	0	17.761	2.1499	16.789	0	0	0	0	0	0	0	0	0	0	0	0	1	-1	0	7.5503	-27.469	31.921	0	0	0	0	0	0	0	0	0	2
8218	82.18	0	0	0	0	0	0	10.917	-10.917	18.908	0	0	0	0	0	0	0	0	0	0	0	0	1	0	0	17.755	2.1475	16.785	0	0	0	1	0	0	17.761	2.1499	16.789	0	0	0	0	0	0	0	0	0	0	0	0	0	0	0	0	0	0	0	0	0	0	0	0	0	0	0	2
8219	82.19	0	0	0	0	0	0	0	0	0	0	0	0	0	0	0	0	0	0	0	0	0	1	0	0	17.755	2.1475	16.785	0	0	0	1	0	0	17.761	2.1499	16.789	0	0	0	0	0	0	0	0	0	0	0	0	1	-1	0	7.5503	-27.469	31.921	0	0	0	0	0	0	0	0	0	2
8220	82.2	0	0	0	0	0	0	0	0	0	0	0	0	0	0	0	0	0	0	0	0	0	1	0	0	17.755	2.1475	16.785	0	0	0	1	0	0	17.761	2.1499	16.789	0	0	0	0	0	0	0	0	0	0	0	0	1	-1	0	7.5503	-27.469	31.921	0	0	0	0	0	0	0	0	0	2
8221	82.21	0	0	0	0	0	0	0	0	0	0	0	0	0	0	0	0	0	0	0	0	0	1	0	0	17.755	2.1475	16.785	0	0	0	1	0	0	17.761	2.1499	16.789	0	0	0	0	0	0	0	0	0	0	0	0	0	0	0	0	0	0	0	0	0	0	0	0	0	0	0	2
8222	82.22	0	0	0	0	0	0	10.917	-10.917	18.908	0	0	0	0	0	0	0	0	0	0	0	0	0	0	0	10.989	-10.989	19.033	0	0	0	1	0	0	17.883	2.027	16.961	0	0	0	0	0	0	0	0	0	0	0	0	0	0	0	10.994	-10.994	19.042	0	0	0	0	0	0	0	0	0	2
8223	82.23	0	0	0	0	0	0	0	0	0	0	0	0	0	0	0	0	0	0	0	0	0	1	0	0	17.755	2.1475	16.785	0	0	0	1	0	0	17.761	2.1499	16.789	0	0	0	0	0	0	0	0	0	0	0	0	1	-1	0	7.5503	-27.469	31.921	0	0	0	0	0	0	0	0	0	0
8224	82.24	0	0	0	0	0	0	10.917	-10.917	18.908	0	0	0	0	0	0	0	0	0	0	0	0	1	0	0	17.755	2.1475	16.785	0	0	0	1	0	0	17.883	2.027	16.961	0	0	0	0	0	0	0	0	0	0	0	0	0	0	0	0	0	0	0	0	0	0	0	0	0	0	0	2
8225	82.25	0	0	0	0	0	0	0	0	0	0	0	0	0	0	0	0	0	0	0	0	0	0	0	0	10.989	-10.989	19.033	0	0	0	1	0	0	17.761	2.1499	16.789	0	0	0	0	0	0	0	0	0	0	0	0	1	-1	0	7.5503	-27.469	31.921	0	0	0	0	0	0	0	0	0	0
8226	82.26	0	0	0	0	0	0	10.917	-10.917	18.908	0	0	0	0	0	0	0	0	0	0	0	0	0	0	0	10.989	-10.989	19.033	0	0	0	1	0	0	17.761	2.1499	16.789	0	0	0	1	0	0	17.883	2.027	16.961	0	0	0	0	0	0	10.994	-10.994	19.042	0	0	0	0	0	0	0	0	0	2
8227	82.27	0	0	0	0	0	0	0	0	0	0	0	0	0	0	0	0	0	0	0	0	0	0	0	0	10.989	-10.989	19.033	0	0	0	1	0	0	17.883	2.027	16.961	0	0	0	0	0	0	0	0	0	0	0	0	0	-1	0	-2.0278	-17.891	16.968	0	0	0	0	0	0	0	0	0	2
8228	82.28	0	0	0	0	0	0	10.917	-10.917	18.908	0	0	0	0	0	0	0	0	0	0	0	0	1	0	0	17.755	2.1475	16.785	0	0	0	1	0	0	17.761	2.1499	16.789	0	0	0	0	0	0	0	0	0	0	0	0	0	-1	0	-2.0278	-17.891	16.968	0	0	0	1	0	0	17.47	2.0148	16.554	2
8229	82.29	0	0	0	0	0	0	0	0	0	0	0	0	0	0	0	0	0	0	0	0	0	0	0	0	10.989	-10.989	19.033	0	0	0	1	0	0	17.883	2.027	16.961	0	0	0	0	0	0	0	0	0	0	0	0	0	0	0	10.994	-10.994	19.042	0	0	0	0	0	0	0	0	0	2
8230	82.3	0	0	0	0	0	0	0	0	0	0	0	0	0	0	0	0	0	0	0	0	0	1	0	0	17.755	2.1475	16.785	0	0	0	1	0	0	17.883	2.027	16.961	0	0	0	0	0	0	0	0	0	0	0	0	1	-1	0	7.5503	-27.469	31.921	0	0	0	1	0	0	17.47	2.0148	16.554	2
8231	82.31	0	0	0	0	0	0	0	0	0	0	0	0	0	0	0	0	0	0	0	0	0	1	0	0	17.755	2.1475	16.785	0	0	0	1	0	0	17.883	2.027	16.961	0	0	0	0	0	0	0	0	0	0	0	0	0	0	0	10.994	-10.994	19.042	0	0	0	0	0	0	0	0	0	2
8232	82.32	0	0	0	0	0	0	10.917	-10.917	18.908	0	0	0	0	0	0	0	0	0	0	0	0	0	0	0	10.989	-10.989	19.033	0	0	0	1	0	0	17.883	2.027	16.961	0	0	0	0	0	0	0	0	0	0	0	0	1	-1	0	7.5503	-27.469	31.921	0	0	0	0	0	0	0	0	0	2
8233	82.33	0	0	0	0	0	0	10.917	-10.917	18.908	0	0	0	0	0	0	0	0	0	0	0	0	1	0	0	17.755	2.1475	16.785	0	0	0	1	0	0	17.761	2.1499	16.789	0	0	0	0	0	0	0	0	0	0	0	0	0	0	0	10.994	-10.994	19.042	0	0	0	1	0	0	17.47	2.0148	16.554	2
8234	82.34	0	0	0	0	0	0	0	0	0	0	0	0	0	0	0	0	0	0	0	0	0	0	0	0	10.989	-10.989	19.033	0	0	0	1	0	0	17.883	2.027	16.961	0	0	0	0	0	0	0	0	0	0	0	0	0	0	0	0	0	0	0	0	0	0	0	0	0	0	0	2
8235	82.35	0	0	0	0	0	0	0	0	0	0	0	0	0	0	0	0	0	0	0	0	0	1	0	0	17.755	2.1475	16.785	0	0	0	0	0	0	10.991	-10.991	19.037	0	0	0	0	0	0	0	0	0	0	0	0	1	-1	0	7.5503	-27.469	31.921	0	0	0	0	0	0	0	0	0	2
8236	82.36	0	0	0	0	0	0	0	0	0	0	0	0	0	0	0	0	0	0	0	0	0	1	0	0	17.755	2.1475	16.785	0	0	0	1	0	0	17.761	2.1499	16.789	0	0	0	0	0	0	0	0	0	0	0	0	0	0	0	10.994	-10.994	19.042	0	0	0	0	0	0	0	0	0	2
8237	82.37	0	0	0	0	0	0	10.917	-10.917	18.908	0	0	0	0	0	0	0	0	0	0	0	0	0	0	0	10.989	-10.989	19.033	0	0	0	1	0	0	17.883	2.027	16.961	0	0	0	0	0	0	0	0	0	0	0	0	0	-1	0	-2.0278	-17.891	16.968	0	0	0	0	0	0	0	0	0	2
8238	82.38	0	0	0	0	0	0	0	0	0	0	0	0	0	0	0	0	0	0	0	0	0	1	0	0	17.755	2.1475	16.785	0	0	0	1	0	0	17.761	2.1499	16.789	0	0	0	0	0	0	0	0	0	0	0	0	0	-1	0	-2.0278	-17.891	16.968	0	0	0	0	0	0	0	0	0	2
8239	82.39	0	0	0	0	0	0	0	0	0	0	0	0	0	0	0	0	0	0	0	0	0	1	0	0	17.755	2.1475	16.785	0	0	0	1	0	0	17.761	2.1499	16.789	0	0	0	0	0	0	0	0	0	0	0	0	1	-1	0	7.5503	-27.469	31.921	0	0	0	0	0	0	0	0	0	2
8240	82.4	0	0	0	0	0	0	0	0	0	0	0	0	0	0	0	0	0	0	0	0	0	0	0	0	10.989	-10.989	19.033	0	0	0	1	0	0	17.761	2.1499	16.789	0	0	0	0	0	0	0	0	0	0	0	0	1	-1	0	7.5503	-27.469	31.921	0	0	0	0	0	0	0	0	0	2
8241	82.41	0	0	0	0	0	0	0	0	0	0	0	0	0	0	0	0	0	0	0	0	0	1	0	0	17.755	2.1475	16.785	0	0	0	1	0	0	17.761	2.1499	16.789	0	0	0	1	0	0	17.883	2.027	16.961	0	0	0	0	0	0	10.994	-10.994	19.042	0	0	0	1	0	0	17.47	2.0148	16.554	2
8242	82.42	0	0	0	0	0	0	0	0	0	0	0	0	0	0	0	0	0	0	0	0	0	0	0	0	10.989	-10.989	19.033	0	0	0	1	0	0	17.883	2.027	16.961	0	0	0	0	0	0	0	0	0	0	0	0	0	-1	0	-2.0278	-17.891	16.968	0	0	0	0	0	0	0	0	0	2
8243	82.43	0	0	0	0	0	0	10.917	-10.917	18.908	0	0	0	0	0	0	0	0	0	0	0	0	1	0	0	17.755	2.1475	16.785	0	0	0	1	0	0	17.883	2.027	16.961	0	0	0	0	0	0	0	0	0	0	0	0	1	-1	0	7.5503	-27.469	31.921	0	0	0	0	0	0	0	0	0	2
8244	82.44	0	0	0	0	0	0	10.917	-10.917	18.908	0	0	0	0	0	0	0	0	0	0	0	0	0	0	0	10.989	-10.989	19.033	0	0	0	1	0	0	17.883	2.027	16.961	0	0	0	0	0	0	0	0	0	0	0	0	1	-1	0	7.5503	-27.469	31.921	0	0	0	0	0	0	0	0	0	2
8245	82.45	0	0	0	0	0	0	0	0	0	0	0	0	0	0	0	0	0	0	0	0	0	0	0	0	10.989	-10.989	19.033	0	0	0	1	0	0	17.761	2.1499	16.789	0	0	0	0	0	0	0	0	0	0	0	0	1	-1	0	7.5503	-27.469	31.921	0	0	0	1	0	0	17.47	2.0148	16.554	0
8246	82.46	0	0	0	0	0	0	10.917	-10.917	18.908	0	0	0	0	0	0	0	0	0	0	0	0	1	0	0	17.755	2.1475	16.785	0	0	0	1	0	0	17.761	2.1499	16.789	0	0	0	0	0	0	0	0	0	0	0	0	1	-1	0	7.5503	-27.469	31.921	0	0	0	0	0	0	0	0	0	2
8247	82.47	0	0	0	0	0	0	0	0	0	0	0	0	0	0	0	0	0	0	0	0	0	0	0	0	10.989	-10.989	19.033	0	0	0	1	0	0	17.761	2.1499	16.789	0	0	0	0	0	0	0	0	0	0	0	0	1	-1	0	7.5503	-27.469	31.921	0	0	0	0	0	0	0	0	0	2
8248	82.48	0	0	0	0	0	0	10.917	-10.917	18.908	0	0	0	0	0	0	0	0	0	0	0	0	1	0	0	17.755	2.1475	16.785	0	0	0	1	0	0	17.761	2.1499	16.789	0	0	0	0	0	0	0	0	0	0	0	0	0	0	0	10.994	-10.994	19.042	0	0	0	1	0	0	17.47	2.0148	16.554	2
8249	82.49	0	0	0	0	0	0	0	0	0	0	0	0	0	0	0	0	0	0	0	0	0	1	0	0	17.755	2.1475	16.785	0	0	0	1	0	0	17.883	2.027	16.961	0	0	0	0	0	0	0	0	0	0	0	0	1	-1	0	7.5503	-27.469	31.921	0	0	0	0	0	0	0	0	0	2
8250	82.5	0	0	0	0	0	0	0	0	0	0	0	0	0	0	0	0	0	0	0	0	0	0	0	0	10.989	-10.989	19.033	0	0	0	1	0	0	17.761	2.1499	16.789	0	0	0	0	0	0	0	0	0	0	0	0	0	0	0	10.994	-10.994	19.042	0	0	0	0	0	0	0	0	0	2
8251	82.51	0	0	0	0	0	0	10.917	-10.917	18.908	0	0	0	0	0	0	0	0	0	0	0	0	1	0	0	17.755	2.1475	16.785	0	0	0	1	0	0	17.883	2.027	16.961	0	0	0	0	0	0	0	0	0	0	0	0	1	-1	0	7.5503	-27.469	31.921	0	0	0	1	0	0	17.47	2.0148	16.554	2
8252	82.52	0	0	0	0	0	0	0	0	0	0	0	0	0	0	0	0	0	0	0	0	0	0	0	0	10.989	-10.989	19.033	0	0	0	1	0	0	17.883	2.027	16.961	0	0	0	0	0	0	0	0	0	0	0	0	1	-1	0	7.5503	-27.469	31.921	0	0	0	0	0	0	0	0	0	2
8253	82.53	0	0	0	0	0	0	10.917	-10.917	18.908	0	0	0	0	0	0	0	0	0	0	0	0	1	0	0	17.755	2.1475	16.785	0	0	0	1	0	0	17.761	2.1499	16.789	0	0	0	0	0	0	0	0	0	0	0	0	0	-1	0	-2.0278	-17.891	16.968	0	0	0	0	0	0	0	0	0	2
8254	82.54	0	0	0	0	0	0	0	0	0	0	0	0	0	0	0	0	0	0	0	0	0	1	0	0	17.755	2.1475	16.785	0	0	0	1	0	0	17.761	2.1499	16.789	0	0	0	0	0	0	0	0	0	0	0	0	0	0	0	10.994	-10.994	19.042	0	0	0	1	0	0	17.47	2.0148	16.554	2
8255	82.55	0	0	0	0	0	0	0	0	0	0	0	0	0	0	0	0	0	0	0	0	0	0	0	0	10.989	-10.989	19.033	0	0	0	1	0	0	17.761	2.1499	16.789	0	0	0	0	0	0	0	0	0	0	0	0	0	-1	0	-2.0278	-17.891	16.968	0	0	0	0	0	0	0	0	0	2
8256	82.56	0	0	0	0	0	0	0	0	0	0	0	0	0	0	0	0	0	0	0	0	0	1	0	0	17.755	2.1475	16.785	0	0	0	1	0	0	17.761	2.1499	16.789	0	0	0	1	0	0	17.883	2.027	16.961	0	0	0	1	-1	0	7.5503	-27.469	31.921	0	0	0	0	0	0	0	0	0	2
8257	82.57	0	0	0	0	0	0	0	0	0	0	0	0	0	0	0	0	0	0	0	0	0	1	0	0	17.755	2.1475	16.785	0	0	0	1	0	0	17.883	2.027	16.961	0	0	0	0	0	0	0	0	0	0	0	0	0	0	0	0	0	0	0	0	0	0	0	0	0	0	0	2
8258	82.58	0	0	0	0	0	0	0	0	0	0	0	0	0	0	0	0	0	0	0	0	0	1	0	0	17.755	2.1475	16.785	0	0	0	1	0	0	17.761	2.1499	16.789	0	0	0	0	0	0	0	0	0	0	0	0	1	-1	0	7.5503	-27.469	31.921	0	0	0	1	0	0	17.47	2.0148	16.554	2
8259	82.59	0	0	0	0	0	0	0	0	0	0	0	0	0	0	0	0	0	0	0	0	0	1	0	0	17.755	2.1475	16.785	0	0	0	1	0	0	17.761	2.1499	16.789	0	0	0	0	0	0	0	0	0	0	0	0	0	-1	0	-2.0278	-17.891	16.968	0	0	0	0	0	0	0	0	0	2
8260	82.6	0	0	0	0	0	0	0	0	0	0	0	0	0	0	0	0	0	0	0	0	0	1	0	0	17.755	2.1475	16.785	0	0	0	1	0	0	17.761	2.1499	16.789	0	0	0	0	0	0	0	0	0	0	0	0	1	-1	0	7.5503	-27.469	31.921	0	0	0	0	0	0	0	0	0	2
8261	82.61	0	0	0	0	0	0	0	0	0	0	0	0	0	0	0	0	0	0	0	0	0	0	0	0	10.989	-10.989	19.033	0	0	0	1	0	0	17.761	2.1499	16.789	0	0	0	0	0	0	0	0	0	0	0	0	1	-1	0	7.5503	-27.469	31.921	0	0	0	1	0	0	17.47	2.0148	16.554	2
8262	82.62	0	0	0	0	0	0	0	0	0	0	0	0	0	0	0	0	0	0	0	0	0	0	0	0	10.989	-10.989	19.033	0	0	0	1	0	0	17.761	2.1499	16.789	0	0	0	0	0	0	0	0	0	0	0	0	0	0	0	0	0	0	0	0	0	0	0	0	0	0	0	2
8263	82.63	0	0	0	0	0	0	0	0	0	0	0	0	0	0	0	0	0	0	0	0	0	1	0	0	17.755	2.1475	16.785	0	0	0	1	0	0	17.761	2.1499	16.789	0	0	0	0	0	0	0	0	0	0	0	0	0	0	0	10.994	-10.994	19.042	0	0	0	1	0	0	17.47	2.0148	16.554	2
8264	82.64	0	0	0	0	0	0	10.917	-10.917	18.908	0	0	0	0	0	0	0	0	0	0	0	0	1	0	0	17.755	2.1475	16.785	0	0	0	1	0	0	17.761	2.1499	16.789	0	0	0	0	0	0	0	0	0	0	0	0	1	-1	0	7.5503	-27.469	31.921	0	0	0	0	0	0	0	0	0	2
8265	82.65	0	0	0	0	0	0	0	0	0	0	0	0	0	0	0	0	0	0	0	0	0	1	0	0	17.755	2.1475	16.785	0	0	0	1	0	0	17.883	2.027	16.961	0	0	0	0	0	0	0	0	0	0	0	0	0	0	0	0	0	0	0	0	0	0	0	0	0	0	0	2
8266	82.66	0	0	0	0	0	0	0	0	0	0	0	0	0	0	0	0	0	0	0	0	0	1	0	0	17.755	2.1475	16.785	0	0	0	1	0	0	17.761	2.1499	16.789	0	0	0	0	0	0	0	0	0	0	0	0	1	-1	0	7.5503	-27.469	31.921	0	0	0	1	0	0	17.47	2.0148	16.554	2
8267	82.67	0	0	0	0	0	0	0	0	0	0	0	0	0	0	0	0	0	0	0	0	0	0	0	0	10.989	-10.989	19.033	0	0	0	1	0	0	17.883	2.027	16.961	0	0	0	0	0	0	0	0	0	0	0	0	0	0	0	0	0	0	0	0	0	0	0	0	0	0	0	2
8268	82.68	0	0	0	0	0	0	10.917	-10.917	18.908	0	0	0	0	0	0	0	0	0	0	0	0	1	0	0	17.755	2.1475	16.785	0	0	0	1	0	0	17.883	2.027	16.961	0	0	0	0	0	0	0	0	0	0	0	0	0	0	0	10.994	-10.994	19.042	0	0	0	0	0	0	0	0	0	2
8269	82.69	0	0	0	0	0	0	10.917	-10.917	18.908	0	0	0	0	0	0	0	0	0	0	0	0	1	0	0	17.755	2.1475	16.785	0	0	0	1	0	0	17.761	2.1499	16.789	0	0	0	0	0	0	0	0	0	0	0	0	0	-1	0	-2.0278	-17.891	16.968	0	0	0	0	0	0	0	0	0	2
8270	82.7	0	0	0	0	0	0	0	0	0	0	0	0	0	0	0	0	0	0	0	0	0	1	0	0	17.755	2.1475	16.785	0	0	0	1	0	0	17.883	2.027	16.961	0	0	0	0	0	0	0	0	0	0	0	0	1	-1	0	7.5503	-27.469	31.921	0	0	0	1	0	0	17.47	2.0148	16.554	2
8271	82.71	0	0	0	0	-1	0	-2.0364	-17.814	16.888	0	0	0	0	0	0	0	0	0	0	0	0	1	0	0	17.755	2.1475	16.785	0	0	0	1	0	0	17.761	2.1499	16.789	0	0	0	0	0	0	0	0	0	0	0	0	0	0	0	10.994	-10.994	19.042	0	0	0	0	0	0	0	0	0	2
8272	82.72	0	0	0	0	0	0	0	0	0	0	0	0	0	0	0	0	0	0	0	0	0	1	0	0	17.755	2.1475	16.785	0	0	0	1	0	0	17.761	2.1499	16.789	0	0	0	0	0	0	0	0	0	0	0	0	0	0	0	10.994	-10.994	19.042	0	0	0	0	0	0	0	0	0	2
8273	82.73	0	0	0	0	0	0	10.917	-10.917	18.908	0	0	0	0	0	0	0	0	0	0	0	0	1	0	0	17.755	2.1475	16.785	0	0	0	1	0	0	17.883	2.027	16.961	0	0	0	0	0	0	0	0	0	0	0	0	1	-1	0	7.5503	-27.469	31.921	0	0	0	0	0	0	0	0	0	2
8274	82.74	0	0	0	0	0	0	10.917	-10.917	18.908	0	0	0	0	0	0	0	0	0	0	0	0	0	0	0	10.989	-10.989	19.033	0	0	0	1	0	0	17.761	2.1499	16.789	0	0	0	0	0	0	0	0	0	0	0	0	1	-1	0	7.5503	-27.469	31.921	0	0	0	0	0	0	0	0	0	2
8275	82.75	0	0	0	0	0	0	0	0	0	0	0	0	0	0	0	0	0	0	0	0	0	1	0	0	17.755	2.1475	16.785	0	0	0	1	0	0	17.883	2.027	16.961	0	0	0	0	0	0	0	0	0	0	0	0	0	0	0	10.994	-10.994	19.042	0	0	0	0	0	0	0	0	0	2
8276	82.76	0	0	0	0	0	0	0	0	0	0	0	0	0	0	0	0	0	0	0	0	0	1	0	0	17.755	2.1475	16.785	0	0	0	1	0	0	17.883	2.027	16.961	0	0	0	0	0	0	0	0	0	0	0	0	1	-1	0	7.5503	-27.469	31.921	0	0	0	1	0	0	17.47	2.0148	16.554	2
8277	82.77	0	0	0	0	0	0	10.917	-10.917	18.908	0	0	0	0	0	0	0	0	0	0	0	0	0	0	0	10.989	-10.989	19.033	0	0	0	1	0	0	17.761	2.1499	16.789	0	0	0	0	0	0	0	0	0	0	0	0	0	-1	0	-2.0278	-17.891	16.968	0	0	0	0	0	0	0	0	0	2
8278	82.78	0	0	0	0	0	0	0	0	0	0	0	0	0	0	0	0	0	0	0	0	0	1	0	0	17.755	2.1475	16.785	0	0	0	1	0	0	17.761	2.1499	16.789	0	0	0	1	0	0	17.883	2.027	16.961	0	0	0	0	0	0	10.994	-10.994	19.042	0	0	0	0	0	0	0	0	0	2
8279	82.79	0	0	0	0	0	0	0	0	0	0	0	0	0	0	0	0	0	0	0	0	0	1	0	0	17.755	2.1475	16.785	0	0	0	1	0	0	17.883	2.027	16.961	0	0	0	0	0	0	0	0	0	0	0	0	0	0	0	10.994	-10.994	19.042	0	0	0	1	0	0	17.47	2.0148	16.554	2
8280	82.8	0	0	0	0	0	0	0	0	0	0	0	0	0	0	0	0	0	0	0	0	0	0	0	0	10.989	-10.989	19.033	0	0	0	1	0	0	17.761	2.1499	16.789	0	0	0	0	0	0	0	0	0	0	0	0	1	-1	0	7.5503	-27.469	31.921	0	0	0	0	0	0	0	0	0	2
8281	82.81	0	0	0	0	0	0	10.917	-10.917	18.908	0	0	0	0	0	0	0	0	0	0	0	0	1	0	0	17.755	2.1475	16.785	0	0	0	1	0	0	17.761	2.1499	16.789	0	0	0	1	0	0	17.883	2.027	16.961	0	0	0	1	-1	0	7.5503	-27.469	31.921	0	0	0	0	0	0	0	0	0	2
8282	82.82	0	0	0	0	0	0	10.917	-10.917	18.908	0	0	0	0	0	0	0	0	0	0	0	0	1	0	0	17.755	2.1475	16.785	0	0	0	1	0	0	17.883	2.027	16.961	0	0	0	0	0	0	0	0	0	0	0	0	0	0	0	10.994	-10.994	19.042	0	0	0	0	0	0	0	0	0	2
8283	82.83	0	0	0	0	0	0	0	0	0	0	0	0	0	0	0	0	0	0	0	0	0	1	0	0	17.755	2.1475	16.785	0	0	0	1	0	0	17.761	2.1499	16.789	0	0	0	0	0	0	0	0	0	0	0	0	1	-1	0	7.5503	-27.469	31.921	0	0	0	0	0	0	0	0	0	2
8284	82.84	0	0	0	0	0	0	10.917	-10.917	18.908	0	0	0	0	0	0	0	0	0	0	0	0	0	0	0	10.989	-10.989	19.033	0	0	0	1	0	0	17.761	2.1499	16.789	0	0	0	0	0	0	0	0	0	0	0	0	1	-1	0	7.5503	-27.469	31.921	0	0	0	0	0	0	0	0	0	2
8285	82.85	0	0	0	0	0	0	0	0	0	0	0	0	0	0	0	0	0	0	0	0	0	1	0	0	17.755	2.1475	16.785	0	0	0	1	0	0	17.883	2.027	16.961	0	0	0	0	0	0	0	0	0	0	0	0	0	0	0	0	0	0	0	0	0	0	0	0	0	0	0	2
8286	82.86	0	0	0	0	0	0	10.917	-10.917	18.908	0	0	0	0	0	0	0	0	0	0	0	0	1	0	0	17.755	2.1475	16.785	0	0	0	1	0	0	17.761	2.1499	16.789	0	0	0	1	0	0	17.883	2.027	16.961	0	0	0	0	0	0	10.994	-10.994	19.042	0	0	0	1	0	0	17.47	2.0148	16.554	2
8287	82.87	0	0	0	0	0	0	0	0	0	0	0	0	0	0	0	0	0	0	0	0	0	1	0	0	17.755	2.1475	16.785	0	0	0	1	0	0	17.883	2.027	16.961	0	0	0	0	0	0	0	0	0	0	0	0	1	-1	0	7.5503	-27.469	31.921	0	0	0	0	0	0	0	0	0	2
8288	82.88	0	0	0	0	0	0	10.917	-10.917	18.908	0	0	0	0	0	0	0	0	0	0	0	0	1	0	0	17.755	2.1475	16.785	0	0	0	1	0	0	17.761	2.1499	16.789	0	0	0	0	0	0	0	0	0	0	0	0	1	-1	0	7.5503	-27.469	31.921	0	0	0	0	0	0	0	0	0	2
8289	82.89	0	0	0	0	0	0	0	0	0	0	0	0	0	0	0	0	0	0	0	0	0	1	0	0	17.755	2.1475	16.785	0	0	0	1	0	0	17.761	2.1499	16.789	0	0	0	0	0	0	0	0	0	0	0	0	0	0	0	10.994	-10.994	19.042	0	0	0	0	0	0	0	0	0	2
8290	82.9	0	0	0	0	0	0	0	0	0	0	0	0	0	0	0	0	0	0	0	0	0	0	0	0	10.989	-10.989	19.033	0	0	0	1	0	0	17.761	2.1499	16.789	0	0	0	0	0	0	0	0	0	0	0	0	1	-1	0	7.5503	-27.469	31.921	0	0	0	0	0	0	0	0	0	2
8291	82.91	0	0	0	0	0	0	0	0	0	0	0	0	0	0	0	0	0	0	0	0	0	1	0	0	17.755	2.1475	16.785	0	0	0	1	0	0	17.761	2.1499	16.789	0	0	0	1	0	0	17.883	2.027	16.961	0	0	0	1	-1	0	7.5503	-27.469	31.921	0	0	0	0	0	0	0	0	0	2
8292	82.92	0	0	0	0	0	0	0	0	0	0	0	0	0	0	0	0	0	0	0	0	0	0	0	0	10.989	-10.989	19.033	0	0	0	1	0	0	17.761	2.1499	16.789	0	0	0	0	0	0	0	0	0	0	0	0	0	0	0	0	0	0	0	0	0	0	0	0	0	0	0	2
8293	82.93	0	0	0	0	0	0	0	0	0	0	0	0	0	0	0	0	0	0	0	0	0	1	0	0	17.755	2.1475	16.785	0	0	0	1	0	0	17.761	2.1499	16.789	0	0	0	0	0	0	0	0	0	0	0	0	1	-1	0	7.5503	-27.469	31.921	0	0	0	0	0	0	0	0	0	2
8294	82.94	0	0	0	0	0	0	0	0	0	0	0	0	0	0	0	0	0	0	0	0	0	1	0	0	17.755	2.1475	16.785	0	0	0	1	0	0	17.761	2.1499	16.789	0	0	0	0	0	0	0	0	0	0	0	0	0	0	0	10.994	-10.994	19.042	0	0	0	0	0	0	0	0	0	2
8295	82.95	0	0	0	0	0	0	10.917	-10.917	18.908	0	0	0	0	0	0	0	0	0	0	0	0	0	0	0	10.989	-10.989	19.033	0	0	0	1	0	0	17.761	2.1499	16.789	0	0	0	0	0	0	0	0	0	0	0	0	0	0	0	10.994	-10.994	19.042	0	0	0	0	0	0	0	0	0	2
8296	82.96	0	0	0	0	0	0	10.917	-10.917	18.908	0	0	0	0	0	0	0	0	0	0	0	0	1	0	0	17.755	2.1475	16.785	0	0	0	1	0	0	17.883	2.027	16.961	0	0	0	1	0	0	17.883	2.027	16.961	0	0	0	0	0	0	10.994	-10.994	19.042	0	0	0	1	0	0	17.47	2.0148	16.554	2
8297	82.97	0	0	0	0	0	0	0	0	0	0	0	0	0	0	0	0	0	0	0	0	0	1	0	0	17.755	2.1475	16.785	0	0	0	1	0	0	17.761	2.1499	16.789	0	0	0	0	0	0	0	0	0	0	0	0	1	-1	0	7.5503	-27.469	31.921	0	0	0	0	0	0	0	0	0	2
8298	82.98	0	0	0	0	0	0	10.917	-10.917	18.908	0	0	0	0	0	0	0	0	0	0	0	0	1	0	0	17.755	2.1475	16.785	0	0	0	1	0	0	17.761	2.1499	16.789	0	0	0	0	0	0	0	0	0	0	0	0	1	-1	0	7.5503	-27.469	31.921	0	0	0	0	0	0	0	0	0	2
8299	82.99	0	0	0	0	0	0	10.917	-10.917	18.908	0	0	0	0	0	0	0	0	0	0	0	0	0	0	0	10.989	-10.989	19.033	0	0	0	1	0	0	17.761	2.1499	16.789	0	0	0	0	0	0	0	0	0	0	0	0	0	0	0	10.994	-10.994	19.042	0	0	0	1	0	0	17.47	2.0148	16.554	2
8300	83	0	0	0	0	0	0	0	0	0	0	0	0	0	0	0	0	0	0	0	0	0	1	0	0	17.755	2.1475	16.785	0	0	0	1	0	0	17.883	2.027	16.961	0	0	0	0	0	0	0	0	0	0	0	0	1	-1	0	7.5503	-27.469	31.921	0	0	0	0	0	0	0	0	0	2
8301	83.01	0	0	0	0	0	0	10.917	-10.917	18.908	0	0	0	0	0	0	0	0	0	0	0	0	1	0	0	17.755	2.1475	16.785	0	0	0	1	0	0	17.761	2.1499	16.789	0	0	0	0	0	0	0	0	0	0	0	0	0	0	0	10.994	-10.994	19.042	0	0	0	1	0	0	17.47	2.0148	16.554	2
8302	83.02	0	0	0	0	0	0	0	0	0	0	0	0	0	0	0	0	0	0	0	0	0	1	0	0	17.755	2.1475	16.785	0	0	0	1	0	0	17.761	2.1499	16.789	0	0	0	0	0	0	0	0	0	0	0	0	1	-1	0	7.5503	-27.469	31.921	0	0	0	0	0	0	0	0	0	2
8303	83.03	0	0	0	0	0	0	10.917	-10.917	18.908	0	0	0	0	0	0	0	0	0	0	0	0	1	0	0	17.755	2.1475	16.785	0	0	0	1	0	0	17.883	2.027	16.961	0	0	0	0	0	0	0	0	0	0	0	0	1	-1	0	7.5503	-27.469	31.921	0	0	0	0	0	0	0	0	0	2
8304	83.04	0	0	0	0	0	0	10.917	-10.917	18.908	0	0	0	0	0	0	0	0	0	0	0	0	1	0	0	17.755	2.1475	16.785	0	0	0	1	0	0	17.761	2.1499	16.789	0	0	0	0	0	0	0	0	0	0	0	0	1	-1	0	7.5503	-27.469	31.921	0	0	0	0	0	0	0	0	0	2
8305	83.05	0	0	0	0	0	0	0	0	0	0	0	0	0	0	0	0	0	0	0	0	0	1	0	0	17.755	2.1475	16.785	0	0	0	1	0	0	17.761	2.1499	16.789	0	0	0	0	0	0	0	0	0	0	0	0	0	0	0	10.994	-10.994	19.042	0	0	0	0	0	0	0	0	0	2
8306	83.06	0	0	0	0	0	0	0	0	0	0	0	0	0	0	0	0	0	0	0	0	0	1	0	0	17.755	2.1475	16.785	0	0	0	1	0	0	17.761	2.1499	16.789	0	0	0	0	0	0	0	0	0	0	0	0	1	-1	0	7.5503	-27.469	31.921	0	0	0	1	0	0	17.47	2.0148	16.554	2
8307	83.07	0	0	0	0	0	0	0	0	0	0	0	0	0	0	0	0	0	0	0	0	0	0	0	0	10.989	-10.989	19.033	0	0	0	1	0	0	17.883	2.027	16.961	0	0	0	0	0	0	0	0	0	0	0	0	1	-1	0	7.5503	-27.469	31.921	0	0	0	0	0	0	0	0	0	2
8308	83.08	0	0	0	0	0	0	10.917	-10.917	18.908	0	0	0	0	0	0	0	0	0	0	0	0	1	0	0	17.755	2.1475	16.785	0	0	0	1	0	0	17.761	2.1499	16.789	0	0	0	0	0	0	0	0	0	0	0	0	0	0	0	10.994	-10.994	19.042	0	0	0	1	0	0	17.47	2.0148	16.554	2
8309	83.09	0	0	0	0	0	0	0	0	0	0	0	0	0	0	0	0	0	0	0	0	0	1	0	0	17.755	2.1475	16.785	0	0	0	1	0	0	17.883	2.027	16.961	0	0	0	0	0	0	0	0	0	0	0	0	0	0	0	10.994	-10.994	19.042	0	0	0	0	0	0	0	0	0	2
8310	83.1	0	0	0	0	0	0	10.917	-10.917	18.908	0	0	0	0	0	0	0	0	0	0	0	0	1	0	0	17.755	2.1475	16.785	0	0	0	1	0	0	17.761	2.1499	16.789	0	0	0	0	0	0	0	0	0	0	0	0	0	0	0	10.994	-10.994	19.042	0	0	0	0	0	0	0	0	0	2
8311	83.11	0	0	0	0	0	0	0	0	0	0	0	0	0	0	0	0	0	0	0	0	0	1	0	0	17.755	2.1475	16.785	0	0	0	1	0	0	17.883	2.027	16.961	0	0	0	0	0	0	0	0	0	0	0	0	0	0	0	10.994	-10.994	19.042	0	0	0	1	0	0	17.47	2.0148	16.554	2
8312	83.12	0	0	0	0	0	0	0	0	0	0	0	0	0	0	0	0	0	0	0	0	0	1	0	0	17.755	2.1475	16.785	0	0	0	1	0	0	17.761	2.1499	16.789	0	0	0	0	0	0	0	0	0	0	0	0	0	0	0	0	0	0	0	0	0	0	0	0	0	0	0	2
8313	83.13	0	0	0	0	0	0	10.917	-10.917	18.908	0	0	0	0	0	0	0	0	0	0	0	0	1	0	0	17.755	2.1475	16.785	0	0	0	1	0	0	17.761	2.1499	16.789	0	0	0	0	0	0	0	0	0	0	0	0	1	-1	0	7.5503	-27.469	31.921	0	0	0	1	0	0	17.47	2.0148	16.554	2
8314	83.14	0	0	0	0	0	0	0	0	0	0	0	0	0	0	0	0	0	0	0	0	0	1	0	0	17.755	2.1475	16.785	0	0	0	1	0	0	17.761	2.1499	16.789	0	0	0	0	0	0	0	0	0	0	0	0	0	0	0	10.994	-10.994	19.042	0	0	0	0	0	0	0	0	0	2
8315	83.15	0	0	0	0	0	0	10.917	-10.917	18.908	0	0	0	0	0	0	0	0	0	0	0	0	0	0	0	10.989	-10.989	19.033	0	0	0	1	0	0	17.761	2.1499	16.789	0	0	0	0	0	0	0	0	0	0	0	0	0	-1	0	-2.0278	-17.891	16.968	0	0	0	0	0	0	0	0	0	2
8316	83.16	0	0	0	0	0	0	0	0	0	0	0	0	0	0	0	0	0	0	0	0	0	1	0	0	17.755	2.1475	16.785	0	0	0	1	0	0	17.761	2.1499	16.789	0	0	0	0	0	0	0	0	0	0	0	0	0	0	0	10.994	-10.994	19.042	0	0	0	0	0	0	0	0	0	2
8317	83.17	0	0	0	0	0	0	0	0	0	0	0	0	0	0	0	0	0	0	0	0	0	1	0	0	17.755	2.1475	16.785	0	0	0	1	0	0	17.761	2.1499	16.789	0	0	0	0	0	0	0	0	0	0	0	0	0	-1	0	-2.0278	-17.891	16.968	0	0	0	0	0	0	0	0	0	2
8318	83.18	0	0	0	0	0	0	10.917	-10.917	18.908	0	0	0	0	0	0	0	0	0	0	0	0	1	0	0	17.755	2.1475	16.785	0	0	0	1	0	0	17.883	2.027	16.961	0	0	0	0	0	0	0	0	0	0	0	0	0	0	0	10.994	-10.994	19.042	0	0	0	0	0	0	0	0	0	2
8319	83.19	0	0	0	0	0	0	0	0	0	0	0	0	0	0	0	0	0	0	0	0	0	1	0	0	17.755	2.1475	16.785	0	0	0	1	0	0	17.761	2.1499	16.789	0	0	0	0	0	0	0	0	0	0	0	0	0	-1	0	-2.0278	-17.891	16.968	0	0	0	0	0	0	0	0	0	2
8320	83.2	0	0	0	0	0	0	0	0	0	0	0	0	0	0	0	0	0	0	0	0	0	1	0	0	17.755	2.1475	16.785	0	0	0	1	0	0	17.883	2.027	16.961	0	0	0	0	0	0	0	0	0	0	0	0	1	-1	0	7.5503	-27.469	31.921	0	0	0	1	0	0	17.47	2.0148	16.554	2
8321	83.21	0	0	0	0	0	0	10.917	-10.917	18.908	0	0	0	0	0	0	0	0	0	0	0	0	1	0	0	17.755	2.1475	16.785	0	0	0	1	0	0	17.761	2.1499	16.789	0	0	0	0	0	0	0	0	0	0	0	0	0	0	0	10.994	-10.994	19.042	0	0	0	1	0	0	17.47	2.0148	16.554	2
8322	83.22	0	0	0	0	0	0	0	0	0	0	0	0	0	0	0	0	0	0	0	0	0	1	0	0	17.755	2.1475	16.785	0	0	0	1	0	0	17.761	2.1499	16.789	0	0	0	0	0	0	0	0	0	0	0	0	0	0	0	10.994	-10.994	19.042	0	0	0	0	0	0	0	0	0	2
8323	83.23	0	0	0	0	0	0	0	0	0	0	0	0	0	0	0	0	0	0	0	0	0	0	0	0	10.989	-10.989	19.033	0	0	0	1	0	0	17.761	2.1499	16.789	0	0	0	0	0	0	0	0	0	0	0	0	0	0	0	0	0	0	0	0	0	1	0	0	17.47	2.0148	16.554	0
8324	83.24	0	0	0	0	0	0	10.917	-10.917	18.908	0	0	0	0	0	0	0	0	0	0	0	0	1	0	0	17.755	2.1475	16.785	0	0	0	1	0	0	17.883	2.027	16.961	0	0	0	0	0	0	0	0	0	0	0	0	1	-1	0	7.5503	-27.469	31.921	0	0	0	1	0	0	17.47	2.0148	16.554	2
8325	83.25	0	0	0	0	0	0	10.917	-10.917	18.908	0	0	0	0	0	0	0	0	0	0	0	0	1	0	0	17.755	2.1475	16.785	0	0	0	1	0	0	17.761	2.1499	16.789	0	0	0	0	0	0	0	0	0	0	0	0	1	-1	0	7.5503	-27.469	31.921	0	0	0	0	0	0	0	0	0	2
8326	83.26	0	0	0	0	0	0	0	0	0	0	0	0	0	0	0	0	0	0	0	0	0	1	0	0	17.755	2.1475	16.785	0	0	0	1	0	0	17.761	2.1499	16.789	0	0	0	0	0	0	0	0	0	0	0	0	1	-1	0	7.5503	-27.469	31.921	0	0	0	0	0	0	0	0	0	2
8327	83.27	0	0	0	0	0	0	0	0	0	0	0	0	0	0	0	0	0	0	0	0	0	0	0	0	10.989	-10.989	19.033	0	0	0	1	0	0	17.883	2.027	16.961	0	0	0	0	0	0	0	0	0	0	0	0	0	0	0	0	0	0	0	0	0	0	0	0	0	0	0	2
8328	83.28	0	0	0	0	0	0	0	0	0	0	0	0	0	0	0	0	0	0	0	0	0	1	0	0	17.755	2.1475	16.785	0	0	0	1	0	0	17.761	2.1499	16.789	0	0	0	0	0	0	0	0	0	0	0	0	0	0	0	10.994	-10.994	19.042	0	0	0	1	0	0	17.47	2.0148	16.554	2
8329	83.29	0	0	0	0	0	0	0	0	0	0	0	0	0	0	0	0	0	0	0	0	0	1	0	0	17.755	2.1475	16.785	0	0	0	1	0	0	17.761	2.1499	16.789	0	0	0	0	0	0	0	0	0	0	0	0	0	0	0	10.994	-10.994	19.042	0	0	0	0	0	0	0	0	0	2
8330	83.3	0	0	0	0	0	0	10.917	-10.917	18.908	0	0	0	0	0	0	0	0	0	0	0	0	0	0	0	10.989	-10.989	19.033	0	0	0	1	0	0	17.883	2.027	16.961	0	0	0	0	0	0	0	0	0	0	0	0	0	0	0	10.994	-10.994	19.042	0	0	0	0	0	0	0	0	0	2
8331	83.31	0	0	0	0	0	0	10.917	-10.917	18.908	0	0	0	0	0	0	0	0	0	0	0	0	1	0	0	17.755	2.1475	16.785	0	0	0	1	0	0	17.761	2.1499	16.789	0	0	0	0	0	0	0	0	0	0	0	0	0	0	0	0	0	0	0	0	0	1	0	0	17.47	2.0148	16.554	2
8332	83.32	0	0	0	0	0	0	10.917	-10.917	18.908	0	0	0	0	0	0	0	0	0	0	0	0	0	0	0	10.989	-10.989	19.033	0	0	0	1	0	0	17.883	2.027	16.961	0	0	0	0	0	0	0	0	0	0	0	0	0	-1	0	-2.0278	-17.891	16.968	0	0	0	0	0	0	0	0	0	2
8333	83.33	0	0	0	0	0	0	0	0	0	0	0	0	0	0	0	0	0	0	0	0	0	1	0	0	17.755	2.1475	16.785	0	0	0	1	0	0	17.761	2.1499	16.789	0	0	0	0	0	0	0	0	0	0	0	0	1	-1	0	7.5503	-27.469	31.921	0	0	0	0	0	0	0	0	0	2
8334	83.34	0	0	0	0	0	0	0	0	0	0	0	0	0	0	0	0	0	0	0	0	0	1	0	0	17.755	2.1475	16.785	0	0	0	1	0	0	17.761	2.1499	16.789	0	0	0	0	0	0	0	0	0	0	0	0	0	0	0	0	0	0	0	0	0	0	0	0	0	0	0	2
8335	83.35	0	0	0	0	0	0	0	0	0	0	0	0	0	0	0	0	0	0	0	0	0	0	0	0	10.989	-10.989	19.033	0	0	0	1	0	0	17.761	2.1499	16.789	0	0	0	0	0	0	0	0	0	0	0	0	1	-1	0	7.5503	-27.469	31.921	0	0	0	1	0	0	17.47	2.0148	16.554	2
8336	83.36	0	0	0	0	0	0	10.917	-10.917	18.908	0	0	0	0	0	0	0	0	0	0	0	0	1	0	0	17.755	2.1475	16.785	0	0	0	1	0	0	17.761	2.1499	16.789	0	0	0	0	0	0	0	0	0	0	0	0	1	-1	0	7.5503	-27.469	31.921	0	0	0	1	0	0	17.47	2.0148	16.554	2
8337	83.37	0	0	0	0	0	0	0	0	0	0	0	0	0	0	0	0	0	0	0	0	0	0	0	0	10.989	-10.989	19.033	0	0	0	1	0	0	17.761	2.1499	16.789	0	0	0	0	0	0	0	0	0	0	0	0	0	-1	0	-2.0278	-17.891	16.968	0	0	0	0	0	0	0	0	0	2
8338	83.38	0	0	0	0	0	0	10.917	-10.917	18.908	0	0	0	0	0	0	0	0	0	0	0	0	1	0	0	17.755	2.1475	16.785	0	0	0	1	0	0	17.761	2.1499	16.789	0	0	0	0	0	0	0	0	0	0	0	0	1	-1	0	7.5503	-27.469	31.921	0	0	0	1	0	0	17.47	2.0148	16.554	2
8339	83.39	0	0	0	0	0	0	10.917	-10.917	18.908	0	0	0	0	0	0	0	0	0	0	0	0	1	0	0	17.755	2.1475	16.785	0	0	0	1	0	0	17.761	2.1499	16.789	0	0	0	0	0	0	0	0	0	0	0	0	0	-1	0	-2.0278	-17.891	16.968	0	0	0	0	0	0	0	0	0	2
8340	83.4	0	0	0	0	0	0	0	0	0	0	0	0	0	0	0	0	0	0	0	0	0	1	0	0	17.755	2.1475	16.785	0	0	0	1	0	0	17.883	2.027	16.961	0	0	0	0	0	0	0	0	0	0	0	0	0	0	0	10.994	-10.994	19.042	0	0	0	0	0	0	0	0	0	2
8341	83.41	0	0	0	0	0	0	10.917	-10.917	18.908	0	0	0	0	0	0	0	0	0	0	0	0	1	0	0	17.755	2.1475	16.785	0	0	0	1	0	0	17.761	2.1499	16.789	0	0	0	0	0	0	0	0	0	0	0	0	0	0	0	10.994	-10.994	19.042	0	0	0	0	0	0	0	0	0	2
8342	83.42	0	0	0	0	0	0	0	0	0	0	0	0	0	0	0	0	0	0	0	0	0	1	0	0	17.755	2.1475	16.785	0	0	0	1	0	0	17.761	2.1499	16.789	0	0	0	0	0	0	0	0	0	0	0	0	0	0	0	0	0	0	0	0	0	0	0	0	0	0	0	2
8343	83.43	0	0	0	0	0	0	0	0	0	0	0	0	0	0	0	0	0	0	0	0	0	1	0	0	17.755	2.1475	16.785	0	0	0	1	0	0	17.883	2.027	16.961	0	0	0	0	0	0	0	0	0	0	0	0	0	0	0	10.994	-10.994	19.042	0	0	0	1	0	0	17.47	2.0148	16.554	2
8344	83.44	0	0	0	0	0	0	0	0	0	0	0	0	0	0	0	0	0	0	0	0	0	0	0	0	10.989	-10.989	19.033	0	0	0	1	0	0	17.761	2.1499	16.789	0	0	0	0	0	0	0	0	0	0	0	0	0	-1	0	-2.0278	-17.891	16.968	0	0	0	0	0	0	0	0	0	2
8345	83.45	0	0	0	0	0	0	0	0	0	0	0	0	0	0	0	0	0	0	0	0	0	1	0	0	17.755	2.1475	16.785	0	0	0	1	0	0	17.761	2.1499	16.789	0	0	0	0	0	0	0	0	0	0	0	0	1	-1	0	7.5503	-27.469	31.921	0	0	0	0	0	0	0	0	0	2
8346	83.46	0	0	0	0	0	0	0	0	0	0	0	0	0	0	0	0	0	0	0	0	0	1	0	0	17.755	2.1475	16.785	0	0	0	1	0	0	17.761	2.1499	16.789	0	0	0	0	0	0	0	0	0	0	0	0	0	0	0	10.994	-10.994	19.042	0	0	0	0	0	0	0	0	0	2
8347	83.47	0	0	0	0	0	0	0	0	0	0	0	0	0	0	0	0	0	0	0	0	0	1	0	0	17.755	2.1475	16.785	0	0	0	1	0	0	17.883	2.027	16.961	0	0	0	0	0	0	0	0	0	0	0	0	0	0	0	10.994	-10.994	19.042	0	0	0	0	0	0	0	0	0	2
8348	83.48	0	0	0	0	0	0	0	0	0	0	0	0	0	0	0	0	0	0	0	0	0	1	0	0	17.755	2.1475	16.785	0	0	0	1	0	0	17.883	2.027	16.961	0	0	0	0	0	0	0	0	0	0	0	0	0	-1	0	-2.0278	-17.891	16.968	0	0	0	0	0	0	0	0	0	2
8349	83.49	0	0	0	0	0	0	10.917	-10.917	18.908	0	0	0	0	0	0	0	0	0	0	0	0	1	0	0	17.755	2.1475	16.785	0	0	0	1	0	0	17.883	2.027	16.961	0	0	0	0	0	0	0	0	0	0	0	0	0	0	0	0	0	0	0	0	0	1	0	0	17.47	2.0148	16.554	2
8350	83.5	0	0	0	0	0	0	0	0	0	0	0	0	0	0	0	0	0	0	0	0	0	1	0	0	17.755	2.1475	16.785	0	0	0	1	0	0	17.883	2.027	16.961	0	0	0	0	0	0	0	0	0	0	0	0	1	-1	0	7.5503	-27.469	31.921	0	0	0	0	0	0	0	0	0	2
8351	83.51	0	0	0	0	0	0	0	0	0	0	0	0	0	0	0	0	0	0	0	0	0	1	0	0	17.755	2.1475	16.785	0	0	0	1	0	0	17.761	2.1499	16.789	0	0	0	0	0	0	0	0	0	0	0	0	0	0	0	10.994	-10.994	19.042	0	0	0	1	0	0	17.47	2.0148	16.554	2
8352	83.52	0	0	0	0	0	0	10.917	-10.917	18.908	0	0	0	0	0	0	0	0	0	0	0	0	0	0	0	10.989	-10.989	19.033	0	0	0	1	0	0	17.883	2.027	16.961	0	0	0	0	0	0	0	0	0	0	0	0	0	0	0	10.994	-10.994	19.042	0	0	0	0	0	0	0	0	0	2
8353	83.53	0	0	0	0	0	0	0	0	0	0	0	0	0	0	0	0	0	0	0	0	0	1	0	0	17.755	2.1475	16.785	0	0	0	1	0	0	17.761	2.1499	16.789	0	0	0	1	0	0	17.883	2.027	16.961	0	0	0	0	0	0	0	0	0	0	0	0	0	0	0	0	0	0	0
8354	83.54	0	0	0	0	0	0	0	0	0	0	0	0	0	0	0	0	0	0	0	0	0	1	0	0	17.755	2.1475	16.785	0	0	0	1	0	0	17.883	2.027	16.961	0	0	0	0	0	0	0	0	0	0	0	0	0	0	0	10.994	-10.994	19.042	0	0	0	0	0	0	0	0	0	2
8355	83.55	0	0	0	0	0	0	0	0	0	0	0	0	0	0	0	0	0	0	0	0	0	1	0	0	17.755	2.1475	16.785	0	0	0	1	0	0	17.883	2.027	16.961	0	0	0	0	0	0	0	0	0	0	0	0	0	0	0	10.994	-10.994	19.042	0	0	0	0	0	0	0	0	0	2
8356	83.56	0	0	0	0	0	0	10.917	-10.917	18.908	0	0	0	0	0	0	0	0	0	0	0	0	1	0	0	17.755	2.1475	16.785	0	0	0	1	0	0	17.883	2.027	16.961	0	0	0	0	0	0	0	0	0	0	0	0	0	0	0	10.994	-10.994	19.042	0	0	0	1	0	0	17.47	2.0148	16.554	2
8357	83.57	0	0	0	0	0	0	0	0	0	0	0	0	0	0	0	0	0	0	0	0	0	1	0	0	17.755	2.1475	16.785	0	0	0	1	0	0	17.761	2.1499	16.789	0	0	0	0	0	0	0	0	0	0	0	0	0	-1	0	-2.0278	-17.891	16.968	0	0	0	0	0	0	0	0	0	0
8358	83.58	0	0	0	0	0	0	0	0	0	0	0	0	0	0	0	0	0	0	0	0	0	1	0	0	17.755	2.1475	16.785	0	0	0	1	0	0	17.883	2.027	16.961	0	0	0	0	0	0	0	0	0	0	0	0	1	-1	0	7.5503	-27.469	31.921	0	0	0	0	0	0	0	0	0	2
8359	83.59	0	0	0	0	0	0	10.917	-10.917	18.908	0	0	0	0	0	0	0	0	0	0	0	0	1	0	0	17.755	2.1475	16.785	0	0	0	1	0	0	17.883	2.027	16.961	0	0	0	0	0	0	0	0	0	0	0	0	1	-1	0	7.5503	-27.469	31.921	0	0	0	0	0	0	0	0	0	2
8360	83.6	0	0	0	0	0	0	0	0	0	0	0	0	0	0	0	0	0	0	0	0	0	1	0	0	17.755	2.1475	16.785	0	0	0	1	0	0	17.761	2.1499	16.789	0	0	0	0	0	0	0	0	0	0	0	0	1	-1	0	7.5503	-27.469	31.921	0	0	0	0	0	0	0	0	0	2
8361	83.61	0	0	0	0	0	0	0	0	0	0	0	0	0	0	0	0	0	0	0	0	0	1	0	0	17.755	2.1475	16.785	0	0	0	1	0	0	17.761	2.1499	16.789	0	0	0	0	0	0	0	0	0	0	0	0	0	0	0	10.994	-10.994	19.042	0	0	0	1	0	0	17.47	2.0148	16.554	2
8362	83.62	0	0	0	0	0	0	0	0	0	0	0	0	0	0	0	0	0	0	0	0	0	1	0	0	17.755	2.1475	16.785	0	0	0	1	0	0	17.761	2.1499	16.789	0	0	0	0	0	0	0	0	0	0	0	0	0	0	0	10.994	-10.994	19.042	0	0	0	0	0	0	0	0	0	2
8363	83.63	0	0	0	0	0	0	0	0	0	0	0	0	0	0	0	0	0	0	0	0	0	0	0	0	10.989	-10.989	19.033	0	0	0	1	0	0	17.883	2.027	16.961	0	0	0	0	0	0	0	0	0	0	0	0	0	0	0	10.994	-10.994	19.042	0	0	0	1	0	0	17.47	2.0148	16.554	2
8364	83.64	0	0	0	0	0	0	10.917	-10.917	18.908	0	0	0	0	0	0	0	0	0	0	0	0	1	0	0	17.755	2.1475	16.785	0	0	0	1	0	0	17.883	2.027	16.961	0	0	0	0	0	0	0	0	0	0	0	0	0	0	0	10.994	-10.994	19.042	0	0	0	0	0	0	0	0	0	2
8365	83.65	0	0	0	0	0	0	0	0	0	0	0	0	0	0	0	0	0	0	0	0	0	0	0	0	10.989	-10.989	19.033	0	0	0	1	0	0	17.883	2.027	16.961	0	0	0	0	0	0	0	0	0	0	0	0	0	0	0	10.994	-10.994	19.042	0	0	0	0	0	0	0	0	0	2
8366	83.66	0	0	0	0	0	0	10.917	-10.917	18.908	0	0	0	0	0	0	0	0	0	0	0	0	1	0	0	17.755	2.1475	16.785	0	0	0	1	0	0	17.761	2.1499	16.789	0	0	0	0	0	0	0	0	0	0	0	0	1	-1	0	7.5503	-27.469	31.921	0	0	0	1	0	0	17.47	2.0148	16.554	2
8367	83.67	0	0	0	0	0	0	0	0	0	0	0	0	0	0	0	0	0	0	0	0	0	0	0	0	10.989	-10.989	19.033	0	0	0	1	0	0	17.761	2.1499	16.789	0	0	0	0	0	0	0	0	0	0	0	0	0	0	0	0	0	0	0	0	0	0	0	0	0	0	0	2
8368	83.68	0	0	0	0	0	0	10.917	-10.917	18.908	0	0	0	0	0	0	0	0	0	0	0	0	1	0	0	17.755	2.1475	16.785	0	0	0	1	0	0	17.761	2.1499	16.789	0	0	0	0	0	0	0	0	0	0	0	0	0	0	0	10.994	-10.994	19.042	0	0	0	1	0	0	17.47	2.0148	16.554	2
8369	83.69	0	0	0	0	0	0	0	0	0	0	0	0	0	0	0	0	0	0	0	0	0	1	0	0	17.755	2.1475	16.785	0	0	0	1	0	0	17.883	2.027	16.961	0	0	0	0	0	0	0	0	0	0	0	0	0	-1	0	-2.0278	-17.891	16.968	0	0	0	0	0	0	0	0	0	2
8370	83.7	0	0	0	0	0	0	10.917	-10.917	18.908	0	0	0	0	0	0	0	0	0	0	0	0	0	0	0	10.989	-10.989	19.033	0	0	0	1	0	0	17.761	2.1499	16.789	0	0	0	0	0	0	0	0	0	0	0	0	0	0	0	10.994	-10.994	19.042	0	0	0	0	0	0	0	0	0	2
8371	83.71	0	0	0	0	0	0	10.917	-10.917	18.908	0	0	0	0	0	0	0	0	0	0	0	0	1	0	0	17.755	2.1475	16.785	0	0	0	1	0	0	17.761	2.1499	16.789	0	0	0	0	0	0	0	0	0	0	0	0	1	-1	0	7.5503	-27.469	31.921	0	0	0	1	0	0	17.47	2.0148	16.554	2
8372	83.72	0	0	0	0	0	0	10.917	-10.917	18.908	0	0	0	0	0	0	0	0	0	0	0	0	1	0	0	17.755	2.1475	16.785	0	0	0	1	0	0	17.883	2.027	16.961	0	0	0	0	0	0	0	0	0	0	0	0	1	-1	0	7.5503	-27.469	31.921	0	0	0	0	0	0	0	0	0	2
8373	83.73	0	0	0	0	0	0	10.917	-10.917	18.908	0	0	0	0	0	0	0	0	0	0	0	0	0	0	0	10.989	-10.989	19.033	0	0	0	1	0	0	17.761	2.1499	16.789	0	0	0	0	0	0	0	0	0	0	0	0	1	-1	0	7.5503	-27.469	31.921	0	0	0	0	0	0	0	0	0	2
8374	83.74	0	0	0	0	0	0	0	0	0	0	0	0	0	0	0	0	0	0	0	0	0	1	0	0	17.755	2.1475	16.785	0	0	0	1	0	0	17.761	2.1499	16.789	0	0	0	0	0	0	0	0	0	0	0	0	0	0	0	0	0	0	0	0	0	0	0	0	0	0	0	2
8375	83.75	0	0	0	0	0	0	10.917	-10.917	18.908	0	0	0	0	0	0	0	0	0	0	0	0	0	0	0	10.989	-10.989	19.033	0	0	0	1	0	0	17.883	2.027	16.961	0	0	0	0	0	0	0	0	0	0	0	0	0	0	0	0	0	0	0	0	0	0	0	0	0	0	0	2
8376	83.76	0	0	0	0	0	0	0	0	0	0	0	0	0	0	0	0	0	0	0	0	0	1	0	0	17.755	2.1475	16.785	0	0	0	1	0	0	17.761	2.1499	16.789	0	0	0	0	0	0	0	0	0	0	0	0	0	0	0	10.994	-10.994	19.042	0	0	0	0	0	0	0	0	0	2
8377	83.77	0	0	0	0	0	0	0	0	0	0	0	0	0	0	0	0	0	0	0	0	0	0	0	0	10.989	-10.989	19.033	0	0	0	1	0	0	17.883	2.027	16.961	0	0	0	0	0	0	0	0	0	0	0	0	0	0	0	10.994	-10.994	19.042	0	0	0	0	0	0	0	0	0	2
8378	83.78	0	0	0	0	0	0	0	0	0	0	0	0	0	0	0	0	0	0	0	0	0	1	0	0	17.755	2.1475	16.785	0	0	0	1	0	0	17.761	2.1499	16.789	0	0	0	0	0	0	0	0	0	0	0	0	1	-1	0	7.5503	-27.469	31.921	0	0	0	0	0	0	0	0	0	2
8379	83.79	0	0	0	0	0	0	0	0	0	0	0	0	0	0	0	0	0	0	0	0	0	1	0	0	17.755	2.1475	16.785	0	0	0	1	0	0	17.761	2.1499	16.789	0	0	0	0	0	0	0	0	0	0	0	0	0	0	0	0	0	0	0	0	0	1	0	0	17.47	2.0148	16.554	2
8380	83.8	0	0	0	0	0	0	10.917	-10.917	18.908	0	0	0	0	0	0	0	0	0	0	0	0	0	0	0	10.989	-10.989	19.033	0	0	0	1	0	0	17.883	2.027	16.961	0	0	0	0	0	0	0	0	0	0	0	0	0	-1	0	-2.0278	-17.891	16.968	0	0	0	1	0	0	17.47	2.0148	16.554	2
8381	83.81	0	0	0	0	0	0	0	0	0	0	0	0	0	0	0	0	0	0	0	0	0	1	0	0	17.755	2.1475	16.785	0	0	0	1	0	0	17.761	2.1499	16.789	0	0	0	0	0	0	0	0	0	0	0	0	0	0	0	10.994	-10.994	19.042	0	0	0	1	0	0	17.47	2.0148	16.554	2
8382	83.82	0	0	0	0	0	0	0	0	0	0	0	0	0	0	0	0	0	0	0	0	0	0	0	0	10.989	-10.989	19.033	0	0	0	1	0	0	17.883	2.027	16.961	0	0	0	0	0	0	0	0	0	0	0	0	0	0	0	0	0	0	0	0	0	0	0	0	0	0	0	2
8383	83.83	0	0	0	0	0	0	10.917	-10.917	18.908	0	0	0	0	0	0	0	0	0	0	0	0	1	0	0	17.755	2.1475	16.785	0	0	0	1	0	0	17.761	2.1499	16.789	0	0	0	0	0	0	0	0	0	0	0	0	1	-1	0	7.5503	-27.469	31.921	0	0	0	0	0	0	0	0	0	2
8384	83.84	0	0	0	0	0	0	10.917	-10.917	18.908	0	0	0	0	0	0	0	0	0	0	0	0	1	0	0	17.755	2.1475	16.785	0	0	0	1	0	0	17.883	2.027	16.961	0	0	0	0	0	0	0	0	0	0	0	0	0	0	0	10.994	-10.994	19.042	0	0	0	0	0	0	0	0	0	2
8385	83.85	0	0	0	0	0	0	0	0	0	0	0	0	0	0	0	0	0	0	0	0	0	0	0	0	10.989	-10.989	19.033	0	0	0	1	0	0	17.883	2.027	16.961	0	0	0	0	0	0	0	0	0	0	0	0	1	-1	0	7.5503	-27.469	31.921	0	0	0	0	0	0	0	0	0	2
8386	83.86	0	0	0	0	0	0	10.917	-10.917	18.908	0	0	0	0	0	0	0	0	0	0	0	0	1	0	0	17.755	2.1475	16.785	0	0	0	1	0	0	17.761	2.1499	16.789	0	0	0	0	0	0	0	0	0	0	0	0	0	0	0	10.994	-10.994	19.042	0	0	0	1	0	0	17.47	2.0148	16.554	2
8387	83.87	0	0	0	0	0	0	0	0	0	0	0	0	0	0	0	0	0	0	0	0	0	0	0	0	10.989	-10.989	19.033	0	0	0	1	0	0	17.883	2.027	16.961	0	0	0	0	0	0	0	0	0	0	0	0	1	-1	0	7.5503	-27.469	31.921	0	0	0	0	0	0	0	0	0	2
8388	83.88	0	0	0	0	0	0	10.917	-10.917	18.908	0	0	0	0	0	0	0	0	0	0	0	0	1	0	0	17.755	2.1475	16.785	0	0	0	1	0	0	17.761	2.1499	16.789	0	0	0	0	0	0	0	0	0	0	0	0	0	0	0	10.994	-10.994	19.042	0	0	0	0	0	0	0	0	0	2
8389	83.89	0	0	0	0	0	0	0	0	0	0	0	0	0	0	0	0	0	0	0	0	0	1	0	0	17.755	2.1475	16.785	0	0	0	1	0	0	17.761	2.1499	16.789	0	0	0	0	0	0	0	0	0	0	0	0	0	0	0	0	0	0	0	0	0	1	0	0	17.47	2.0148	16.554	2
8390	83.9	0	0	0	0	0	0	0	0	0	0	0	0	0	0	0	0	0	0	0	0	0	1	0	0	17.755	2.1475	16.785	0	0	0	1	0	0	17.883	2.027	16.961	0	0	0	0	0	0	0	0	0	0	0	0	0	0	0	10.994	-10.994	19.042	0	0	0	0	0	0	0	0	0	2
8391	83.91	0	0	0	0	0	0	10.917	-10.917	18.908	0	0	0	0	0	0	0	0	0	0	0	0	0	0	0	10.989	-10.989	19.033	0	0	0	1	0	0	17.761	2.1499	16.789	0	0	0	0	0	0	0	0	0	0	0	0	1	-1	0	7.5503	-27.469	31.921	0	0	0	1	0	0	17.47	2.0148	16.554	2
8392	83.92	0	0	0	0	0	0	10.917	-10.917	18.908	0	0	0	0	0	0	0	0	0	0	0	0	1	0	0	17.755	2.1475	16.785	0	0	0	1	0	0	17.761	2.1499	16.789	0	0	0	0	0	0	0	0	0	0	0	0	0	0	0	10.994	-10.994	19.042	0	0	0	0	0	0	0	0	0	2
8393	83.93	0	0	0	0	0	0	0	0	0	0	0	0	0	0	0	0	0	0	0	0	0	1	0	0	17.755	2.1475	16.785	0	0	0	1	0	0	17.883	2.027	16.961	0	0	0	0	0	0	0	0	0	0	0	0	0	0	0	10.994	-10.994	19.042	0	0	0	1	0	0	17.47	2.0148	16.554	2
8394	83.94	0	0	0	0	0	0	10.917	-10.917	18.908	0	0	0	0	0	0	0	0	0	0	0	0	1	0	0	17.755	2.1475	16.785	0	0	0	1	0	0	17.883	2.027	16.961	0	0	0	0	0	0	0	0	0	0	0	0	1	-1	0	7.5503	-27.469	31.921	0	0	0	0	0	0	0	0	0	2
8395	83.95	0	0	0	0	0	0	0	0	0	0	0	0	0	0	0	0	0	0	0	0	0	1	0	0	17.755	2.1475	16.785	0	0	0	1	0	0	17.883	2.027	16.961	0	0	0	0	0	0	0	0	0	0	0	0	0	0	0	10.994	-10.994	19.042	0	0	0	0	0	0	0	0	0	2
8396	83.96	0	0	0	0	0	0	0	0	0	0	0	0	0	0	0	0	0	0	0	0	0	1	0	0	17.755	2.1475	16.785	0	0	0	1	0	0	17.883	2.027	16.961	0	0	0	0	0	0	0	0	0	0	0	0	1	-1	0	7.5503	-27.469	31.921	0	0	0	0	0	0	0	0	0	2
8397	83.97	0	0	0	0	0	0	0	0	0	0	0	0	0	0	0	0	0	0	0	0	0	0	0	0	10.989	-10.989	19.033	0	0	0	1	0	0	17.883	2.027	16.961	0	0	0	0	0	0	0	0	0	0	0	0	0	-1	0	-2.0278	-17.891	16.968	0	0	0	1	0	0	17.47	2.0148	16.554	2
8398	83.98	0	0	0	0	0	0	0	0	0	0	0	0	0	0	0	0	0	0	0	0	0	1	0	0	17.755	2.1475	16.785	0	0	0	1	0	0	17.883	2.027	16.961	0	0	0	0	0	0	0	0	0	0	0	0	0	0	0	0	0	0	0	0	0	1	0	0	17.47	2.0148	16.554	2
8399	83.99	0	0	0	0	0	0	10.917	-10.917	18.908	0	0	0	0	0	0	0	0	0	0	0	0	0	0	0	10.989	-10.989	19.033	0	0	0	1	0	0	17.883	2.027	16.961	0	0	0	1	0	0	17.883	2.027	16.961	0	0	0	0	0	0	10.994	-10.994	19.042	0	0	0	0	0	0	0	0	0	2
8400	84	0	0	0	0	0	0	10.917	-10.917	18.908	0	0	0	0	0	0	0	0	0	0	0	0	1	0	0	17.755	2.1475	16.785	0	0	0	1	0	0	17.761	2.1499	16.789	0	0	0	0	0	0	0	0	0	0	0	0	0	0	0	10.994	-10.994	19.042	0	0	0	0	0	0	0	0	0	2
8401	84.01	0	0	0	0	0	0	10.917	-10.917	18.908	0	0	0	0	0	0	0	0	0	0	0	0	1	0	0	17.755	2.1475	16.785	0	0	0	1	0	0	17.761	2.1499	16.789	0	0	0	0	0	0	0	0	0	0	0	0	0	0	0	10.994	-10.994	19.042	0	0	0	0	0	0	0	0	0	2
8402	84.02	0	0	0	0	0	0	10.917	-10.917	18.908	0	0	0	0	0	0	0	0	0	0	0	0	0	0	0	10.989	-10.989	19.033	0	0	0	1	0	0	17.883	2.027	16.961	0	0	0	0	0	0	0	0	0	0	0	0	1	-1	0	7.5503	-27.469	31.921	0	0	0	0	0	0	0	0	0	2
8403	84.03	0	0	0	0	0	0	10.917	-10.917	18.908	0	0	0	0	0	0	0	0	0	0	0	0	1	0	0	17.755	2.1475	16.785	0	0	0	1	0	0	17.761	2.1499	16.789	0	0	0	0	0	0	0	0	0	0	0	0	0	0	0	10.994	-10.994	19.042	0	0	0	0	0	0	0	0	0	2
8404	84.04	0	0	0	0	0	0	0	0	0	0	0	0	0	0	0	0	0	0	0	0	0	1	0	0	17.755	2.1475	16.785	0	0	0	1	0	0	17.883	2.027	16.961	0	0	0	0	0	0	0	0	0	0	0	0	0	0	0	10.994	-10.994	19.042	0	0	0	0	0	0	0	0	0	2
8405	84.05	0	0	0	0	0	0	0	0	0	0	0	0	0	0	0	0	0	0	0	0	0	1	0	0	17.755	2.1475	16.785	0	0	0	1	0	0	17.883	2.027	16.961	0	0	0	0	0	0	0	0	0	0	0	0	0	0	0	0	0	0	0	0	0	0	0	0	0	0	0	2
8406	84.06	0	0	0	0	0	0	10.917	-10.917	18.908	0	0	0	0	0	0	0	0	0	0	0	0	1	0	0	17.755	2.1475	16.785	0	0	0	1	0	0	17.761	2.1499	16.789	0	0	0	0	0	0	0	0	0	0	0	0	0	0	0	10.994	-10.994	19.042	0	0	0	1	0	0	17.47	2.0148	16.554	2
8407	84.07	0	0	0	0	0	0	0	0	0	0	0	0	0	0	0	0	0	0	0	0	0	0	0	0	10.989	-10.989	19.033	0	0	0	1	0	0	17.761	2.1499	16.789	0	0	0	0	0	0	0	0	0	0	0	0	0	0	0	0	0	0	0	0	0	0	0	0	0	0	0	2
8408	84.08	0	0	0	0	0	0	10.917	-10.917	18.908	0	0	0	0	0	0	0	0	0	0	0	0	1	0	0	17.755	2.1475	16.785	0	0	0	1	0	0	17.761	2.1499	16.789	0	0	0	0	0	0	0	0	0	0	0	0	1	-1	0	7.5503	-27.469	31.921	0	0	0	0	0	0	0	0	0	2
8409	84.09	0	0	0	0	0	0	10.917	-10.917	18.908	0	0	0	0	0	0	0	0	0	0	0	0	0	0	0	10.989	-10.989	19.033	0	0	0	1	0	0	17.761	2.1499	16.789	0	0	0	0	0	0	0	0	0	0	0	0	0	0	0	10.994	-10.994	19.042	0	0	0	0	0	0	0	0	0	2
8410	84.1	0	0	0	0	0	0	10.917	-10.917	18.908	0	0	0	0	0	0	0	0	0	0	0	0	1	0	0	17.755	2.1475	16.785	0	0	0	1	0	0	17.883	2.027	16.961	0	0	0	0	0	0	0	0	0	0	0	0	0	0	0	10.994	-10.994	19.042	0	0	0	0	0	0	0	0	0	2
8411	84.11	0	0	0	0	0	0	10.917	-10.917	18.908	0	0	0	0	0	0	0	0	0	0	0	0	1	0	0	17.755	2.1475	16.785	0	0	0	1	0	0	17.761	2.1499	16.789	0	0	0	0	0	0	0	0	0	0	0	0	1	-1	0	7.5503	-27.469	31.921	0	0	0	0	0	0	0	0	0	2
8412	84.12	0	0	0	0	0	0	0	0	0	0	0	0	0	0	0	0	0	0	0	0	0	0	0	0	10.989	-10.989	19.033	0	0	0	1	0	0	17.883	2.027	16.961	0	0	0	0	0	0	0	0	0	0	0	0	1	-1	0	7.5503	-27.469	31.921	0	0	0	1	0	0	17.47	2.0148	16.554	2
8413	84.13	0	0	0	0	0	0	0	0	0	0	0	0	0	0	0	0	0	0	0	0	0	1	0	0	17.755	2.1475	16.785	0	0	0	1	0	0	17.761	2.1499	16.789	0	0	0	0	0	0	0	0	0	0	0	0	1	-1	0	15.741	-15.736	27.259	0	0	0	0	0	0	0	0	0	2
8414	84.14	0	0	0	0	0	0	10.917	-10.917	18.908	0	0	0	0	0	0	0	0	0	0	0	0	1	0	0	17.755	2.1475	16.785	0	0	0	1	0	0	17.883	2.027	16.961	0	0	0	0	0	0	0	0	0	0	0	0	0	0	0	10.994	-10.994	19.042	0	0	0	1	0	0	17.47	2.0148	16.554	2
8415	84.15	0	0	0	0	0	0	10.917	-10.917	18.908	0	0	0	0	0	0	0	0	0	0	0	0	1	0	0	17.755	2.1475	16.785	0	0	0	1	0	0	17.761	2.1499	16.789	0	0	0	0	0	0	0	0	0	0	0	0	1	-1	0	7.5503	-27.469	31.921	0	0	0	0	0	0	0	0	0	2
8416	84.16	0	0	0	0	0	0	0	0	0	0	0	0	0	0	0	0	0	0	0	0	0	1	0	0	17.755	2.1475	16.785	0	0	0	1	0	0	17.761	2.1499	16.789	0	0	0	0	0	0	0	0	0	0	0	0	0	0	0	10.994	-10.994	19.042	0	0	0	1	0	0	17.47	2.0148	16.554	2
8417	84.17	0	0	0	0	0	0	10.917	-10.917	18.908	0	0	0	0	0	0	0	0	0	0	0	0	1	0	0	17.755	2.1475	16.785	0	0	0	1	0	0	17.883	2.027	16.961	0	0	0	0	0	0	0	0	0	0	0	0	1	-1	0	7.5503	-27.469	31.921	0	0	0	0	0	0	0	0	0	0
8418	84.18	0	0	0	0	0	0	10.917	-10.917	18.908	0	0	0	0	0	0	0	0	0	0	0	0	1	0	0	17.755	2.1475	16.785	0	0	0	1	0	0	17.761	2.1499	16.789	0	0	0	0	0	0	0	0	0	0	0	0	0	0	0	0	0	0	0	0	0	0	0	0	0	0	0	2
8419	84.19	0	0	0	0	0	0	0	0	0	0	0	0	0	0	0	0	0	0	0	0	0	1	0	0	17.755	2.1475	16.785	0	0	0	1	0	0	17.883	2.027	16.961	0	0	0	0	0	0	0	0	0	0	0	0	0	-1	0	-2.0278	-17.891	16.968	0	0	0	0	0	0	0	0	0	2
8420	84.2	0	0	0	0	0	0	0	0	0	0	0	0	0	0	0	0	0	0	0	0	0	0	0	0	10.989	-10.989	19.033	0	0	0	1	0	0	17.761	2.1499	16.789	0	0	0	0	0	0	0	0	0	0	0	0	1	-1	0	7.5503	-27.469	31.921	0	0	0	0	0	0	0	0	0	2
8421	84.21	0	0	0	0	0	0	0	0	0	0	0	0	0	0	0	0	0	0	0	0	0	1	0	0	17.755	2.1475	16.785	0	0	0	1	0	0	17.761	2.1499	16.789	0	0	0	0	0	0	0	0	0	0	0	0	0	0	0	0	0	0	0	0	0	1	0	0	17.47	2.0148	16.554	2
8422	84.22	0	0	0	0	0	0	0	0	0	0	0	0	0	0	0	0	0	0	0	0	0	1	0	0	17.755	2.1475	16.785	0	0	0	1	0	0	17.883	2.027	16.961	0	0	0	0	0	0	0	0	0	0	0	0	1	-1	0	7.5503	-27.469	31.921	0	0	0	0	0	0	0	0	0	2
8423	84.23	0	0	0	0	0	0	10.917	-10.917	18.908	0	0	0	0	0	0	0	0	0	0	0	0	1	0	0	17.755	2.1475	16.785	0	0	0	1	0	0	17.761	2.1499	16.789	0	0	0	0	0	0	0	0	0	0	0	0	0	0	0	10.994	-10.994	19.042	0	0	0	0	0	0	0	0	0	2
8424	84.24	0	0	0	0	0	0	10.917	-10.917	18.908	0	0	0	0	0	0	0	0	0	0	0	0	1	0	0	17.755	2.1475	16.785	0	0	0	1	0	0	17.761	2.1499	16.789	0	0	0	0	0	0	0	0	0	0	0	0	0	0	0	10.994	-10.994	19.042	0	0	0	0	0	0	0	0	0	2
8425	84.25	0	0	0	0	0	0	0	0	0	0	0	0	0	0	0	0	0	0	0	0	0	1	0	0	17.755	2.1475	16.785	0	0	0	1	0	0	17.761	2.1499	16.789	0	0	0	0	0	0	0	0	0	0	0	0	0	0	0	10.994	-10.994	19.042	0	0	0	1	0	0	17.47	2.0148	16.554	2
8426	84.26	0	0	0	0	0	0	10.917	-10.917	18.908	0	0	0	0	0	0	0	0	0	0	0	0	1	0	0	17.755	2.1475	16.785	0	0	0	1	0	0	17.761	2.1499	16.789	0	0	0	0	0	0	0	0	0	0	0	0	0	0	0	10.994	-10.994	19.042	0	0	0	1	0	0	17.47	2.0148	16.554	2
8427	84.27	0	0	0	0	0	0	0	0	0	0	0	0	0	0	0	0	0	0	0	0	0	0	0	0	10.989	-10.989	19.033	0	0	0	1	0	0	17.883	2.027	16.961	0	0	0	0	0	0	0	0	0	0	0	0	0	-1	0	-2.0278	-17.891	16.968	0	0	0	0	0	0	0	0	0	2
8428	84.28	0	0	0	0	0	0	10.917	-10.917	18.908	0	0	0	0	0	0	0	0	0	0	0	0	1	0	0	17.755	2.1475	16.785	0	0	0	1	0	0	17.761	2.1499	16.789	0	0	0	0	0	0	0	0	0	0	0	0	0	0	0	10.994	-10.994	19.042	0	0	0	1	0	0	17.47	2.0148	16.554	2
8429	84.29	0	0	0	0	0	0	10.917	-10.917	18.908	0	0	0	0	0	0	0	0	0	0	0	0	0	0	0	10.989	-10.989	19.033	0	0	0	1	0	0	17.883	2.027	16.961	0	0	0	0	0	0	0	0	0	0	0	0	0	-1	0	-2.0278	-17.891	16.968	0	0	0	0	0	0	0	0	0	2
8430	84.3	0	0	0	0	0	0	10.917	-10.917	18.908	0	0	0	0	0	0	0	0	0	0	0	0	1	0	0	17.755	2.1475	16.785	0	0	0	1	0	0	17.761	2.1499	16.789	0	0	0	0	0	0	0	0	0	0	0	0	1	-1	0	7.5503	-27.469	31.921	0	0	0	0	0	0	0	0	0	2
8431	84.31	0	0	0	0	0	0	10.917	-10.917	18.908	0	0	0	0	0	0	0	0	0	0	0	0	1	0	0	17.755	2.1475	16.785	0	0	0	1	0	0	17.761	2.1499	16.789	0	0	0	0	0	0	0	0	0	0	0	0	1	-1	0	7.5503	-27.469	31.921	0	0	0	0	0	0	0	0	0	2
8432	84.32	0	0	0	0	0	0	10.917	-10.917	18.908	0	0	0	0	0	0	0	0	0	0	0	0	0	0	0	10.989	-10.989	19.033	0	0	0	1	0	0	17.761	2.1499	16.789	0	0	0	0	0	0	0	0	0	0	0	0	1	-1	0	7.5503	-27.469	31.921	0	0	0	0	0	0	0	0	0	2
8433	84.33	0	0	0	0	0	0	10.917	-10.917	18.908	0	0	0	0	0	0	0	0	0	0	0	0	1	0	0	17.755	2.1475	16.785	0	0	0	1	0	0	17.883	2.027	16.961	0	0	0	0	0	0	0	0	0	0	0	0	0	0	0	10.994	-10.994	19.042	0	0	0	1	0	0	17.47	2.0148	16.554	2
8434	84.34	0	0	0	0	0	0	10.917	-10.917	18.908	0	0	0	0	0	0	0	0	0	0	0	0	0	0	0	10.989	-10.989	19.033	0	0	0	1	0	0	17.883	2.027	16.961	0	0	0	0	0	0	0	0	0	0	0	0	1	-1	0	7.5503	-27.469	31.921	0	0	0	0	0	0	0	0	0	2
8435	84.35	0	0	0	0	0	0	0	0	0	0	0	0	0	0	0	0	0	0	0	0	0	1	0	0	17.755	2.1475	16.785	0	0	0	1	0	0	17.761	2.1499	16.789	0	0	0	0	0	0	0	0	0	0	0	0	1	-1	0	7.5503	-27.469	31.921	0	0	0	1	0	0	17.47	2.0148	16.554	2
8436	84.36	0	0	0	0	0	0	10.917	-10.917	18.908	0	0	0	0	0	0	0	0	0	0	0	0	1	0	0	17.755	2.1475	16.785	0	0	0	1	0	0	17.761	2.1499	16.789	0	0	0	0	0	0	0	0	0	0	0	0	0	-1	0	-2.0278	-17.891	16.968	0	0	0	0	0	0	0	0	0	2
8437	84.37	0	0	0	0	0	0	10.917	-10.917	18.908	0	0	0	0	0	0	0	0	0	0	0	0	1	0	0	17.755	2.1475	16.785	0	0	0	1	0	0	17.883	2.027	16.961	0	0	0	0	0	0	0	0	0	0	0	0	0	0	0	0	0	0	0	0	0	0	0	0	0	0	0	2
8438	84.38	0	0	0	0	0	0	0	0	0	0	0	0	0	0	0	0	0	0	0	0	0	1	0	0	17.755	2.1475	16.785	0	0	0	1	0	0	17.761	2.1499	16.789	0	0	0	0	0	0	0	0	0	0	0	0	1	-1	0	7.5503	-27.469	31.921	0	0	0	1	0	0	17.471	2.0135	16.556	2
8439	84.39	0	0	0	0	0	0	0	0	0	0	0	0	0	0	0	0	0	0	0	0	0	1	0	0	17.755	2.1475	16.785	0	0	0	1	0	0	17.883	2.027	16.961	0	0	0	0	0	0	0	0	0	0	0	0	1	-1	0	7.5503	-27.469	31.921	0	0	0	0	0	0	0	0	0	2
8440	84.4	0	0	0	0	0	0	10.917	-10.917	18.908	0	0	0	0	0	0	0	0	0	0	0	0	1	0	0	17.755	2.1475	16.785	0	0	0	1	0	0	17.883	2.027	16.961	0	0	0	0	0	0	0	0	0	0	0	0	1	-1	0	7.5503	-27.469	31.921	0	0	0	0	0	0	0	0	0	2
8441	84.41	0	0	0	0	0	0	0	0	0	0	0	0	0	0	0	0	0	0	0	0	0	1	0	0	17.755	2.1475	16.785	0	0	0	1	0	0	17.761	2.1499	16.789	0	0	0	1	0	0	17.883	2.027	16.961	0	0	0	1	-1	0	7.5503	-27.469	31.921	0	0	0	1	0	0	17.47	2.0148	16.554	2
8442	84.42	0	0	0	0	0	0	10.917	-10.917	18.908	0	0	0	0	0	0	0	0	0	0	0	0	0	0	0	10.989	-10.989	19.033	0	0	0	1	0	0	17.883	2.027	16.961	0	0	0	0	0	0	0	0	0	0	0	0	0	0	0	10.994	-10.994	19.042	0	0	0	0	0	0	0	0	0	2
8443	84.43	0	0	0	0	0	0	0	0	0	0	0	0	0	0	0	0	0	0	0	0	0	1	0	0	17.755	2.1475	16.785	0	0	0	1	0	0	17.761	2.1499	16.789	0	0	0	0	0	0	0	0	0	0	0	0	1	-1	0	7.5503	-27.469	31.921	0	0	0	1	0	0	17.47	2.0148	16.554	2
8444	84.44	0	0	0	0	0	0	0	0	0	0	0	0	0	0	0	0	0	0	0	0	0	0	0	0	10.989	-10.989	19.033	0	0	0	1	0	0	17.761	2.1499	16.789	0	0	0	0	0	0	0	0	0	0	0	0	0	-1	0	-2.0278	-17.891	16.968	0	0	0	0	0	0	0	0	0	2
8445	84.45	0	0	0	0	0	0	10.917	-10.917	18.908	0	0	0	0	0	0	0	0	0	0	0	0	1	0	0	17.755	2.1475	16.785	0	0	0	1	0	0	17.883	2.027	16.961	0	0	0	0	0	0	0	0	0	0	0	0	0	0	0	10.994	-10.994	19.042	0	0	0	0	0	0	0	0	0	0
8446	84.46	0	0	0	0	0	0	0	0	0	0	0	0	0	0	0	0	0	0	0	0	0	1	0	0	17.755	2.1475	16.785	0	0	0	1	0	0	17.761	2.1499	16.789	0	0	0	0	0	0	0	0	0	0	0	0	0	0	0	10.994	-10.994	19.042	0	0	0	1	0	0	17.47	2.0148	16.554	2
8447	84.47	0	0	0	0	0	0	0	0	0	0	0	0	0	0	0	0	0	0	0	0	0	1	0	0	17.755	2.1475	16.785	0	0	0	1	0	0	17.761	2.1499	16.789	0	0	0	0	0	0	0	0	0	0	0	0	1	-1	0	7.5503	-27.469	31.921	0	0	0	0	0	0	0	0	0	2
8448	84.48	0	0	0	0	0	0	0	0	0	0	0	0	0	0	0	0	0	0	0	0	0	1	0	0	17.755	2.1475	16.785	0	0	0	1	0	0	17.761	2.1499	16.789	0	0	0	0	0	0	0	0	0	0	0	0	0	0	0	11.266	-11.261	19.508	0	0	0	0	0	0	0	0	0	2
8449	84.49	0	0	0	0	0	0	0	0	0	0	0	0	0	0	0	0	0	0	0	0	0	1	0	0	17.755	2.1475	16.785	0	0	0	1	0	0	17.761	2.1499	16.789	0	0	0	0	0	0	0	0	0	0	0	0	1	-1	0	7.5503	-27.469	31.921	0	0	0	0	0	0	0	0	0	2
8450	84.5	0	0	0	0	0	0	10.917	-10.917	18.908	0	0	0	0	0	0	0	0	0	0	0	0	1	0	0	17.755	2.1475	16.785	0	0	0	1	0	0	17.761	2.1499	16.789	0	0	0	0	0	0	0	0	0	0	0	0	0	0	0	10.994	-10.994	19.042	0	0	0	0	0	0	0	0	0	2
8451	84.51	0	0	0	0	0	0	10.917	-10.917	18.908	0	0	0	0	0	0	0	0	0	0	0	0	1	0	0	17.755	2.1475	16.785	0	0	0	1	0	0	17.761	2.1499	16.789	0	0	0	0	0	0	0	0	0	0	0	0	1	-1	0	7.5503	-27.469	31.921	0	0	0	1	0	0	17.47	2.0148	16.554	2
8452	84.52	0	0	0	0	0	0	10.917	-10.917	18.908	0	0	0	0	0	0	0	0	0	0	0	0	0	0	0	10.989	-10.989	19.033	0	0	0	1	0	0	17.883	2.027	16.961	0	0	0	0	0	0	0	0	0	0	0	0	0	-1	0	-2.0278	-17.891	16.968	0	0	0	0	0	0	0	0	0	2
8453	84.53	0	0	0	1	-1	0	7.4664	-27.317	31.716	0	0	0	0	0	0	0	0	0	0	0	0	1	0	0	17.755	2.1475	16.785	0	0	0	1	0	0	17.883	2.027	16.961	0	0	0	0	0	0	0	0	0	0	0	0	1	-1	0	7.5503	-27.469	31.921	0	0	0	0	0	0	0	0	0	2
8454	84.54	0	0	0	0	0	0	0	0	0	0	0	0	0	0	0	0	0	0	0	0	0	0	0	0	10.989	-10.989	19.033	0	0	0	1	0	0	17.883	2.027	16.961	0	0	0	0	0	0	0	0	0	0	0	0	0	-1	0	-2.0278	-17.891	16.968	0	0	0	1	0	0	17.482	2.0162	16.566	2
8455	84.55	0	0	0	0	0	0	0	0	0	0	0	0	0	0	0	0	0	0	0	0	0	0	0	0	10.989	-10.989	19.033	0	0	0	1	0	0	17.761	2.1499	16.789	0	0	0	0	0	0	0	0	0	0	0	0	0	-1	0	-2.0278	-17.891	16.968	0	0	0	0	0	0	0	0	0	2
8456	84.56	0	0	0	0	0	0	0	0	0	0	0	0	0	0	0	0	0	0	0	0	0	1	0	0	17.755	2.1475	16.785	0	0	0	1	0	0	17.761	2.1499	16.789	0	0	0	1	0	0	17.883	2.027	16.961	0	0	0	1	-1	0	7.5503	-27.469	31.921	0	0	0	1	0	0	17.47	2.0148	16.554	2
8457	84.57	0	0	0	0	0	0	0	0	0	0	0	0	0	0	0	0	0	0	0	0	0	0	0	0	10.989	-10.989	19.033	0	0	0	1	0	0	17.883	2.027	16.961	0	0	0	0	0	0	0	0	0	0	0	0	0	-1	0	-2.0278	-17.891	16.968	0	0	0	0	0	0	0	0	0	2
8458	84.58	0	0	0	0	0	0	0	0	0	0	0	0	0	0	0	0	0	0	0	0	0	0	0	0	10.989	-10.989	19.033	0	0	0	1	0	0	17.761	2.1499	16.789	0	0	0	0	0	0	0	0	0	0	0	0	1	-1	0	7.5503	-27.469	31.921	0	0	0	0	0	0	0	0	0	2
8459	84.59	0	0	0	0	0	0	10.917	-10.917	18.908	0	0	0	0	0	0	0	0	0	0	0	0	1	0	0	17.755	2.1475	16.785	0	0	0	1	0	0	17.761	2.1499	16.789	0	0	0	0	0	0	0	0	0	0	0	0	0	0	0	10.994	-10.994	19.042	0	0	0	1	0	0	17.47	2.0148	16.554	2
8460	84.6	0	0	0	0	0	0	0	0	0	0	0	0	0	0	0	0	0	0	0	0	0	1	0	0	17.755	2.1475	16.785	0	0	0	1	0	0	17.761	2.1499	16.789	0	0	0	0	0	0	0	0	0	0	0	0	0	-1	0	-2.0278	-17.891	16.968	0	0	0	0	0	0	0	0	0	2
8461	84.61	0	0	0	0	0	0	10.917	-10.917	18.908	0	0	0	0	0	0	0	0	0	0	0	0	1	0	0	17.755	2.1475	16.785	0	0	0	1	0	0	17.761	2.1499	16.789	0	0	0	1	0	0	17.883	2.027	16.961	0	0	0	0	-1	0	-2.0278	-17.891	16.968	0	0	0	1	0	0	17.47	2.0148	16.554	2
8462	84.62	0	0	0	0	0	0	0	0	0	0	0	0	0	0	0	0	0	0	0	0	0	0	0	0	10.989	-10.989	19.033	0	0	0	1	0	0	17.761	2.1499	16.789	0	0	0	0	0	0	0	0	0	0	0	0	0	0	0	10.994	-10.994	19.042	0	0	0	1	0	0	17.47	2.0148	16.554	2
8463	84.63	0	0	0	0	0	0	10.917	-10.917	18.908	0	0	0	0	0	0	0	0	0	0	0	0	1	0	0	17.755	2.1475	16.785	0	0	0	1	0	0	17.761	2.1499	16.789	0	0	0	0	0	0	0	0	0	0	0	0	0	-1	0	-2.0278	-17.891	16.968	0	0	0	1	0	0	17.47	2.0148	16.554	2
8464	84.64	0	0	0	1	-1	0	7.4664	-27.317	31.716	0	0	0	0	0	0	0	0	0	0	0	0	0	0	0	10.989	-10.989	19.033	0	0	0	1	0	0	17.761	2.1499	16.789	0	0	0	0	0	0	0	0	0	0	0	0	0	0	0	0	0	0	0	0	0	0	0	0	0	0	0	2
8465	84.65	0	0	0	0	0	0	0	0	0	0	0	0	0	0	0	0	0	0	0	0	0	1	0	0	17.755	2.1475	16.785	0	0	0	1	0	0	17.883	2.027	16.961	0	0	0	0	0	0	0	0	0	0	0	0	1	-1	0	7.5503	-27.469	31.921	0	0	0	1	0	0	17.47	2.0148	16.554	2
8466	84.66	0	0	0	0	0	0	0	0	0	0	0	0	0	0	0	0	0	0	0	0	0	1	0	0	17.755	2.1475	16.785	0	0	0	1	0	0	17.761	2.1499	16.789	0	0	0	0	0	0	0	0	0	0	0	0	0	0	0	10.994	-10.994	19.042	0	0	0	1	0	0	17.47	2.0148	16.554	2
8467	84.67	0	0	0	0	0	0	0	0	0	0	0	0	0	0	0	0	0	0	0	0	0	0	0	0	10.989	-10.989	19.033	0	0	0	1	0	0	17.883	2.027	16.961	0	0	0	0	0	0	0	0	0	0	0	0	0	0	0	10.994	-10.994	19.042	0	0	0	0	0	0	0	0	0	2
8468	84.68	0	0	0	0	0	0	10.917	-10.917	18.908	0	0	0	0	0	0	0	0	0	0	0	0	0	0	0	10.989	-10.989	19.033	0	0	0	1	0	0	17.761	2.1499	16.789	0	0	0	1	0	0	17.883	2.027	16.961	0	0	0	1	-1	0	7.5503	-27.469	31.921	0	0	0	0	0	0	10.93	-10.93	18.931	2
8469	84.69	0	0	0	0	0	0	10.917	-10.917	18.908	0	0	0	0	0	0	0	0	0	0	0	0	1	0	0	17.755	2.1475	16.785	0	0	0	1	0	0	17.761	2.1499	16.789	0	0	0	0	0	0	0	0	0	0	0	0	1	-1	0	7.5503	-27.469	31.921	0	0	0	0	0	0	0	0	0	2
8470	84.7	0	0	0	0	0	0	10.917	-10.917	18.908	0	0	0	0	0	0	0	0	0	0	0	0	0	0	0	10.989	-10.989	19.033	0	0	0	1	0	0	17.761	2.1499	16.789	0	0	0	0	0	0	0	0	0	0	0	0	1	-1	0	7.5503	-27.469	31.921	0	0	0	0	0	0	0	0	0	2
8471	84.71	0	0	0	0	0	0	0	0	0	0	0	0	0	0	0	0	0	0	0	0	0	1	0	0	17.755	2.1475	16.785	0	0	0	1	0	0	17.761	2.1499	16.789	0	0	0	0	0	0	0	0	0	0	0	0	1	-1	0	7.5503	-27.469	31.921	0	0	0	0	0	0	0	0	0	2
8472	84.72	0	0	0	0	0	0	10.917	-10.917	18.908	0	0	0	0	0	0	0	0	0	0	0	0	0	0	0	10.989	-10.989	19.033	0	0	0	1	0	0	17.761	2.1499	16.789	0	0	0	0	0	0	0	0	0	0	0	0	0	-1	0	-2.0278	-17.891	16.968	0	0	0	0	0	0	0	0	0	2
8473	84.73	0	0	0	0	0	0	10.917	-10.917	18.908	0	0	0	0	0	0	0	0	0	0	0	0	1	0	0	17.755	2.1475	16.785	0	0	0	1	0	0	17.761	2.1499	16.789	0	0	0	0	0	0	0	0	0	0	0	0	0	0	0	10.994	-10.994	19.042	0	0	0	1	0	0	17.47	2.0148	16.554	2
8474	84.74	0	0	0	0	0	0	10.917	-10.917	18.908	0	0	0	0	0	0	0	0	0	0	0	0	1	0	0	17.755	2.1475	16.785	0	0	0	1	0	0	17.761	2.1499	16.789	0	0	0	0	0	0	0	0	0	0	0	0	0	0	0	0	0	0	0	0	0	0	0	0	0	0	0	2
8475	84.75	0	0	0	0	0	0	0	0	0	0	0	0	0	0	0	0	0	0	0	0	0	1	0	0	17.755	2.1475	16.785	0	0	0	1	0	0	17.883	2.027	16.961	0	0	0	0	0	0	0	0	0	0	0	0	1	-1	0	7.5503	-27.469	31.921	0	0	0	0	0	0	0	0	0	2
8476	84.76	0	0	0	0	0	0	10.917	-10.917	18.908	0	0	0	0	0	0	0	0	0	0	0	0	1	0	0	17.755	2.1475	16.785	0	0	0	1	0	0	17.761	2.1499	16.789	0	0	0	0	0	0	0	0	0	0	0	0	1	-1	0	7.5503	-27.469	31.921	0	0	0	1	0	0	17.47	2.0148	16.554	2
8477	84.77	0	0	0	0	0	0	10.917	-10.917	18.908	0	0	0	0	0	0	0	0	0	0	0	0	1	0	0	17.755	2.1475	16.785	0	0	0	1	0	0	17.761	2.1499	16.789	0	0	0	0	0	0	0	0	0	0	0	0	0	-1	0	-2.0278	-17.891	16.968	0	0	0	0	0	0	0	0	0	2
8478	84.78	0	0	0	0	0	0	0	0	0	0	0	0	0	0	0	0	0	0	0	0	0	1	0	0	17.755	2.1475	16.785	0	0	0	1	0	0	17.761	2.1499	16.789	0	0	0	0	0	0	0	0	0	0	0	0	1	-1	0	7.5503	-27.469	31.921	0	0	0	0	0	0	0	0	0	2
8479	84.79	0	0	0	0	0	0	10.917	-10.917	18.908	0	0	0	0	0	0	0	0	0	0	0	0	0	0	0	10.989	-10.989	19.033	0	0	0	1	0	0	17.761	2.1499	16.789	0	0	0	0	0	0	0	0	0	0	0	0	1	-1	0	7.5503	-27.469	31.921	0	0	0	1	0	0	17.47	2.0148	16.554	2
8480	84.8	0	0	0	0	0	0	10.917	-10.917	18.908	0	0	0	0	0	0	0	0	0	0	0	0	0	0	0	10.989	-10.989	19.033	0	0	0	1	0	0	17.761	2.1499	16.789	0	0	0	0	0	0	0	0	0	0	0	0	0	0	0	0	0	0	0	0	0	0	0	0	0	0	0	2
8481	84.81	0	0	0	0	0	0	10.917	-10.917	18.908	0	0	0	0	0	0	0	0	0	0	0	0	1	0	0	17.755	2.1475	16.785	0	0	0	1	0	0	17.761	2.1499	16.789	0	0	0	0	0	0	0	0	0	0	0	0	0	0	0	10.994	-10.994	19.042	0	0	0	0	0	0	0	0	0	2
8482	84.82	0	0	0	0	0	0	0	0	0	0	0	0	0	0	0	0	0	0	0	0	0	0	0	0	10.989	-10.989	19.033	0	0	0	1	0	0	17.761	2.1499	16.789	0	0	0	0	0	0	0	0	0	0	0	0	1	-1	0	7.5503	-27.469	31.921	0	0	0	0	0	0	0	0	0	2
8483	84.83	0	0	0	0	0	0	10.917	-10.917	18.908	0	0	0	0	0	0	0	0	0	0	0	0	0	0	0	10.989	-10.989	19.033	0	0	0	1	0	0	17.761	2.1499	16.789	0	0	0	0	0	0	0	0	0	0	0	0	0	0	0	10.994	-10.994	19.042	0	0	0	1	0	0	17.47	2.0148	16.554	2
8484	84.84	0	0	0	0	0	0	10.917	-10.917	18.908	0	0	0	0	0	0	0	0	0	0	0	0	1	0	0	17.755	2.1475	16.785	0	0	0	1	0	0	17.883	2.027	16.961	0	0	0	0	0	0	0	0	0	0	0	0	0	-1	0	-2.0278	-17.891	16.968	0	0	0	0	0	0	0	0	0	2
8485	84.85	0	0	0	0	0	0	0	0	0	0	0	0	0	0	0	0	0	0	0	0	0	0	0	0	10.989	-10.989	19.033	0	0	0	1	0	0	17.761	2.1499	16.789	0	0	0	0	0	0	0	0	0	0	0	0	1	-1	0	7.5503	-27.469	31.921	0	0	0	0	0	0	0	0	0	2
8486	84.86	0	0	0	0	0	0	10.917	-10.917	18.908	0	0	0	0	0	0	0	0	0	0	0	0	1	0	0	17.755	2.1475	16.785	0	0	0	1	0	0	17.883	2.027	16.961	0	0	0	0	0	0	0	0	0	0	0	0	1	-1	0	7.5503	-27.469	31.921	0	0	0	1	0	0	17.47	2.0148	16.554	2
8487	84.87	0	0	0	0	0	0	10.917	-10.917	18.908	0	0	0	0	0	0	0	0	0	0	0	0	0	0	0	10.989	-10.989	19.033	0	0	0	1	0	0	17.761	2.1499	16.789	0	0	0	0	0	0	0	0	0	0	0	0	0	0	0	0	0	0	0	0	0	0	0	0	0	0	0	2
8488	84.88	0	0	0	0	0	0	0	0	0	0	0	0	0	0	0	0	0	0	0	0	0	1	0	0	17.755	2.1475	16.785	0	0	0	1	0	0	17.883	2.027	16.961	0	0	0	0	0	0	0	0	0	0	0	0	1	-1	0	7.5503	-27.469	31.921	0	0	0	1	0	0	17.47	2.0148	16.554	2
8489	84.89	0	0	0	0	0	0	10.917	-10.917	18.908	0	0	0	0	0	0	0	0	0	0	0	0	1	0	0	17.755	2.1475	16.785	0	0	0	1	0	0	17.761	2.1499	16.789	0	0	0	0	0	0	0	0	0	0	0	0	0	0	0	0	0	0	0	0	0	0	0	0	0	0	0	2
8490	84.9	0	0	0	0	0	0	0	0	0	0	0	0	0	0	0	0	0	0	0	0	0	1	0	0	17.755	2.1475	16.785	0	0	0	1	0	0	17.761	2.1499	16.789	0	0	0	0	0	0	0	0	0	0	0	0	0	-1	0	-2.0278	-17.891	16.968	0	0	0	0	0	0	0	0	0	2
8491	84.91	0	0	0	0	0	0	10.917	-10.917	18.908	0	0	0	0	0	0	0	0	0	0	0	0	1	0	0	17.755	2.1475	16.785	0	0	0	1	0	0	17.761	2.1499	16.789	0	0	0	0	0	0	0	0	0	0	0	0	0	0	0	10.994	-10.994	19.042	0	0	0	1	0	0	17.47	2.0148	16.554	2
8492	84.92	0	0	0	0	0	0	0	0	0	0	0	0	0	0	0	0	0	0	0	0	0	1	0	0	17.755	2.1475	16.785	0	0	0	1	0	0	17.761	2.1499	16.789	0	0	0	0	0	0	0	0	0	0	0	0	1	-1	0	7.5503	-27.469	31.921	0	0	0	0	0	0	0	0	0	2
8493	84.93	0	0	0	0	0	0	10.917	-10.917	18.908	0	0	0	0	0	0	0	0	0	0	0	0	0	0	0	10.989	-10.989	19.033	0	0	0	1	0	0	17.761	2.1499	16.789	0	0	0	0	0	0	0	0	0	0	0	0	0	0	0	10.994	-10.994	19.042	0	0	0	1	0	0	17.47	2.0148	16.554	2
8494	84.94	0	0	0	0	0	0	0	0	0	0	0	0	0	0	0	0	0	0	0	0	0	1	0	0	17.755	2.1475	16.785	0	0	0	1	0	0	17.883	2.027	16.961	0	0	0	0	0	0	0	0	0	0	0	0	0	0	0	10.994	-10.994	19.042	0	0	0	0	0	0	0	0	0	2
8495	84.95	0	0	0	0	0	0	0	0	0	0	0	0	0	0	0	0	0	0	0	0	0	0	0	0	10.989	-10.989	19.033	0	0	0	1	0	0	17.883	2.027	16.961	0	0	0	0	0	0	0	0	0	0	0	0	0	0	0	10.994	-10.994	19.042	0	0	0	0	0	0	0	0	0	2
8496	84.96	0	0	0	0	0	0	10.917	-10.917	18.908	0	0	0	0	0	0	0	0	0	0	0	0	1	0	0	17.755	2.1475	16.785	0	0	0	1	0	0	17.761	2.1499	16.789	0	0	0	1	0	0	17.883	2.027	16.961	0	0	0	1	-1	0	7.5503	-27.469	31.921	0	0	0	1	0	0	17.47	2.0148	16.554	2
8497	84.97	0	0	0	0	0	0	0	0	0	0	0	0	0	0	0	0	0	0	0	0	0	1	0	0	17.755	2.1475	16.785	0	0	0	1	0	0	17.761	2.1499	16.789	0	0	0	0	0	0	0	0	0	0	0	0	0	0	0	10.994	-10.994	19.042	0	0	0	0	0	0	0	0	0	2
8498	84.98	0	0	0	0	0	0	10.917	-10.917	18.908	0	0	0	0	0	0	0	0	0	0	0	0	1	0	0	17.755	2.1475	16.785	0	0	0	1	0	0	17.761	2.1499	16.789	0	0	0	0	0	0	0	0	0	0	0	0	0	0	0	10.994	-10.994	19.042	0	0	0	0	0	0	0	0	0	2
8499	84.99	0	0	0	0	0	0	0	0	0	0	0	0	0	0	0	0	0	0	0	0	0	1	0	0	17.755	2.1475	16.785	0	0	0	1	0	0	17.883	2.027	16.961	0	0	0	0	0	0	0	0	0	0	0	0	0	0	0	10.994	-10.994	19.042	0	0	0	0	0	0	0	0	0	2
8500	85	0	0	0	0	0	0	0	0	0	0	0	0	0	0	0	0	0	0	0	0	0	0	0	0	10.989	-10.989	19.033	0	0	0	1	0	0	17.883	2.027	16.961	0	0	0	0	0	0	0	0	0	0	0	0	0	0	0	10.994	-10.994	19.042	0	0	0	0	0	0	0	0	0	2
8501	85.01	0	0	0	0	0	0	0	0	0	0	0	0	0	0	0	0	0	0	0	0	0	1	0	0	17.755	2.1475	16.785	0	0	0	1	0	0	17.883	2.027	16.961	0	0	0	0	0	0	0	0	0	0	0	0	0	0	0	0	0	0	0	0	0	1	0	0	17.47	2.0148	16.554	2
8502	85.02	0	0	0	0	0	0	10.917	-10.917	18.908	0	0	0	0	0	0	0	0	0	0	0	0	0	0	0	10.989	-10.989	19.033	0	0	0	1	0	0	17.761	2.1499	16.789	0	0	0	0	0	0	0	0	0	0	0	0	1	-1	0	7.5503	-27.469	31.921	0	0	0	0	0	0	0	0	0	2
8503	85.03	0	0	0	0	0	0	10.917	-10.917	18.908	0	0	0	0	0	0	0	0	0	0	0	0	0	0	0	10.989	-10.989	19.033	0	0	0	1	0	0	17.761	2.1499	16.789	0	0	0	0	0	0	0	0	0	0	0	0	0	0	0	10.994	-10.994	19.042	0	0	0	1	0	0	17.47	2.0148	16.554	2
8504	85.04	0	0	0	0	0	0	0	0	0	0	0	0	0	0	0	0	0	0	0	0	0	0	0	0	10.989	-10.989	19.033	0	0	0	1	0	0	17.761	2.1499	16.789	0	0	0	0	0	0	0	0	0	0	0	0	1	-1	0	7.5503	-27.469	31.921	0	0	0	1	0	0	17.47	2.0148	16.554	2
8505	85.05	0	0	0	0	0	0	0	0	0	0	0	0	0	0	0	0	0	0	0	0	0	0	0	0	10.989	-10.989	19.033	0	0	0	1	0	0	17.883	2.027	16.961	0	0	0	0	0	0	0	0	0	0	0	0	1	-1	0	7.5503	-27.469	31.921	0	0	0	0	0	0	0	0	0	2
8506	85.06	0	0	0	0	0	0	0	0	0	0	0	0	0	0	0	0	0	0	0	0	0	1	0	0	17.755	2.1475	16.785	0	0	0	1	0	0	17.761	2.1499	16.789	0	0	0	1	0	0	17.883	2.027	16.961	0	0	0	1	-1	0	7.5503	-27.469	31.921	0	0	0	1	0	0	17.47	2.0148	16.554	2
8507	85.07	0	0	0	0	0	0	10.917	-10.917	18.908	0	0	0	0	0	0	0	0	0	0	0	0	0	0	0	10.989	-10.989	19.033	0	0	0	1	0	0	17.761	2.1499	16.789	0	0	0	0	0	0	0	0	0	0	0	0	1	-1	0	7.5503	-27.469	31.921	0	0	0	0	0	0	0	0	0	2
8508	85.08	0	0	0	0	0	0	10.917	-10.917	18.908	0	0	0	0	0	0	0	0	0	0	0	0	0	0	0	10.989	-10.989	19.033	0	0	0	1	0	0	17.761	2.1499	16.789	0	0	0	0	0	0	0	0	0	0	0	0	0	0	0	10.994	-10.994	19.042	0	0	0	0	0	0	0	0	0	2
8509	85.09	0	0	0	0	0	0	10.917	-10.917	18.908	0	0	0	0	0	0	0	0	0	0	0	0	1	0	0	17.755	2.1475	16.785	0	0	0	1	0	0	17.761	2.1499	16.789	0	0	0	0	0	0	0	0	0	0	0	0	1	-1	0	7.5503	-27.469	31.921	0	0	0	0	0	0	0	0	0	2
8510	85.1	0	0	0	0	0	0	0	0	0	0	0	0	0	0	0	0	0	0	0	0	0	1	0	0	17.755	2.1475	16.785	0	0	0	1	0	0	17.761	2.1499	16.789	0	0	0	0	0	0	0	0	0	0	0	0	0	0	0	0	0	0	0	0	0	0	0	0	0	0	0	2
8511	85.11	0	0	0	0	0	0	0	0	0	0	0	0	0	0	0	0	0	0	0	0	0	1	0	0	17.755	2.1475	16.785	0	0	0	1	0	0	17.761	2.1499	16.789	0	0	0	0	0	0	0	0	0	0	0	0	1	-1	0	7.5503	-27.469	31.921	0	0	0	1	0	0	17.47	2.0148	16.554	2
8512	85.12	0	0	0	0	0	0	0	0	0	0	0	0	0	0	0	0	0	0	0	0	0	0	0	0	10.989	-10.989	19.033	0	0	0	1	0	0	17.761	2.1499	16.789	0	0	0	0	0	0	0	0	0	0	0	0	0	0	0	0	0	0	0	0	0	0	0	0	0	0	0	2
8513	85.13	0	0	0	0	0	0	10.917	-10.917	18.908	0	0	0	0	0	0	0	0	0	0	0	0	1	0	0	17.755	2.1475	16.785	0	0	0	1	0	0	17.761	2.1499	16.789	0	0	0	0	0	0	0	0	0	0	0	0	0	0	0	0	0	0	0	0	0	1	0	0	17.47	2.0148	16.554	2
8514	85.14	0	0	0	0	0	0	10.917	-10.917	18.908	0	0	0	0	0	0	0	0	0	0	0	0	0	0	0	10.989	-10.989	19.033	0	0	0	1	0	0	17.883	2.027	16.961	0	0	0	0	0	0	0	0	0	0	0	0	1	-1	0	7.5503	-27.469	31.921	0	0	0	1	0	0	17.47	2.0148	16.554	2
8515	85.15	0	0	0	0	0	0	0	0	0	0	0	0	0	0	0	0	0	0	0	0	0	1	0	0	17.755	2.1475	16.785	0	0	0	1	0	0	17.761	2.1499	16.789	0	0	0	0	0	0	0	0	0	0	0	0	0	0	0	10.994	-10.994	19.042	0	0	0	0	0	0	0	0	0	2
8516	85.16	0	0	0	0	0	0	10.917	-10.917	18.908	0	0	0	0	0	0	0	0	0	0	0	0	1	0	0	17.755	2.1475	16.785	0	0	0	1	0	0	17.761	2.1499	16.789	0	0	0	0	0	0	0	0	0	0	0	0	0	0	0	10.994	-10.994	19.042	0	0	0	1	0	0	17.47	2.0148	16.554	2
8517	85.17	0	0	0	0	0	0	0	0	0	0	0	0	0	0	0	0	0	0	0	0	0	0	0	0	10.989	-10.989	19.033	0	0	0	1	0	0	17.761	2.1499	16.789	0	0	0	0	0	0	0	0	0	0	0	0	0	0	0	0	0	0	0	0	0	0	0	0	0	0	0	2
8518	85.18	0	0	0	0	0	0	10.917	-10.917	18.908	0	0	0	0	0	0	0	0	0	0	0	0	1	0	0	17.755	2.1475	16.785	0	0	0	1	0	0	17.883	2.027	16.961	0	0	0	0	0	0	0	0	0	0	0	0	0	0	0	0	0	0	0	0	0	1	0	0	17.47	2.0148	16.554	2
8519	85.19	0	0	0	0	0	0	0	0	0	0	0	0	0	0	0	0	0	0	0	0	0	0	0	0	10.989	-10.989	19.033	0	0	0	1	0	0	17.761	2.1499	16.789	0	0	0	0	0	0	0	0	0	0	0	0	0	-1	0	-2.0278	-17.891	16.968	0	0	0	0	0	0	0	0	0	3
8520	85.2	0	0	0	0	0	0	0	0	0	0	0	0	0	0	0	0	0	0	0	0	0	0	0	0	10.989	-10.989	19.033	0	0	0	1	0	0	17.883	2.027	16.961	0	0	0	0	0	0	0	0	0	0	0	0	0	0	0	0	0	0	0	0	0	0	0	0	0	0	0	2
8521	85.21	0	0	0	0	0	0	10.917	-10.917	18.908	0	0	0	0	0	0	0	0	0	0	0	0	1	0	0	17.755	2.1475	16.785	0	0	0	1	0	0	17.761	2.1499	16.789	0	0	0	0	0	0	0	0	0	0	0	0	1	-1	0	7.5503	-27.469	31.921	0	0	0	1	0	0	30.423	8.5595	27.174	2
8522	85.22	0	0	0	0	0	0	0	0	0	0	0	0	0	0	0	0	0	0	0	0	0	0	0	0	10.989	-10.989	19.033	0	0	0	1	0	0	17.761	2.1499	16.789	0	0	0	0	0	0	0	0	0	0	0	0	0	0	0	10.994	-10.994	19.042	0	0	0	0	0	0	0	0	0	2
8523	85.23	0	0	0	0	0	0	0	0	0	0	0	0	0	0	0	0	0	0	0	0	0	0	0	0	10.989	-10.989	19.033	0	0	0	1	0	0	17.883	2.027	16.961	0	0	0	0	0	0	0	0	0	0	0	0	1	-1	0	7.5503	-27.469	31.921	0	0	0	0	0	0	0	0	0	2
8524	85.24	0	0	0	0	0	0	0	0	0	0	0	0	0	0	0	0	0	0	0	0	0	0	0	0	10.989	-10.989	19.033	0	0	0	1	0	0	17.761	2.1499	16.789	0	0	0	0	0	0	0	0	0	0	0	0	0	0	0	10.994	-10.994	19.042	0	0	0	0	0	0	0	0	0	2
8525	85.25	0	0	0	0	0	0	0	0	0	0	0	0	0	0	0	0	0	0	0	0	0	0	0	0	10.989	-10.989	19.033	0	0	0	1	0	0	17.883	2.027	16.961	0	0	0	0	0	0	0	0	0	0	0	0	1	-1	0	7.5503	-27.469	31.921	0	0	0	0	0	0	0	0	0	2
8526	85.26	0	0	0	0	0	0	0	0	0	0	0	0	0	0	0	0	0	0	0	0	0	1	0	0	17.755	2.1475	16.785	0	0	0	1	0	0	17.761	2.1499	16.789	0	0	0	0	0	0	0	0	0	0	0	0	0	0	0	10.994	-10.994	19.042	0	0	0	1	0	0	17.47	2.0148	16.554	2
8527	85.27	0	0	0	0	0	0	0	0	0	0	0	0	0	0	0	0	0	0	0	0	0	0	0	0	10.989	-10.989	19.033	0	0	0	1	0	0	17.883	2.027	16.961	0	0	0	0	0	0	0	0	0	0	0	0	0	0	0	0	0	0	0	0	0	0	0	0	0	0	0	2
8528	85.28	0	0	0	0	0	0	10.917	-10.917	18.908	0	0	0	0	0	0	0	0	0	0	0	0	1	0	0	17.755	2.1475	16.785	0	0	0	1	0	0	17.761	2.1499	16.789	0	0	0	0	0	0	0	0	0	0	0	0	0	0	0	10.994	-10.994	19.042	0	0	0	0	0	0	0	0	0	2
8529	85.29	0	0	0	0	0	0	0	0	0	0	0	0	0	0	0	0	0	0	0	0	0	0	0	0	10.989	-10.989	19.033	0	0	0	1	0	0	17.883	2.027	16.961	0	0	0	0	0	0	0	0	0	0	0	0	0	0	0	10.994	-10.994	19.042	0	0	0	1	0	0	17.47	2.0148	16.554	2
8530	85.3	0	0	0	0	0	0	0	0	0	0	0	0	0	0	0	0	0	0	0	0	0	0	0	0	10.989	-10.989	19.033	0	0	0	1	0	0	17.883	2.027	16.961	0	0	0	0	0	0	0	0	0	0	0	0	0	0	0	0	0	0	0	0	0	0	0	0	0	0	0	2
8531	85.31	0	0	0	0	0	0	0	0	0	0	0	0	0	0	0	0	0	0	0	0	0	1	0	0	17.755	2.1475	16.785	0	0	0	1	0	0	17.761	2.1499	16.789	0	0	0	1	0	0	17.883	2.027	16.961	0	0	0	0	0	0	10.994	-10.994	19.042	0	0	0	1	0	0	17.47	2.0148	16.554	2
8532	85.32	0	0	0	0	0	0	0	0	0	0	0	0	0	0	0	0	0	0	0	0	0	0	0	0	10.989	-10.989	19.033	0	0	0	1	0	0	17.883	2.027	16.961	0	0	0	0	0	0	0	0	0	0	0	0	1	-1	0	7.5503	-27.469	31.921	0	0	0	0	0	0	0	0	0	2
8533	85.33	0	0	0	0	0	0	0	0	0	0	0	0	0	0	0	0	0	0	0	0	0	1	0	0	17.755	2.1475	16.785	0	0	0	1	0	0	17.761	2.1499	16.789	0	0	0	0	0	0	0	0	0	0	0	0	0	0	0	0	0	0	0	0	0	1	0	0	17.47	2.0148	16.554	2
8534	85.34	0	0	0	0	0	0	10.917	-10.917	18.908	0	0	0	0	0	0	0	0	0	0	0	0	0	0	0	10.989	-10.989	19.033	0	0	0	1	0	0	17.761	2.1499	16.789	0	0	0	1	0	0	17.883	2.027	16.961	0	0	0	1	-1	0	7.5503	-27.469	31.921	0	0	0	0	0	0	0	0	0	2
8535	85.35	0	0	0	0	0	0	0	0	0	0	0	0	0	0	0	0	0	0	0	0	0	0	0	0	10.989	-10.989	19.033	0	0	0	1	0	0	17.761	2.1499	16.789	0	0	0	0	0	0	0	0	0	0	0	0	0	0	0	0	0	0	0	0	0	0	0	0	0	0	0	2
8536	85.36	0	0	0	0	0	0	10.917	-10.917	18.908	0	0	0	0	0	0	0	0	0	0	0	0	1	0	0	17.755	2.1475	16.785	0	0	0	1	0	0	17.761	2.1499	16.789	0	0	0	0	0	0	0	0	0	0	0	0	1	-1	0	7.5503	-27.469	31.921	0	0	0	1	0	0	17.47	2.0148	16.554	2
8537	85.37	0	0	0	0	0	0	10.917	-10.917	18.908	0	0	0	0	0	0	0	0	0	0	0	0	1	0	0	17.755	2.1475	16.785	0	0	0	1	0	0	17.761	2.1499	16.789	0	0	0	0	0	0	0	0	0	0	0	0	1	-1	0	7.5503	-27.469	31.921	0	0	0	0	0	0	0	0	0	2
8538	85.38	0	0	0	0	0	0	0	0	0	0	0	0	0	0	0	0	0	0	0	0	0	1	0	0	17.755	2.1475	16.785	0	0	0	1	0	0	17.761	2.1499	16.789	0	0	0	0	0	0	0	0	0	0	0	0	1	-1	0	7.5503	-27.469	31.921	0	0	0	0	0	0	0	0	0	2
8539	85.39	0	0	0	0	0	0	0	0	0	0	0	0	0	0	0	0	0	0	0	0	0	1	0	0	17.755	2.1475	16.785	0	0	0	1	0	0	17.761	2.1499	16.789	0	0	0	0	0	0	0	0	0	0	0	0	0	0	0	10.994	-10.994	19.042	0	0	0	0	0	0	0	0	0	2
8540	85.4	0	0	0	0	0	0	0	0	0	0	0	0	0	0	0	0	0	0	0	0	0	0	0	0	10.989	-10.989	19.033	0	0	0	1	0	0	17.761	2.1499	16.789	0	0	0	0	0	0	0	0	0	0	0	0	0	0	0	10.994	-10.994	19.042	0	0	0	0	0	0	0	0	0	2
8541	85.41	0	0	0	0	0	0	10.917	-10.917	18.908	0	0	0	0	0	0	0	0	0	0	0	0	1	0	0	17.755	2.1475	16.785	0	0	0	1	0	0	17.761	2.1499	16.789	0	0	0	0	0	0	0	0	0	0	0	0	0	0	0	10.994	-10.994	19.042	0	0	0	1	0	0	17.47	2.0148	16.554	2
8542	85.42	0	0	0	0	0	0	10.917	-10.917	18.908	0	0	0	0	0	0	0	0	0	0	0	0	0	0	0	10.989	-10.989	19.033	0	0	0	1	0	0	17.761	2.1499	16.789	0	0	0	0	0	0	0	0	0	0	0	0	0	0	0	0	0	0	0	0	0	0	0	0	0	0	0	2
8543	85.43	0	0	0	0	0	0	0	0	0	0	0	0	0	0	0	0	0	0	0	0	0	1	0	0	17.755	2.1475	16.785	0	0	0	1	0	0	17.761	2.1499	16.789	0	0	0	0	0	0	0	0	0	0	0	0	0	-1	0	-2.0278	-17.891	16.968	0	0	0	0	0	0	0	0	0	2
8544	85.44	0	0	0	0	0	0	10.917	-10.917	18.908	0	0	0	0	0	0	0	0	0	0	0	0	1	0	0	17.755	2.1475	16.785	0	0	0	1	0	0	17.761	2.1499	16.789	0	0	0	0	0	0	0	0	0	0	0	0	0	-1	0	-2.0278	-17.891	16.968	0	0	0	0	0	0	0	0	0	2
8545	85.45	0	0	0	0	0	0	0	0	0	0	0	0	0	0	0	0	0	0	0	0	0	1	0	0	17.755	2.1475	16.785	0	0	0	1	0	0	17.761	2.1499	16.789	0	0	0	0	0	0	0	0	0	0	0	0	1	-1	0	7.5503	-27.469	31.921	0	0	0	0	0	0	0	0	0	0
8546	85.46	0	0	0	0	0	0	0	0	0	0	0	0	0	0	0	0	0	0	0	0	0	1	0	0	17.755	2.1475	16.785	0	0	0	1	0	0	17.761	2.1499	16.789	0	0	0	0	0	0	0	0	0	0	0	0	0	0	0	10.994	-10.994	19.042	0	0	0	0	0	0	0	0	0	2
8547	85.47	0	0	0	0	0	0	0	0	0	0	0	0	0	0	0	0	0	0	0	0	0	1	0	0	17.755	2.1475	16.785	0	0	0	1	0	0	17.761	2.1499	16.789	0	0	0	0	0	0	0	0	0	0	0	0	0	-1	0	-2.0278	-17.891	16.968	0	0	0	0	0	0	0	0	0	2
8548	85.48	0	0	0	0	0	0	0	0	0	0	0	0	0	0	0	0	0	0	0	0	0	0	0	0	10.989	-10.989	19.033	0	0	0	1	0	0	17.761	2.1499	16.789	0	0	0	0	0	0	0	0	0	0	0	0	1	-1	0	7.5503	-27.469	31.921	0	0	0	0	0	0	0	0	0	2
8549	85.49	0	0	0	0	0	0	10.917	-10.917	18.908	0	0	0	0	0	0	0	0	0	0	0	0	1	0	0	17.755	2.1475	16.785	0	0	0	1	0	0	17.761	2.1499	16.789	0	0	0	0	0	0	0	0	0	0	0	0	0	0	0	0	0	0	0	0	0	0	0	0	0	0	0	2
8550	85.5	0	0	0	0	0	0	0	0	0	0	0	0	0	0	0	0	0	0	0	0	0	0	0	0	10.989	-10.989	19.033	0	0	0	1	0	0	17.883	2.027	16.961	0	0	0	0	0	0	0	0	0	0	0	0	0	0	0	0	0	0	0	0	0	0	0	0	0	0	0	2
8551	85.51	0	0	0	0	0	0	0	0	0	0	0	0	0	0	0	0	0	0	0	0	0	1	0	0	17.755	2.1475	16.785	0	0	0	1	0	0	17.761	2.1499	16.789	0	0	0	0	0	0	0	0	0	0	0	0	1	-1	0	7.5503	-27.469	31.921	0	0	0	0	0	0	0	0	0	2
8552	85.52	0	0	0	0	0	0	0	0	0	0	0	0	0	0	0	0	0	0	0	0	0	0	0	0	10.989	-10.989	19.033	0	0	0	1	0	0	17.761	2.1499	16.789	0	0	0	0	0	0	0	0	0	0	0	0	0	0	0	0	0	0	0	0	0	0	0	0	0	0	0	2
8553	85.53	0	0	0	0	0	0	0	0	0	0	0	0	0	0	0	0	0	0	0	0	0	1	0	0	17.755	2.1475	16.785	0	0	0	1	0	0	17.761	2.1499	16.789	0	0	0	0	0	0	0	0	0	0	0	0	1	-1	0	7.5503	-27.469	31.921	0	0	0	1	0	0	17.47	2.0148	16.554	2
8554	85.54	0	0	0	0	0	0	0	0	0	0	0	0	0	0	0	0	0	0	0	0	0	0	0	0	10.989	-10.989	19.033	0	0	0	1	0	0	17.761	2.1499	16.789	0	0	0	0	0	0	0	0	0	0	0	0	0	0	0	10.994	-10.994	19.042	0	0	0	0	0	0	0	0	0	2
8555	85.55	0	0	0	0	0	0	0	0	0	0	0	0	0	0	0	0	0	0	0	0	0	0	0	0	10.989	-10.989	19.033	0	0	0	1	0	0	17.883	2.027	16.961	0	0	0	0	0	0	0	0	0	0	0	0	0	0	0	0	0	0	0	0	0	1	0	0	17.47	2.0148	16.554	2
8556	85.56	0	0	0	0	0	0	0	0	0	0	0	0	0	0	0	0	0	0	0	0	0	1	0	0	17.755	2.1475	16.785	0	0	0	1	0	0	17.761	2.1499	16.789	0	0	0	0	0	0	0	0	0	0	0	0	0	0	0	0	0	0	0	0	0	0	0	0	0	0	0	2
8557	85.57	0	0	0	0	0	0	0	0	0	0	0	0	0	0	0	0	0	0	0	0	0	1	0	0	17.755	2.1475	16.785	0	0	0	1	0	0	17.883	2.027	16.961	0	0	0	0	0	0	0	0	0	0	0	0	0	0	0	0	0	0	0	0	0	0	0	0	0	0	0	2
8558	85.58	0	0	0	0	0	0	10.917	-10.917	18.908	0	0	0	0	0	0	0	0	0	0	0	0	1	0	0	17.755	2.1475	16.785	0	0	0	1	0	0	17.761	2.1499	16.789	0	0	0	0	0	0	0	0	0	0	0	0	1	-1	0	7.5503	-27.469	31.921	0	0	0	1	0	0	17.47	2.0148	16.554	2
8559	85.59	0	0	0	0	0	0	0	0	0	0	0	0	0	0	0	0	0	0	0	0	0	1	0	0	17.755	2.1475	16.785	0	0	0	1	0	0	17.761	2.1499	16.789	0	0	0	0	0	0	0	0	0	0	0	0	0	0	0	10.994	-10.994	19.042	0	0	0	1	0	0	17.47	2.0148	16.554	2
8560	85.6	0	0	0	0	0	0	0	0	0	0	0	0	0	0	0	0	0	0	0	0	0	0	0	0	10.989	-10.989	19.033	0	0	0	1	0	0	17.883	2.027	16.961	0	0	0	0	0	0	0	0	0	0	0	0	0	-1	0	-2.0278	-17.891	16.968	0	0	0	0	0	0	0	0	0	2
8561	85.61	0	0	0	0	0	0	0	0	0	0	0	0	0	0	0	0	0	0	0	0	0	1	0	0	17.755	2.1475	16.785	0	0	0	1	0	0	17.761	2.1499	16.789	0	0	0	1	0	0	17.883	2.027	16.961	0	0	0	0	0	0	10.994	-10.994	19.042	0	0	0	1	0	0	17.47	2.0148	16.554	2
8562	85.62	0	0	0	0	0	0	0	0	0	0	0	0	0	0	0	0	0	0	0	0	0	0	0	0	10.989	-10.989	19.033	0	0	0	1	0	0	17.883	2.027	16.961	0	0	0	0	0	0	0	0	0	0	0	0	0	0	0	0	0	0	0	0	0	0	0	0	0	0	0	2
8563	85.63	0	0	0	0	0	0	0	0	0	0	0	0	0	0	0	0	0	0	0	0	0	1	0	0	17.755	2.1475	16.785	0	0	0	1	0	0	17.761	2.1499	16.789	0	0	0	0	0	0	0	0	0	0	0	0	0	-1	0	-2.0278	-17.891	16.968	0	0	0	1	0	0	17.47	2.0148	16.554	2
8564	85.64	0	0	0	0	0	0	0	0	0	0	0	0	0	0	0	0	0	0	0	0	0	1	0	0	17.755	2.1475	16.785	0	0	0	1	0	0	17.761	2.1499	16.789	0	0	0	0	0	0	0	0	0	0	0	0	0	0	0	0	0	0	0	0	0	0	0	0	0	0	0	2
8565	85.65	0	0	0	0	0	0	0	0	0	0	0	0	0	0	0	0	0	0	0	0	0	0	0	0	10.989	-10.989	19.033	0	0	0	1	0	0	17.761	2.1499	16.789	0	0	0	0	0	0	0	0	0	0	0	0	1	-1	0	7.5503	-27.469	31.921	0	0	0	0	0	0	0	0	0	2
8566	85.66	0	0	0	0	0	0	0	0	0	0	0	0	0	0	0	0	0	0	0	0	0	1	0	0	17.755	2.1475	16.785	0	0	0	1	0	0	17.761	2.1499	16.789	0	0	0	0	0	0	0	0	0	0	0	0	0	0	0	10.994	-10.994	19.042	0	0	0	1	0	0	17.47	2.0148	16.554	2
8567	85.67	0	0	0	0	0	0	0	0	0	0	0	0	0	0	0	0	0	0	0	0	0	1	0	0	17.755	2.1475	16.785	0	0	0	1	0	0	17.761	2.1499	16.789	0	0	0	0	0	0	0	0	0	0	0	0	1	-1	0	7.5503	-27.469	31.921	0	0	0	0	0	0	0	0	0	0
8568	85.68	0	0	0	0	0	0	0	0	0	0	0	0	0	0	0	0	0	0	0	0	0	1	0	0	17.755	2.1475	16.785	0	0	0	1	0	0	17.761	2.1499	16.789	0	0	0	0	0	0	0	0	0	0	0	0	0	0	0	10.994	-10.994	19.042	0	0	0	1	0	0	17.47	2.0148	16.554	2
8569	85.69	0	0	0	0	0	0	0	0	0	0	0	0	0	0	0	0	0	0	0	0	0	0	0	0	10.989	-10.989	19.033	0	0	0	1	0	0	17.761	2.1499	16.789	0	0	0	0	0	0	0	0	0	0	0	0	1	-1	0	7.5503	-27.469	31.921	0	0	0	0	0	0	0	0	0	2
8570	85.7	0	0	0	0	0	0	0	0	0	0	0	0	0	0	0	0	0	0	0	0	0	0	0	0	10.989	-10.989	19.033	0	0	0	1	0	0	17.761	2.1499	16.789	0	0	0	0	0	0	0	0	0	0	0	0	0	0	0	10.994	-10.994	19.042	0	0	0	0	0	0	0	0	0	2
8571	85.71	0	0	0	0	0	0	0	0	0	0	0	0	0	0	0	0	0	0	0	0	0	1	0	0	17.755	2.1475	16.785	0	0	0	1	0	0	17.761	2.1499	16.789	0	0	0	0	0	0	0	0	0	0	0	0	0	0	0	0	0	0	0	0	0	1	0	0	17.47	2.0148	16.554	2
8572	85.72	0	0	0	0	0	0	0	0	0	0	0	0	0	0	0	0	0	0	0	0	0	0	0	0	10.989	-10.989	19.033	0	0	0	1	0	0	17.761	2.1499	16.789	0	0	0	0	0	0	0	0	0	0	0	0	0	0	0	0	0	0	0	0	0	0	0	0	0	0	0	2
8573	85.73	0	0	0	0	0	0	0	0	0	0	0	0	0	0	0	0	0	0	0	0	0	1	0	0	17.755	2.1475	16.785	0	0	0	1	0	0	17.761	2.1499	16.789	0	0	0	1	0	0	17.883	2.027	16.961	0	0	0	1	-1	0	7.5503	-27.469	31.921	0	0	0	1	0	0	17.47	2.0148	16.554	0
8574	85.74	0	0	0	0	0	0	0	0	0	0	0	0	0	0	0	0	0	0	0	0	0	1	0	0	17.755	2.1475	16.785	0	0	0	1	0	0	17.761	2.1499	16.789	0	0	0	0	0	0	0	0	0	0	0	0	0	0	0	0	0	0	0	0	0	1	0	0	17.47	2.0148	16.554	2
8575	85.75	0	0	0	0	0	0	0	0	0	0	0	0	0	0	0	0	0	0	0	0	0	0	0	0	10.989	-10.989	19.033	0	0	0	1	0	0	17.761	2.1499	16.789	0	0	0	0	0	0	0	0	0	0	0	0	0	0	0	0	0	0	0	0	0	1	0	0	17.47	2.0148	16.554	2
8576	85.76	0	0	0	0	0	0	0	0	0	0	0	0	0	0	0	0	0	0	0	0	0	1	0	0	17.755	2.1475	16.785	0	0	0	1	0	0	17.761	2.1499	16.789	0	0	0	0	0	0	0	0	0	0	0	0	0	0	0	0	0	0	0	0	0	0	0	0	0	0	0	2
8577	85.77	0	0	0	0	0	0	10.917	-10.917	18.908	0	0	0	0	0	0	0	0	0	0	0	0	1	0	0	17.755	2.1475	16.785	0	0	0	1	0	0	17.761	2.1499	16.789	0	0	0	0	0	0	0	0	0	0	0	0	0	-1	0	-2.0278	-17.891	16.968	0	0	0	0	0	0	0	0	0	2
8578	85.78	0	0	0	0	0	0	0	0	0	0	0	0	0	0	0	0	0	0	0	0	0	1	0	0	17.755	2.1475	16.785	0	0	0	1	0	0	17.761	2.1499	16.789	0	0	0	0	0	0	0	0	0	0	0	0	1	-1	0	7.5503	-27.469	31.921	0	0	0	1	0	0	17.47	2.0148	16.554	2
8579	85.79	0	0	0	0	0	0	0	0	0	0	0	0	0	0	0	0	0	0	0	0	0	1	0	0	17.755	2.1475	16.785	0	0	0	1	0	0	17.761	2.1499	16.789	0	0	0	0	0	0	0	0	0	0	0	0	0	0	0	0	0	0	0	0	0	0	0	0	0	0	0	2
8580	85.8	0	0	0	0	0	0	0	0	0	0	0	0	0	0	0	0	0	0	0	0	0	0	0	0	10.989	-10.989	19.033	0	0	0	1	0	0	17.761	2.1499	16.789	0	0	0	0	0	0	0	0	0	0	0	0	0	-1	0	-2.0278	-17.891	16.968	0	0	0	0	0	0	0	0	0	2
8581	85.81	0	0	0	0	0	0	10.917	-10.917	18.908	0	0	0	0	0	0	0	0	0	0	0	0	1	0	0	17.755	2.1475	16.785	0	0	0	1	0	0	17.761	2.1499	16.789	0	0	0	0	0	0	0	0	0	0	0	0	1	-1	0	7.5503	-27.469	31.921	0	0	0	0	0	0	0	0	0	0
8582	85.82	0	0	0	0	0	0	0	0	0	0	0	0	0	0	0	0	0	0	0	0	0	1	0	0	17.755	2.1475	16.785	0	0	0	1	0	0	17.761	2.1499	16.789	0	0	0	0	0	0	0	0	0	0	0	0	0	0	0	0	0	0	0	0	0	0	0	0	0	0	0	2
8583	85.83	0	0	0	0	0	0	0	0	0	0	0	0	0	0	0	0	0	0	0	0	0	0	0	0	10.989	-10.989	19.033	0	0	0	1	0	0	17.761	2.1499	16.789	0	0	0	0	0	0	0	0	0	0	0	0	0	0	0	0	0	0	0	0	0	0	0	0	0	0	0	2
8584	85.84	0	0	0	0	0	0	0	0	0	0	0	0	0	0	0	0	0	0	0	0	0	1	0	0	17.755	2.1475	16.785	0	0	0	1	0	0	17.761	2.1499	16.789	0	0	0	0	0	0	0	0	0	0	0	0	0	-1	0	-2.0278	-17.891	16.968	0	0	0	1	0	0	17.47	2.0148	16.554	2
8585	85.85	0	0	0	0	0	0	10.917	-10.917	18.908	0	0	0	0	0	0	0	0	0	0	0	0	1	0	0	17.755	2.1475	16.785	0	0	0	0	0	0	10.991	-10.991	19.037	0	0	0	0	0	0	0	0	0	0	0	0	0	0	0	10.994	-10.994	19.042	0	0	0	0	0	0	0	0	0	2
8586	85.86	0	0	0	0	0	0	10.917	-10.917	18.908	0	0	0	0	0	0	0	0	0	0	0	0	1	0	0	17.755	2.1475	16.785	0	0	0	1	0	0	17.761	2.1499	16.789	0	0	0	0	0	0	0	0	0	0	0	0	0	0	0	0	0	0	0	0	0	1	0	0	17.47	2.0148	16.554	2
8587	85.87	0	0	0	0	0	0	0	0	0	0	0	0	0	0	0	0	0	0	0	0	0	1	0	0	17.755	2.1475	16.785	0	0	0	1	0	0	17.761	2.1499	16.789	0	0	0	0	0	0	0	0	0	0	0	0	0	-1	0	-2.0278	-17.891	16.968	0	0	0	0	0	0	0	0	0	2
8588	85.88	0	0	0	0	0	0	0	0	0	0	0	0	0	0	0	0	0	0	0	0	0	1	0	0	17.755	2.1475	16.785	0	0	0	1	0	0	17.761	2.1499	16.789	0	0	0	0	0	0	0	0	0	0	0	0	0	0	0	0	0	0	0	0	0	0	0	0	0	0	0	2
8589	85.89	0	0	0	0	0	0	10.917	-10.917	18.908	0	0	0	0	0	0	0	0	0	0	0	0	1	0	0	17.755	2.1475	16.785	0	0	0	1	0	0	17.761	2.1499	16.789	0	0	0	0	0	0	0	0	0	0	0	0	0	0	0	10.994	-10.994	19.042	0	0	0	0	0	0	0	0	0	2
8590	85.9	0	0	0	0	0	0	0	0	0	0	0	0	0	0	0	0	0	0	0	0	0	0	0	0	10.989	-10.989	19.033	0	0	0	1	0	0	17.761	2.1499	16.789	0	0	0	0	0	0	0	0	0	0	0	0	0	0	0	10.994	-10.994	19.042	0	0	0	0	0	0	0	0	0	2
8591	85.91	0	0	0	0	0	0	0	0	0	0	0	0	0	0	0	0	0	0	0	0	0	1	0	0	17.755	2.1475	16.785	0	0	0	1	0	0	17.761	2.1499	16.789	0	0	0	0	0	0	0	0	0	0	0	0	0	0	0	10.994	-10.994	19.042	0	0	0	1	0	0	17.47	2.0148	16.554	2
8592	85.92	0	0	0	0	0	0	0	0	0	0	0	0	0	0	0	0	0	0	0	0	0	0	0	0	10.989	-10.989	19.033	0	0	0	1	0	0	17.761	2.1499	16.789	0	0	0	0	0	0	0	0	0	0	0	0	0	0	0	0	0	0	0	0	0	0	0	0	0	0	0	2
8593	85.93	0	0	0	0	0	0	0	0	0	0	0	0	0	0	0	0	0	0	0	0	0	0	0	0	10.989	-10.989	19.033	0	0	0	1	0	0	17.761	2.1499	16.789	0	0	0	0	0	0	0	0	0	0	0	0	1	-1	0	7.5503	-27.469	31.921	0	0	0	1	0	0	17.47	2.0148	16.554	2
8594	85.94	0	0	0	0	0	0	10.917	-10.917	18.908	0	0	0	0	0	0	0	0	0	0	0	0	1	0	0	17.755	2.1475	16.785	0	0	0	1	0	0	17.883	2.027	16.961	0	0	0	0	0	0	0	0	0	0	0	0	0	0	0	0	0	0	0	0	0	0	0	0	0	0	0	2
8595	85.95	0	0	0	0	0	0	0	0	0	0	0	0	0	0	0	0	0	0	0	0	0	0	0	0	10.989	-10.989	19.033	0	0	0	1	0	0	17.761	2.1499	16.789	0	0	0	0	0	0	0	0	0	0	0	0	0	0	0	0	0	0	0	0	0	0	0	0	0	0	0	0
8596	85.96	0	0	0	0	0	0	10.917	-10.917	18.908	0	0	0	0	0	0	0	0	0	0	0	0	0	0	0	10.989	-10.989	19.033	0	0	0	1	0	0	17.761	2.1499	16.789	0	0	0	0	0	0	0	0	0	0	0	0	0	0	0	10.994	-10.994	19.042	0	0	0	1	0	0	17.47	2.0148	16.554	2
8597	85.97	0	0	0	0	0	0	0	0	0	0	0	0	0	0	0	0	0	0	0	0	0	0	0	0	10.989	-10.989	19.033	0	0	0	1	0	0	17.761	2.1499	16.789	0	0	0	0	0	0	0	0	0	0	0	0	0	-1	0	-2.0278	-17.891	16.968	0	0	0	0	0	0	0	0	0	2
8598	85.98	0	0	0	0	0	0	10.917	-10.917	18.908	0	0	0	0	0	0	0	0	0	0	0	0	1	0	0	17.755	2.1475	16.785	0	0	0	1	0	0	17.761	2.1499	16.789	0	0	0	0	0	0	0	0	0	0	0	0	0	0	0	10.994	-10.994	19.042	0	0	0	0	0	0	10.93	-10.93	18.931	2
8599	85.99	0	0	0	0	0	0	0	0	0	0	0	0	0	0	0	0	0	0	0	0	0	0	0	0	10.989	-10.989	19.033	0	0	0	1	0	0	17.761	2.1499	16.789	0	0	0	0	0	0	0	0	0	0	0	0	0	-1	0	-2.0278	-17.891	16.968	0	0	0	1	0	0	17.47	2.0148	16.554	2
8600	86	0	0	0	0	0	0	0	0	0	0	0	0	0	0	0	0	0	0	0	0	0	0	0	0	10.989	-10.989	19.033	0	0	0	1	0	0	17.761	2.1499	16.789	0	0	0	0	0	0	0	0	0	0	0	0	0	0	0	0	0	0	0	0	0	0	0	0	0	0	0	2
8601	86.01	0	0	0	0	-1	0	-2.0364	-17.814	16.888	0	0	0	0	0	0	0	0	0	0	0	0	1	0	0	17.755	2.1475	16.785	0	0	0	1	0	0	17.761	2.1499	16.789	0	0	0	0	0	0	0	0	0	0	0	0	0	0	0	10.994	-10.994	19.042	0	0	0	0	0	0	0	0	0	2
8602	86.02	0	0	0	0	0	0	0	0	0	0	0	0	0	0	0	0	0	0	0	0	0	0	0	0	10.989	-10.989	19.033	0	0	0	1	0	0	17.883	2.027	16.961	0	0	0	0	0	0	0	0	0	0	0	0	0	0	0	0	0	0	0	0	0	0	0	0	0	0	0	2
8603	86.03	0	0	0	0	0	0	10.917	-10.917	18.908	0	0	0	0	0	0	0	0	0	0	0	0	1	0	0	17.755	2.1475	16.785	0	0	0	1	0	0	17.761	2.1499	16.789	0	0	0	1	0	0	17.883	2.027	16.961	0	0	0	0	0	0	10.994	-10.994	19.042	0	0	0	0	0	0	0	0	0	2
8604	86.04	0	0	0	0	0	0	0	0	0	0	0	0	0	0	0	0	0	0	0	0	0	1	0	0	17.755	2.1475	16.785	0	0	0	1	0	0	17.761	2.1499	16.789	0	0	0	0	0	0	0	0	0	0	0	0	0	0	0	0	0	0	0	0	0	0	0	0	0	0	0	2
8605	86.05	0	0	0	0	0	0	0	0	0	0	0	0	0	0	0	0	0	0	0	0	0	0	0	0	10.989	-10.989	19.033	0	0	0	1	0	0	17.761	2.1499	16.789	0	0	0	0	0	0	0	0	0	0	0	0	1	-1	0	7.5503	-27.469	31.921	0	0	0	1	0	0	17.47	2.0148	16.554	2
8606	86.06	0	0	0	0	0	0	0	0	0	0	0	0	0	0	0	0	0	0	0	0	0	1	0	0	17.755	2.1475	16.785	0	0	0	1	0	0	17.761	2.1499	16.789	0	0	0	0	0	0	0	0	0	0	0	0	0	0	0	10.994	-10.994	19.042	0	0	0	1	0	0	17.47	2.0148	16.554	2
8607	86.07	0	0	0	0	0	0	0	0	0	0	0	0	0	0	0	0	0	0	0	0	0	0	0	0	10.989	-10.989	19.033	0	0	0	1	0	0	17.883	2.027	16.961	0	0	0	0	0	0	0	0	0	0	0	0	0	0	0	0	0	0	0	0	0	0	0	0	0	0	0	2
8608	86.08	0	0	0	0	0	0	0	0	0	0	0	0	0	0	0	0	0	0	0	0	0	1	0	0	17.755	2.1475	16.785	0	0	0	1	0	0	17.761	2.1499	16.789	0	0	0	0	0	0	0	0	0	0	0	0	1	-1	0	7.5503	-27.469	31.921	0	0	0	1	0	0	17.47	2.0148	16.554	2
8609	86.09	0	0	0	0	0	0	0	0	0	0	0	0	0	0	0	0	0	0	0	0	0	1	0	0	17.755	2.1475	16.785	0	0	0	1	0	0	17.761	2.1499	16.789	0	0	0	0	0	0	0	0	0	0	0	0	0	0	0	0	0	0	0	0	0	0	0	0	0	0	0	2
8610	86.1	0	0	0	0	0	0	10.917	-10.917	18.908	0	0	0	0	0	0	0	0	0	0	0	0	0	0	0	10.989	-10.989	19.033	0	0	0	1	0	0	17.761	2.1499	16.789	0	0	0	0	0	0	0	0	0	0	0	0	1	-1	0	7.5503	-27.469	31.921	0	0	0	0	0	0	0	0	0	0
8611	86.11	0	0	0	0	0	0	0	0	0	0	0	0	0	0	0	0	0	0	0	0	0	1	0	0	17.755	2.1475	16.785	0	0	0	1	0	0	17.761	2.1499	16.789	0	0	0	1	0	0	17.883	2.027	16.961	0	0	0	1	-1	0	7.5503	-27.469	31.921	0	0	0	1	0	0	17.47	2.0148	16.554	2
8612	86.12	0	0	0	0	0	0	0	0	0	0	0	0	0	0	0	0	0	0	0	0	0	0	0	0	10.989	-10.989	19.033	0	0	0	1	0	0	17.761	2.1499	16.789	0	0	0	0	0	0	0	0	0	0	0	0	1	-1	0	7.5503	-27.469	31.921	0	0	0	0	0	0	0	0	0	2
8613	86.13	0	0	0	0	0	0	0	0	0	0	0	0	0	0	0	0	0	0	0	0	0	1	0	0	17.755	2.1475	16.785	0	0	0	1	0	0	17.883	2.027	16.961	0	0	0	0	0	0	0	0	0	0	0	0	0	0	0	10.994	-10.994	19.042	0	0	0	0	0	0	0	0	0	2
8614	86.14	0	0	0	0	0	0	10.917	-10.917	18.908	0	0	0	0	0	0	0	0	0	0	0	0	1	0	0	17.755	2.1475	16.785	0	0	0	1	0	0	17.761	2.1499	16.789	0	0	0	0	0	0	0	0	0	0	0	0	0	-1	0	-2.0278	-17.891	16.968	0	0	0	0	0	0	0	0	0	2
8615	86.15	0	0	0	0	0	0	0	0	0	0	0	0	0	0	0	0	0	0	0	0	0	0	0	0	10.989	-10.989	19.033	0	0	0	1	0	0	17.761	2.1499	16.789	0	0	0	0	0	0	0	0	0	0	0	0	0	0	0	0	0	0	0	0	0	1	0	0	17.47	2.0148	16.554	2
8616	86.16	0	0	0	0	0	0	0	0	0	0	0	0	0	0	0	0	0	0	0	0	0	1	0	0	17.755	2.1475	16.785	0	0	0	1	0	0	17.761	2.1499	16.789	0	0	0	0	0	0	0	0	0	0	0	0	0	0	0	0	0	0	0	0	0	1	0	0	17.47	2.0148	16.554	2
8617	86.17	0	0	0	0	0	0	0	0	0	0	0	0	0	0	0	0	0	0	0	0	0	0	0	0	10.989	-10.989	19.033	0	0	0	1	0	0	17.761	2.1499	16.789	0	0	0	0	0	0	0	0	0	0	0	0	0	0	0	0	0	0	0	0	0	0	0	0	0	0	0	2
8618	86.18	0	0	0	0	0	0	0	0	0	0	0	0	0	0	0	0	0	0	0	0	0	1	0	0	17.755	2.1475	16.785	0	0	0	1	0	0	17.761	2.1499	16.789	0	0	0	0	0	0	0	0	0	0	0	0	0	0	0	10.994	-10.994	19.042	0	0	0	1	0	0	17.47	2.0148	16.554	2
8619	86.19	0	0	0	0	0	0	10.917	-10.917	18.908	0	0	0	0	0	0	0	0	0	0	0	0	1	0	0	17.755	2.1475	16.785	0	0	0	1	0	0	17.761	2.1499	16.789	0	0	0	0	0	0	0	0	0	0	0	0	0	0	0	10.994	-10.994	19.042	0	0	0	0	0	0	0	0	0	2
8620	86.2	0	0	0	0	0	0	0	0	0	0	0	0	0	0	0	0	0	0	0	0	0	1	0	0	17.755	2.1475	16.785	0	0	0	1	0	0	17.883	2.027	16.961	0	0	0	0	0	0	0	0	0	0	0	0	1	-1	0	7.5503	-27.469	31.921	0	0	0	0	0	0	0	0	0	2
8621	86.21	0	0	0	0	0	0	0	0	0	0	0	0	0	0	0	0	0	0	0	0	0	1	0	0	17.755	2.1475	16.785	0	0	0	1	0	0	17.761	2.1499	16.789	0	0	0	0	0	0	0	0	0	0	0	0	1	-1	0	7.5503	-27.469	31.921	0	0	0	0	0	0	0	0	0	2
8622	86.22	0	0	0	0	0	0	0	0	0	0	0	0	0	0	0	0	0	0	0	0	0	1	0	0	17.755	2.1475	16.785	0	0	0	1	0	0	17.761	2.1499	16.789	0	0	0	0	0	0	0	0	0	0	0	0	0	0	0	10.994	-10.994	19.042	0	0	0	0	0	0	0	0	0	2
8623	86.23	0	0	0	0	0	0	0	0	0	0	0	0	0	0	0	0	0	0	0	0	0	0	0	0	10.989	-10.989	19.033	0	0	0	1	0	0	17.761	2.1499	16.789	0	0	0	0	0	0	0	0	0	0	0	0	1	-1	0	7.5503	-27.469	31.921	0	0	0	0	0	0	0	0	0	2
8624	86.24	0	0	0	0	0	0	0	0	0	0	0	0	0	0	0	0	0	0	0	0	0	1	0	0	17.755	2.1475	16.785	0	0	0	1	0	0	17.761	2.1499	16.789	0	0	0	0	0	0	0	0	0	0	0	0	1	-1	0	7.5503	-27.469	31.921	0	0	0	1	0	0	17.482	2.0162	16.566	2
8625	86.25	0	0	0	0	0	0	0	0	0	0	0	0	0	0	0	0	0	0	0	0	0	1	0	0	17.755	2.1475	16.785	0	0	0	1	0	0	17.761	2.1499	16.789	0	0	0	0	0	0	0	0	0	0	0	0	0	0	0	10.994	-10.994	19.042	0	0	0	0	0	0	0	0	0	2
8626	86.26	0	0	0	0	0	0	0	0	0	0	0	0	0	0	0	0	0	0	0	0	0	1	0	0	17.755	2.1475	16.785	0	0	0	1	0	0	17.761	2.1499	16.789	0	0	0	0	0	0	0	0	0	0	0	0	0	0	0	10.994	-10.994	19.042	0	0	0	0	0	0	0	0	0	2
8627	86.27	0	0	0	0	0	0	10.917	-10.917	18.908	0	0	0	0	0	0	0	0	0	0	0	0	1	0	0	17.755	2.1475	16.785	0	0	0	1	0	0	17.761	2.1499	16.789	0	0	0	0	0	0	0	0	0	0	0	0	0	0	0	10.994	-10.994	19.042	0	0	0	0	0	0	0	0	0	2
8628	86.28	0	0	0	0	0	0	0	0	0	0	0	0	0	0	0	0	0	0	0	0	0	1	0	0	17.755	2.1475	16.785	0	0	0	1	0	0	17.761	2.1499	16.789	0	0	0	0	0	0	0	0	0	0	0	0	0	0	0	10.994	-10.994	19.042	0	0	0	0	0	0	10.93	-10.93	18.931	2
8629	86.29	0	0	0	0	0	0	0	0	0	0	0	0	0	0	0	0	0	0	0	0	0	1	0	0	17.755	2.1475	16.785	0	0	0	1	0	0	17.883	2.027	16.961	0	0	0	0	0	0	0	0	0	0	0	0	0	0	0	10.994	-10.994	19.042	0	0	0	0	0	0	0	0	0	2
8630	86.3	0	0	0	0	0	0	0	0	0	0	0	0	0	0	0	0	0	0	0	0	0	1	0	0	17.755	2.1475	16.785	0	0	0	1	0	0	17.761	2.1499	16.789	0	0	0	0	0	0	0	0	0	0	0	0	0	-1	0	-2.0278	-17.891	16.968	0	0	0	0	0	0	0	0	0	2
8631	86.31	0	0	0	0	0	0	0	0	0	0	0	0	0	0	0	0	0	0	0	0	0	1	0	0	17.755	2.1475	16.785	0	0	0	1	0	0	17.761	2.1499	16.789	0	0	0	0	0	0	0	0	0	0	0	0	0	0	0	10.994	-10.994	19.042	0	0	0	0	0	0	0	0	0	2
8632	86.32	0	0	0	0	0	0	0	0	0	0	0	0	0	0	0	0	0	0	0	0	0	0	0	0	10.989	-10.989	19.033	0	0	0	1	0	0	17.761	2.1499	16.789	0	0	0	0	0	0	0	0	0	0	0	0	0	0	0	0	0	0	0	0	0	0	0	0	0	0	0	2
8633	86.33	0	0	0	0	0	0	0	0	0	0	0	0	0	0	0	0	0	0	0	0	0	1	0	0	17.755	2.1475	16.785	0	0	0	1	0	0	17.761	2.1499	16.789	0	0	0	0	0	0	0	0	0	0	0	0	0	0	0	10.994	-10.994	19.042	0	0	0	0	0	0	0	0	0	2
8634	86.34	0	0	0	0	0	0	0	0	0	0	0	0	0	0	0	0	0	0	0	0	0	0	0	0	10.989	-10.989	19.033	0	0	0	1	0	0	17.761	2.1499	16.789	0	0	0	0	0	0	0	0	0	0	0	0	0	-1	0	-2.0278	-17.891	16.968	0	0	0	0	0	0	0	0	0	2
8635	86.35	0	0	0	0	0	0	0	0	0	0	0	0	0	0	0	0	0	0	0	0	0	0	0	0	10.989	-10.989	19.033	0	0	0	1	0	0	17.761	2.1499	16.789	0	0	0	0	0	0	0	0	0	0	0	0	0	0	0	10.994	-10.994	19.042	0	0	0	0	0	0	0	0	0	2
8636	86.36	0	0	0	0	0	0	10.917	-10.917	18.908	0	0	0	0	0	0	0	0	0	0	0	0	1	0	0	17.755	2.1475	16.785	0	0	0	1	0	0	17.761	2.1499	16.789	0	0	0	0	0	0	0	0	0	0	0	0	0	0	0	10.994	-10.994	19.042	0	0	0	0	0	0	0	0	0	2
8637	86.37	0	0	0	0	0	0	10.917	-10.917	18.908	0	0	0	0	0	0	0	0	0	0	0	0	0	0	0	10.989	-10.989	19.033	0	0	0	1	0	0	17.883	2.027	16.961	0	0	0	0	0	0	0	0	0	0	0	0	0	0	0	10.994	-10.994	19.042	0	0	0	0	0	0	0	0	0	2
8638	86.38	0	0	0	0	0	0	0	0	0	0	0	0	0	0	0	0	0	0	0	0	0	1	0	0	17.755	2.1475	16.785	0	0	0	1	0	0	17.761	2.1499	16.789	0	0	0	0	0	0	0	0	0	0	0	0	0	0	0	10.994	-10.994	19.042	0	0	0	0	0	0	0	0	0	2
8639	86.39	0	0	0	0	0	0	10.917	-10.917	18.908	0	0	0	0	0	0	0	0	0	0	0	0	1	0	0	17.755	2.1475	16.785	0	0	0	1	0	0	17.761	2.1499	16.789	0	0	0	0	0	0	0	0	0	0	0	0	0	0	0	0	0	0	0	0	0	1	0	0	17.47	2.0148	16.554	2
8640	86.4	0	0	0	0	0	0	0	0	0	0	0	0	0	0	0	0	0	0	0	0	0	0	0	0	10.989	-10.989	19.033	0	0	0	1	0	0	17.883	2.027	16.961	0	0	0	0	0	0	0	0	0	0	0	0	0	-1	0	-2.0278	-17.891	16.968	0	0	0	0	0	0	0	0	0	2
8641	86.41	0	0	0	0	0	0	0	0	0	0	0	0	0	0	0	0	0	0	0	0	0	1	0	0	17.755	2.1475	16.785	0	0	0	1	0	0	17.761	2.1499	16.789	0	0	0	0	0	0	0	0	0	0	0	0	1	-1	0	7.5503	-27.469	31.921	0	0	0	1	0	0	17.47	2.0148	16.554	2
8642	86.42	0	0	0	0	0	0	0	0	0	0	0	0	0	0	0	0	0	0	0	0	0	0	0	0	10.989	-10.989	19.033	0	0	0	1	0	0	17.883	2.027	16.961	0	0	0	0	0	0	0	0	0	0	0	0	0	0	0	0	0	0	0	0	0	0	0	0	0	0	0	2
8643	86.43	0	0	0	0	0	0	0	0	0	0	0	0	0	0	0	0	0	0	0	0	0	1	0	0	17.755	2.1475	16.785	0	0	0	1	0	0	17.761	2.1499	16.789	0	0	0	0	0	0	0	0	0	0	0	0	0	0	0	10.994	-10.994	19.042	0	0	0	0	0	0	0	0	0	2
8644	86.44	0	0	0	0	0	0	0	0	0	0	0	0	0	0	0	0	0	0	0	0	0	0	0	0	10.989	-10.989	19.033	0	0	0	1	0	0	17.761	2.1499	16.789	0	0	0	0	0	0	0	0	0	0	0	0	0	0	0	10.994	-10.994	19.042	0	0	0	0	0	0	0	0	0	2
8645	86.45	0	0	0	0	0	0	0	0	0	0	0	0	0	0	0	0	0	0	0	0	0	1	0	0	17.755	2.1475	16.785	0	0	0	1	0	0	17.883	2.027	16.961	0	0	0	0	0	0	0	0	0	0	0	0	0	0	0	0	0	0	0	0	0	0	0	0	0	0	0	2
8646	86.46	0	0	0	0	0	0	0	0	0	0	0	0	0	0	0	0	0	0	0	0	0	1	0	0	17.755	2.1475	16.785	0	0	0	1	0	0	17.761	2.1499	16.789	0	0	0	0	0	0	0	0	0	0	0	0	0	0	0	10.994	-10.994	19.042	0	0	0	0	0	0	0	0	0	2
8647	86.47	0	0	0	0	0	0	0	0	0	0	0	0	0	0	0	0	0	0	0	0	0	1	0	0	17.755	2.1475	16.785	0	0	0	1	0	0	17.761	2.1499	16.789	0	0	0	0	0	0	0	0	0	0	0	0	1	-1	0	7.5503	-27.469	31.921	0	0	0	0	0	0	0	0	0	2
8648	86.48	0	0	0	0	0	0	0	0	0	0	0	0	0	0	0	0	0	0	0	0	0	1	0	0	17.755	2.1475	16.785	0	0	0	1	0	0	17.761	2.1499	16.789	0	0	0	0	0	0	0	0	0	0	0	0	0	0	0	10.994	-10.994	19.042	0	0	0	0	0	0	0	0	0	2
8649	86.49	0	0	0	0	0	0	10.917	-10.917	18.908	0	0	0	0	0	0	0	0	0	0	0	0	0	0	0	10.989	-10.989	19.033	0	0	0	1	0	0	17.761	2.1499	16.789	0	0	0	0	0	0	0	0	0	0	0	0	1	-1	0	7.5503	-27.469	31.921	0	0	0	1	0	0	17.47	2.0148	16.554	2
8650	86.5	0	0	0	0	0	0	0	0	0	0	0	0	0	0	0	0	0	0	0	0	0	1	0	0	17.755	2.1475	16.785	0	0	0	1	0	0	17.761	2.1499	16.789	0	0	0	0	0	0	0	0	0	0	0	0	0	0	0	10.994	-10.994	19.042	0	0	0	0	0	0	0	0	0	2
8651	86.51	0	0	0	0	0	0	0	0	0	0	0	0	0	0	0	0	0	0	0	0	0	1	0	0	17.755	2.1475	16.785	0	0	0	1	0	0	17.761	2.1499	16.789	0	0	0	0	0	0	0	0	0	0	0	0	0	0	0	10.994	-10.994	19.042	0	0	0	1	0	0	17.47	2.0148	16.554	2
8652	86.52	0	0	0	0	0	0	0	0	0	0	0	0	0	0	0	0	0	0	0	0	0	0	0	0	10.989	-10.989	19.033	0	0	0	1	0	0	17.761	2.1499	16.789	0	0	0	0	0	0	0	0	0	0	0	0	1	-1	0	7.5503	-27.469	31.921	0	0	0	0	0	0	0	0	0	2
8653	86.53	0	0	0	0	0	0	0	0	0	0	0	0	0	0	0	0	0	0	0	0	0	1	0	0	17.755	2.1475	16.785	0	0	0	1	0	0	17.761	2.1499	16.789	0	0	0	0	0	0	0	0	0	0	0	0	0	0	0	10.994	-10.994	19.042	0	0	0	0	0	0	0	0	0	2
8654	86.54	0	0	0	0	0	0	0	0	0	0	0	0	0	0	0	0	0	0	0	0	0	0	0	0	10.989	-10.989	19.033	0	0	0	1	0	0	17.761	2.1499	16.789	0	0	0	0	0	0	0	0	0	0	0	0	0	0	0	10.994	-10.994	19.042	0	0	0	0	0	0	0	0	0	2
8655	86.55	0	0	0	0	0	0	0	0	0	0	0	0	0	0	0	0	0	0	0	0	0	1	0	0	17.755	2.1475	16.785	0	0	0	1	0	0	17.761	2.1499	16.789	0	0	0	0	0	0	0	0	0	0	0	0	1	-1	0	7.5503	-27.469	31.921	0	0	0	0	0	0	0	0	0	2
8656	86.56	0	0	0	0	0	0	0	0	0	0	0	0	0	0	0	0	0	0	0	0	0	1	0	0	17.755	2.1475	16.785	0	0	0	1	0	0	17.761	2.1499	16.789	0	0	0	0	0	0	0	0	0	0	0	0	1	-1	0	7.5503	-27.469	31.921	0	0	0	0	0	0	0	0	0	2
8657	86.57	0	0	0	0	0	0	0	0	0	0	0	0	0	0	0	0	0	0	0	0	0	0	0	0	10.989	-10.989	19.033	0	0	0	1	0	0	17.761	2.1499	16.789	0	0	0	0	0	0	0	0	0	0	0	0	1	-1	0	7.5503	-27.469	31.921	0	0	0	0	0	0	0	0	0	2
8658	86.58	0	0	0	0	0	0	0	0	0	0	0	0	0	0	0	0	0	0	0	0	0	1	0	0	17.755	2.1475	16.785	0	0	0	1	0	0	17.761	2.1499	16.789	0	0	0	0	0	0	0	0	0	0	0	0	0	0	0	10.994	-10.994	19.042	0	0	0	0	0	0	0	0	0	2
8659	86.59	0	0	0	0	0	0	0	0	0	0	0	0	0	0	0	0	0	0	0	0	0	1	0	0	17.755	2.1475	16.785	0	0	0	1	0	0	17.761	2.1499	16.789	0	0	0	0	0	0	0	0	0	0	0	0	1	-1	0	7.5503	-27.469	31.921	0	0	0	0	0	0	0	0	0	2
8660	86.6	0	0	0	0	0	0	0	0	0	0	0	0	0	0	0	0	0	0	0	0	0	0	0	0	10.989	-10.989	19.033	0	0	0	1	0	0	17.761	2.1499	16.789	0	0	0	0	0	0	0	0	0	0	0	0	0	-1	0	-2.0278	-17.891	16.968	0	0	0	0	0	0	0	0	0	2
8661	86.61	0	0	0	0	0	0	10.917	-10.917	18.908	0	0	0	0	0	0	0	0	0	0	0	0	1	0	0	17.755	2.1475	16.785	0	0	0	1	0	0	17.761	2.1499	16.789	0	0	0	0	0	0	0	0	0	0	0	0	0	0	0	10.994	-10.994	19.042	0	0	0	1	0	0	17.47	2.0148	16.554	2
8662	86.62	0	0	0	0	0	0	0	0	0	0	0	0	0	0	0	0	0	0	0	0	0	1	0	0	17.755	2.1475	16.785	0	0	0	1	0	0	17.883	2.027	16.961	0	0	0	0	0	0	0	0	0	0	0	0	0	0	0	0	0	0	0	0	0	0	0	0	0	0	0	2
8663	86.63	0	0	0	0	0	0	0	0	0	0	0	0	0	0	0	0	0	0	0	0	0	0	0	0	10.989	-10.989	19.033	0	0	0	1	0	0	17.761	2.1499	16.789	0	0	0	0	0	0	0	0	0	0	0	0	0	0	0	0	0	0	0	0	0	0	0	0	0	0	0	2
8664	86.64	0	0	0	0	0	0	10.917	-10.917	18.908	0	0	0	0	0	0	0	0	0	0	0	0	1	0	0	17.755	2.1475	16.785	0	0	0	1	0	0	17.761	2.1499	16.789	0	0	0	0	0	0	0	0	0	0	0	0	0	-1	0	-2.0278	-17.891	16.968	0	0	0	0	0	0	0	0	0	2
8665	86.65	0	0	0	0	0	0	0	0	0	0	0	0	0	0	0	0	0	0	0	0	0	0	0	0	10.989	-10.989	19.033	0	0	0	1	0	0	17.761	2.1499	16.789	0	0	0	0	0	0	0	0	0	0	0	0	1	-1	0	7.5503	-27.469	31.921	0	0	0	1	0	0	17.47	2.0148	16.554	2
8666	86.66	0	0	0	0	0	0	0	0	0	0	0	0	0	0	0	0	0	0	0	0	0	1	0	0	17.755	2.1475	16.785	0	0	0	1	0	0	17.761	2.1499	16.789	0	0	0	0	0	0	0	0	0	0	0	0	1	-1	0	7.5503	-27.469	31.921	0	0	0	1	0	0	17.47	2.0148	16.554	2
8667	86.67	0	0	0	0	0	0	0	0	0	0	0	0	0	0	0	0	0	0	0	0	0	0	0	0	10.989	-10.989	19.033	0	0	0	1	0	0	17.761	2.1499	16.789	0	0	0	0	0	0	0	0	0	0	0	0	0	0	0	0	0	0	0	0	0	0	0	0	0	0	0	2
8668	86.68	0	0	0	0	0	0	10.917	-10.917	18.908	0	0	0	0	0	0	0	0	0	0	0	0	1	0	0	17.755	2.1475	16.785	0	0	0	1	0	0	17.883	2.027	16.961	0	0	0	0	0	0	0	0	0	0	0	0	0	0	0	10.994	-10.994	19.042	0	0	0	1	0	0	17.47	2.0148	16.554	2
8669	86.69	0	0	0	0	0	0	0	0	0	0	0	0	0	0	0	0	0	0	0	0	0	1	0	0	17.755	2.1475	16.785	0	0	0	1	0	0	17.761	2.1499	16.789	0	0	0	0	0	0	0	0	0	0	0	0	0	0	0	10.994	-10.994	19.042	0	0	0	0	0	0	0	0	0	2
8670	86.7	0	0	0	0	0	0	0	0	0	0	0	0	0	0	0	0	0	0	0	0	0	0	0	0	10.989	-10.989	19.033	0	0	0	1	0	0	17.883	2.027	16.961	0	0	0	0	0	0	0	0	0	0	0	0	0	0	0	0	0	0	0	0	0	0	0	0	0	0	0	2
8671	86.71	0	0	0	0	0	0	0	0	0	0	0	0	0	0	0	0	0	0	0	0	0	1	0	0	17.755	2.1475	16.785	0	0	0	1	0	0	17.761	2.1499	16.789	0	0	0	0	0	0	0	0	0	0	0	0	0	0	0	10.994	-10.994	19.042	0	0	0	1	0	0	17.47	2.0148	16.554	2
8672	86.72	0	0	0	0	0	0	10.917	-10.917	18.908	0	0	0	0	0	0	0	0	0	0	0	0	1	0	0	17.755	2.1475	16.785	0	0	0	1	0	0	17.883	2.027	16.961	0	0	0	0	0	0	0	0	0	0	0	0	0	0	0	0	0	0	0	0	0	0	0	0	0	0	0	2
8673	86.73	0	0	0	0	0	0	0	0	0	0	0	0	0	0	0	0	0	0	0	0	0	1	0	0	17.755	2.1475	16.785	0	0	0	1	0	0	17.761	2.1499	16.789	0	0	0	0	0	0	0	0	0	0	0	0	0	0	0	10.994	-10.994	19.042	0	0	0	1	0	0	30.423	8.5595	27.174	0
8674	86.74	0	0	0	0	0	0	0	0	0	0	0	0	0	0	0	0	0	0	0	0	0	1	0	0	17.755	2.1475	16.785	0	0	0	1	0	0	17.761	2.1499	16.789	0	0	0	0	0	0	0	0	0	0	0	0	1	-1	0	7.5503	-27.469	31.921	0	0	0	0	0	0	0	0	0	2
8675	86.75	0	0	0	0	0	0	0	0	0	0	0	0	0	0	0	0	0	0	0	0	0	0	0	0	10.989	-10.989	19.033	0	0	0	1	0	0	17.761	2.1499	16.789	0	0	0	0	0	0	0	0	0	0	0	0	0	0	0	10.994	-10.994	19.042	0	0	0	0	0	0	0	0	0	2
8676	86.76	0	0	0	0	0	0	10.917	-10.917	18.908	0	0	0	0	0	0	0	0	0	0	0	0	1	0	0	17.755	2.1475	16.785	0	0	0	1	0	0	17.761	2.1499	16.789	0	0	0	0	0	0	0	0	0	0	0	0	0	0	0	10.994	-10.994	19.042	0	0	0	1	0	0	17.47	2.0148	16.554	2
8677	86.77	0	0	0	0	0	0	0	0	0	0	0	0	0	0	0	0	0	0	0	0	0	0	0	0	10.989	-10.989	19.033	0	0	0	1	0	0	17.883	2.027	16.961	0	0	0	0	0	0	0	0	0	0	0	0	0	0	0	10.994	-10.994	19.042	0	0	0	0	0	0	0	0	0	2
8678	86.78	0	0	0	0	0	0	0	0	0	0	0	0	0	0	0	0	0	0	0	0	0	1	0	0	17.755	2.1475	16.785	0	0	0	1	0	0	17.761	2.1499	16.789	0	0	0	0	0	0	0	0	0	0	0	0	1	-1	0	7.5503	-27.469	31.921	0	0	0	0	0	0	0	0	0	2
8679	86.79	0	0	0	0	0	0	0	0	0	0	0	0	0	0	0	0	0	0	0	0	0	1	0	0	17.755	2.1475	16.785	0	0	0	1	0	0	17.883	2.027	16.961	0	0	0	0	0	0	0	0	0	0	0	0	0	0	0	10.994	-10.994	19.042	0	0	0	0	0	0	0	0	0	2
8680	86.8	0	0	0	0	0	0	0	0	0	0	0	0	0	0	0	0	0	0	0	0	0	0	0	0	10.989	-10.989	19.033	0	0	0	1	0	0	17.761	2.1499	16.789	0	0	0	0	0	0	0	0	0	0	0	0	0	0	0	10.994	-10.994	19.042	0	0	0	0	0	0	0	0	0	2
8681	86.81	0	0	0	0	0	0	0	0	0	0	0	0	0	0	0	0	0	0	0	0	0	1	0	0	17.755	2.1475	16.785	0	0	0	1	0	0	17.761	2.1499	16.789	0	0	0	0	0	0	0	0	0	0	0	0	0	0	0	10.994	-10.994	19.042	0	0	0	0	0	0	0	0	0	2
8682	86.82	0	0	0	0	0	0	0	0	0	0	0	0	0	0	0	0	0	0	0	0	0	0	0	0	10.989	-10.989	19.033	0	0	0	1	0	0	17.761	2.1499	16.789	0	0	0	0	0	0	0	0	0	0	0	0	1	-1	0	7.5503	-27.469	31.921	0	0	0	0	0	0	0	0	0	2
8683	86.83	0	0	0	0	0	0	0	0	0	0	0	0	0	0	0	0	0	0	0	0	0	1	0	0	17.755	2.1475	16.785	0	0	0	1	0	0	17.761	2.1499	16.789	0	0	0	0	0	0	0	0	0	0	0	0	0	0	0	10.994	-10.994	19.042	0	0	0	0	0	0	0	0	0	2
8684	86.84	0	0	0	0	0	0	0	0	0	0	0	0	0	0	0	0	0	0	0	0	0	1	0	0	17.755	2.1475	16.785	0	0	0	1	0	0	17.761	2.1499	16.789	0	0	0	0	0	0	0	0	0	0	0	0	0	0	0	10.994	-10.994	19.042	0	0	0	1	0	0	17.47	2.0148	16.554	2
8685	86.85	0	0	0	0	0	0	0	0	0	0	0	0	0	0	0	0	0	0	0	0	0	0	0	0	10.989	-10.989	19.033	0	0	0	1	0	0	17.761	2.1499	16.789	0	0	0	0	0	0	0	0	0	0	0	0	0	0	0	10.994	-10.994	19.042	0	0	0	0	0	0	0	0	0	2
8686	86.86	0	0	0	0	0	0	10.917	-10.917	18.908	0	0	0	0	0	0	0	0	0	0	0	0	1	0	0	17.755	2.1475	16.785	0	0	0	1	0	0	17.761	2.1499	16.789	0	0	0	0	0	0	0	0	0	0	0	0	1	-1	0	7.5503	-27.469	31.921	0	0	0	0	0	0	0	0	0	2
8687	86.87	0	0	0	0	0	0	10.917	-10.917	18.908	0	0	0	0	0	0	0	0	0	0	0	0	0	0	0	10.989	-10.989	19.033	0	0	0	1	0	0	17.761	2.1499	16.789	0	0	0	0	0	0	0	0	0	0	0	0	0	0	0	10.994	-10.994	19.042	0	0	0	0	0	0	0	0	0	2
8688	86.88	0	0	0	0	0	0	0	0	0	0	0	0	0	0	0	0	0	0	0	0	0	1	0	0	17.755	2.1475	16.785	0	0	0	1	0	0	17.761	2.1499	16.789	0	0	0	0	0	0	0	0	0	0	0	0	0	0	0	10.994	-10.994	19.042	0	0	0	0	0	0	0	0	0	2
8689	86.89	0	0	0	0	0	0	0	0	0	0	0	0	0	0	0	0	0	0	0	0	0	0	0	0	10.989	-10.989	19.033	0	0	0	1	0	0	17.761	2.1499	16.789	0	0	0	0	0	0	0	0	0	0	0	0	0	0	0	10.994	-10.994	19.042	0	0	0	0	0	0	0	0	0	2
8690	86.9	0	0	0	0	0	0	10.917	-10.917	18.908	0	0	0	0	0	0	0	0	0	0	0	0	0	0	0	10.989	-10.989	19.033	0	0	0	1	0	0	17.761	2.1499	16.789	0	0	0	0	0	0	0	0	0	0	0	0	0	0	0	10.994	-10.994	19.042	0	0	0	0	0	0	0	0	0	2
8691	86.91	0	0	0	0	0	0	10.917	-10.917	18.908	0	0	0	0	0	0	0	0	0	0	0	0	0	0	0	10.989	-10.989	19.033	0	0	0	1	0	0	17.761	2.1499	16.789	0	0	0	0	0	0	0	0	0	0	0	0	0	0	0	10.994	-10.994	19.042	0	0	0	0	0	0	0	0	0	2
8692	86.92	0	0	0	0	0	0	0	0	0	0	0	0	0	0	0	0	0	0	0	0	0	1	0	0	17.755	2.1475	16.785	0	0	0	1	0	0	17.761	2.1499	16.789	0	0	0	0	0	0	0	0	0	0	0	0	0	0	0	10.994	-10.994	19.042	0	0	0	0	0	0	0	0	0	2
8693	86.93	0	0	0	0	0	0	10.917	-10.917	18.908	0	0	0	0	0	0	0	0	0	0	0	0	1	0	0	17.755	2.1475	16.785	0	0	0	1	0	0	17.761	2.1499	16.789	0	0	0	1	0	0	17.883	2.027	16.961	0	0	0	0	0	0	0	0	0	0	0	0	0	0	0	0	0	0	2
8694	86.94	0	0	0	0	0	0	0	0	0	0	0	0	0	0	0	0	0	0	0	0	0	0	0	0	10.989	-10.989	19.033	0	0	0	1	0	0	17.761	2.1499	16.789	0	0	0	0	0	0	0	0	0	0	0	0	1	-1	0	7.5503	-27.469	31.921	0	0	0	1	0	0	17.47	2.0148	16.554	2
8695	86.95	0	0	0	0	0	0	0	0	0	0	0	0	0	0	0	0	0	0	0	0	0	1	0	0	17.755	2.1475	16.785	0	0	0	1	0	0	17.761	2.1499	16.789	0	0	0	0	0	0	0	0	0	0	0	0	0	0	0	10.994	-10.994	19.042	0	0	0	0	0	0	0	0	0	2
8696	86.96	0	0	0	0	0	0	0	0	0	0	0	0	0	0	0	0	0	0	0	0	0	1	0	0	17.755	2.1475	16.785	0	0	0	1	0	0	17.761	2.1499	16.789	0	0	0	1	0	0	17.883	2.027	16.961	0	0	0	1	-1	0	7.5503	-27.469	31.921	0	0	0	0	0	0	0	0	0	2
8697	86.97	0	0	0	0	0	0	0	0	0	0	0	0	0	0	0	0	0	0	0	0	0	0	0	0	10.989	-10.989	19.033	0	0	0	1	0	0	17.761	2.1499	16.789	0	0	0	0	0	0	0	0	0	0	0	0	1	-1	0	7.5503	-27.469	31.921	0	0	0	0	0	0	0	0	0	2
8698	86.98	0	0	0	0	0	0	10.917	-10.917	18.908	0	0	0	0	0	0	0	0	0	0	0	0	1	0	0	17.755	2.1475	16.785	0	0	0	1	0	0	17.761	2.1499	16.789	0	0	0	0	0	0	0	0	0	0	0	0	0	0	0	10.994	-10.994	19.042	0	0	0	1	0	0	17.47	2.0148	16.554	2
8699	86.99	0	0	0	0	0	0	0	0	0	0	0	0	0	0	0	0	0	0	0	0	0	0	0	0	10.989	-10.989	19.033	0	0	0	1	0	0	17.761	2.1499	16.789	0	0	0	0	0	0	0	0	0	0	0	0	0	0	0	0	0	0	0	0	0	0	0	0	0	0	0	2
8700	87	0	0	0	0	0	0	0	0	0	0	0	0	0	0	0	0	0	0	0	0	0	1	0	0	17.755	2.1475	16.785	0	0	0	1	0	0	17.761	2.1499	16.789	0	0	0	0	0	0	0	0	0	0	0	0	0	0	0	10.994	-10.994	19.042	0	0	0	0	0	0	0	0	0	2
8701	87.01	0	0	0	0	0	0	0	0	0	0	0	0	0	0	0	0	0	0	0	0	0	1	0	0	17.755	2.1475	16.785	0	0	0	1	0	0	17.883	2.027	16.961	0	0	0	0	0	0	0	0	0	0	0	0	1	-1	0	7.5503	-27.469	31.921	0	0	0	1	0	0	17.47	2.0148	16.554	2
8702	87.02	0	0	0	0	0	0	0	0	0	0	0	0	0	0	0	0	0	0	0	0	0	0	0	0	10.989	-10.989	19.033	0	0	0	1	0	0	17.761	2.1499	16.789	0	0	0	0	0	0	0	0	0	0	0	0	0	0	0	10.994	-10.994	19.042	0	0	0	0	0	0	0	0	0	2
8703	87.03	0	0	0	0	0	0	0	0	0	0	0	0	0	0	0	0	0	0	0	0	0	1	0	0	17.755	2.1475	16.785	0	0	0	1	0	0	17.761	2.1499	16.789	0	0	0	0	0	0	0	0	0	0	0	0	0	0	0	0	0	0	0	0	0	1	0	0	17.47	2.0148	16.554	2
8704	87.04	0	0	0	0	0	0	0	0	0	0	0	0	0	0	0	0	0	0	0	0	0	0	0	0	10.989	-10.989	19.033	0	0	0	1	0	0	17.761	2.1499	16.789	0	0	0	0	0	0	0	0	0	0	0	0	1	-1	0	7.5503	-27.469	31.921	0	0	0	0	0	0	0	0	0	2
8705	87.05	0	0	0	0	0	0	0	0	0	0	0	0	0	0	0	0	0	0	0	0	0	0	0	0	10.989	-10.989	19.033	0	0	0	1	0	0	17.761	2.1499	16.789	0	0	0	0	0	0	0	0	0	0	0	0	1	-1	0	7.5503	-27.469	31.921	0	0	0	0	0	0	0	0	0	2
8706	87.06	0	0	0	0	0	0	0	0	0	0	0	0	0	0	0	0	0	0	0	0	0	1	0	0	17.755	2.1475	16.785	0	0	0	1	0	0	17.761	2.1499	16.789	0	0	0	0	0	0	0	0	0	0	0	0	0	0	0	10.994	-10.994	19.042	0	0	0	0	0	0	0	0	0	2
8707	87.07	0	0	0	0	0	0	10.917	-10.917	18.908	0	0	0	0	0	0	0	0	0	0	0	0	0	0	0	10.989	-10.989	19.033	0	0	0	1	0	0	17.761	2.1499	16.789	0	0	0	0	0	0	0	0	0	0	0	0	0	0	0	0	0	0	0	0	0	1	0	0	17.47	2.0148	16.554	2
8708	87.08	0	0	0	0	0	0	0	0	0	0	0	0	0	0	0	0	0	0	0	0	0	1	0	0	17.755	2.1475	16.785	0	0	0	1	0	0	17.883	2.027	16.961	0	0	0	0	0	0	0	0	0	0	0	0	0	0	0	10.994	-10.994	19.042	0	0	0	0	0	0	0	0	0	2
8709	87.09	0	0	0	0	0	0	0	0	0	0	0	0	0	0	0	0	0	0	0	0	0	0	0	0	10.989	-10.989	19.033	0	0	0	1	0	0	17.761	2.1499	16.789	0	0	0	0	0	0	0	0	0	0	0	0	0	0	0	10.994	-10.994	19.042	0	0	0	1	0	0	17.47	2.0148	16.554	2
8710	87.1	0	0	0	0	0	0	0	0	0	0	0	0	0	0	0	0	0	0	0	0	0	0	0	0	10.989	-10.989	19.033	0	0	0	1	0	0	17.761	2.1499	16.789	0	0	0	1	0	0	17.883	2.027	16.961	0	0	0	1	-1	0	7.5503	-27.469	31.921	0	0	0	0	0	0	0	0	0	2
8711	87.11	0	0	0	0	0	0	0	0	0	0	0	0	0	0	0	0	0	0	0	0	0	1	0	0	17.755	2.1475	16.785	0	0	0	1	0	0	17.761	2.1499	16.789	0	0	0	0	0	0	0	0	0	0	0	0	0	0	0	0	0	0	0	0	0	0	0	0	0	0	0	2
8712	87.12	0	0	0	0	0	0	0	0	0	0	0	0	0	0	0	0	0	0	0	0	0	0	0	0	10.989	-10.989	19.033	0	0	0	1	0	0	17.761	2.1499	16.789	0	0	0	0	0	0	0	0	0	0	0	0	0	-1	0	-2.0278	-17.891	16.968	0	0	0	0	0	0	0	0	0	2
8713	87.13	0	0	0	0	0	0	0	0	0	0	0	0	0	0	0	0	0	0	0	0	0	1	0	0	17.755	2.1475	16.785	0	0	0	1	0	0	17.761	2.1499	16.789	0	0	0	0	0	0	0	0	0	0	0	0	0	0	0	10.994	-10.994	19.042	0	0	0	0	0	0	0	0	0	2
8714	87.14	0	0	0	0	0	0	0	0	0	0	0	0	0	0	0	0	0	0	0	0	0	1	0	0	17.755	2.1475	16.785	0	0	0	1	0	0	17.761	2.1499	16.789	0	0	0	0	0	0	0	0	0	0	0	0	0	0	0	10.994	-10.994	19.042	0	0	0	1	0	0	17.47	2.0148	16.554	2
8715	87.15	0	0	0	0	0	0	0	0	0	0	0	0	0	0	0	0	0	0	0	0	0	0	0	0	10.989	-10.989	19.033	0	0	0	1	0	0	17.761	2.1499	16.789	0	0	0	0	0	0	0	0	0	0	0	0	0	0	0	10.994	-10.994	19.042	0	0	0	0	0	0	0	0	0	2
8716	87.16	0	0	0	0	0	0	10.917	-10.917	18.908	0	0	0	0	0	0	0	0	0	0	0	0	1	0	0	17.755	2.1475	16.785	0	0	0	1	0	0	17.761	2.1499	16.789	0	0	0	0	0	0	0	0	0	0	0	0	0	0	0	10.994	-10.994	19.042	0	0	0	0	0	0	0	0	0	2
8717	87.17	0	0	0	0	0	0	0	0	0	0	0	0	0	0	0	0	0	0	0	0	0	0	0	0	10.989	-10.989	19.033	0	0	0	1	0	0	17.761	2.1499	16.789	0	0	0	0	0	0	0	0	0	0	0	0	0	0	0	0	0	0	0	0	0	0	0	0	0	0	0	2
8718	87.18	0	0	0	0	0	0	10.917	-10.917	18.908	0	0	0	0	0	0	0	0	0	0	0	0	1	0	0	17.755	2.1475	16.785	0	0	0	1	0	0	17.761	2.1499	16.789	0	0	0	0	0	0	0	0	0	0	0	0	0	0	0	10.994	-10.994	19.042	0	0	0	0	0	0	0	0	0	2
8719	87.19	0	0	0	0	0	0	0	0	0	0	0	0	0	0	0	0	0	0	0	0	0	1	0	0	17.755	2.1475	16.785	0	0	0	1	0	0	17.761	2.1499	16.789	0	0	0	0	0	0	0	0	0	0	0	0	0	0	0	10.994	-10.994	19.042	0	0	0	1	0	0	17.47	2.0148	16.554	2
8720	87.2	0	0	0	0	0	0	0	0	0	0	0	0	0	0	0	0	0	0	0	0	0	0	0	0	10.989	-10.989	19.033	0	0	0	1	0	0	17.883	2.027	16.961	0	0	0	0	0	0	0	0	0	0	0	0	0	0	0	10.994	-10.994	19.042	0	0	0	0	0	0	0	0	0	2
8721	87.21	0	0	0	0	0	0	0	0	0	0	0	0	0	0	0	0	0	0	0	0	0	1	0	0	17.755	2.1475	16.785	0	0	0	1	0	0	17.761	2.1499	16.789	0	0	0	0	0	0	0	0	0	0	0	0	0	0	0	10.994	-10.994	19.042	0	0	0	1	0	0	17.47	2.0148	16.554	2
8722	87.22	0	0	0	0	0	0	0	0	0	0	0	0	0	0	0	0	0	0	0	0	0	1	0	0	17.755	2.1475	16.785	0	0	0	1	0	0	17.761	2.1499	16.789	0	0	0	0	0	0	0	0	0	0	0	0	0	0	0	10.994	-10.994	19.042	0	0	0	0	0	0	0	0	0	2
8723	87.23	0	0	0	0	0	0	10.917	-10.917	18.908	0	0	0	0	0	0	0	0	0	0	0	0	1	0	0	17.755	2.1475	16.785	0	0	0	1	0	0	17.761	2.1499	16.789	0	0	0	0	0	0	0	0	0	0	0	0	0	0	0	10.994	-10.994	19.042	0	0	0	0	0	0	0	0	0	2
8724	87.24	0	0	0	0	0	0	0	0	0	0	0	0	0	0	0	0	0	0	0	0	0	1	0	0	17.755	2.1475	16.785	0	0	0	1	0	0	17.761	2.1499	16.789	0	0	0	0	0	0	0	0	0	0	0	0	1	-1	0	7.5503	-27.469	31.921	0	0	0	0	0	0	0	0	0	2
8725	87.25	0	0	0	0	0	0	0	0	0	0	0	0	0	0	0	0	0	0	0	0	0	0	0	0	10.989	-10.989	19.033	0	0	0	1	0	0	17.761	2.1499	16.789	0	0	0	0	0	0	0	0	0	0	0	0	0	0	0	10.994	-10.994	19.042	0	0	0	0	0	0	0	0	0	2
8726	87.26	0	0	0	0	0	0	0	0	0	0	0	0	0	0	0	0	0	0	0	0	0	1	0	0	17.755	2.1475	16.785	0	0	0	1	0	0	17.761	2.1499	16.789	0	0	0	0	0	0	0	0	0	0	0	0	0	0	0	10.994	-10.994	19.042	0	0	0	1	0	0	17.47	2.0148	16.554	2
8727	87.27	0	0	0	0	0	0	0	0	0	0	0	0	0	0	0	0	0	0	0	0	0	0	0	0	10.989	-10.989	19.033	0	0	0	1	0	0	17.761	2.1499	16.789	0	0	0	0	0	0	0	0	0	0	0	0	0	0	0	0	0	0	0	0	0	0	0	0	0	0	0	2
8728	87.28	0	0	0	0	0	0	0	0	0	0	0	0	0	0	0	0	0	0	0	0	0	1	0	0	17.755	2.1475	16.785	0	0	0	1	0	0	17.761	2.1499	16.789	0	0	0	0	0	0	0	0	0	0	0	0	0	0	0	10.994	-10.994	19.042	0	0	0	0	0	0	0	0	0	2
8729	87.29	0	0	0	0	0	0	0	0	0	0	0	0	0	0	0	0	0	0	0	0	0	0	0	0	10.989	-10.989	19.033	0	0	0	1	0	0	17.761	2.1499	16.789	0	0	0	0	0	0	0	0	0	0	0	0	0	0	0	10.994	-10.994	19.042	0	0	0	0	0	0	0	0	0	2
8730	87.3	0	0	0	0	0	0	0	0	0	0	0	0	0	0	0	0	0	0	0	0	0	0	0	0	10.989	-10.989	19.033	0	0	0	1	0	0	17.761	2.1499	16.789	0	0	0	0	0	0	0	0	0	0	0	0	1	-1	0	7.5503	-27.469	31.921	0	0	0	0	0	0	0	0	0	2
8731	87.31	0	0	0	0	0	0	0	0	0	0	0	0	0	0	0	0	0	0	0	0	0	1	0	0	17.755	2.1475	16.785	0	0	0	1	0	0	17.761	2.1499	16.789	0	0	0	0	0	0	0	0	0	0	0	0	1	-1	0	7.5503	-27.469	31.921	0	0	0	1	0	0	17.47	2.0148	16.554	2
8732	87.32	0	0	0	0	0	0	10.917	-10.917	18.908	0	0	0	0	0	0	0	0	0	0	0	0	0	0	0	10.989	-10.989	19.033	0	0	0	1	0	0	17.761	2.1499	16.789	0	0	0	0	0	0	0	0	0	0	0	0	0	0	0	10.994	-10.994	19.042	0	0	0	0	0	0	0	0	0	2
8733	87.33	0	0	0	0	0	0	10.917	-10.917	18.908	0	0	0	0	0	0	0	0	0	0	0	0	1	0	0	17.755	2.1475	16.785	0	0	0	1	0	0	17.761	2.1499	16.789	0	0	0	0	0	0	0	0	0	0	0	0	0	0	0	10.994	-10.994	19.042	0	0	0	0	0	0	0	0	0	2
8734	87.34	0	0	0	0	0	0	0	0	0	0	0	0	0	0	0	0	0	0	0	0	0	0	0	0	10.989	-10.989	19.033	0	0	0	1	0	0	17.761	2.1499	16.789	0	0	0	0	0	0	0	0	0	0	0	0	1	-1	0	7.5503	-27.469	31.921	0	0	0	0	0	0	0	0	0	2
8735	87.35	0	0	0	0	0	0	0	0	0	0	0	0	0	0	0	0	0	0	0	0	0	0	0	0	10.989	-10.989	19.033	0	0	0	1	0	0	17.883	2.027	16.961	0	0	0	0	0	0	0	0	0	0	0	0	1	-1	0	7.5503	-27.469	31.921	0	0	0	0	0	0	0	0	0	2
8736	87.36	0	0	0	0	0	0	0	0	0	0	0	0	0	0	0	0	0	0	0	0	0	1	0	0	17.755	2.1475	16.785	0	0	0	1	0	0	17.761	2.1499	16.789	0	0	0	0	0	0	0	0	0	0	0	0	0	0	0	10.994	-10.994	19.042	0	0	0	0	0	0	0	0	0	2
8737	87.37	0	0	0	0	0	0	0	0	0	0	0	0	0	0	0	0	0	0	0	0	0	0	0	0	10.989	-10.989	19.033	0	0	0	1	0	0	17.761	2.1499	16.789	0	0	0	0	0	0	0	0	0	0	0	0	1	-1	0	7.5503	-27.469	31.921	0	0	0	0	0	0	0	0	0	0
8738	87.38	0	0	0	0	0	0	0	0	0	0	0	0	0	0	0	0	0	0	0	0	0	1	0	0	17.755	2.1475	16.785	0	0	0	1	0	0	17.761	2.1499	16.789	0	0	0	0	0	0	0	0	0	0	0	0	0	0	0	10.994	-10.994	19.042	0	0	0	0	0	0	0	0	0	2
8739	87.39	0	0	0	0	0	0	0	0	0	0	0	0	0	0	0	0	0	0	0	0	0	0	0	0	10.989	-10.989	19.033	0	0	0	1	0	0	17.761	2.1499	16.789	0	0	0	0	0	0	0	0	0	0	0	0	0	0	0	0	0	0	0	0	0	0	0	0	0	0	0	2
8740	87.4	0	0	0	0	0	0	0	0	0	0	0	0	0	0	0	0	0	0	0	0	0	0	0	0	10.989	-10.989	19.033	0	0	0	1	0	0	17.761	2.1499	16.789	0	0	0	0	0	0	0	0	0	0	0	0	1	-1	0	7.5503	-27.469	31.921	0	0	0	0	0	0	0	0	0	2
8741	87.41	0	0	0	0	0	0	0	0	0	0	0	0	0	0	0	0	0	0	0	0	0	1	0	0	17.755	2.1475	16.785	0	0	0	1	0	0	17.761	2.1499	16.789	0	0	0	0	0	0	0	0	0	0	0	0	0	0	0	10.994	-10.994	19.042	0	0	0	0	0	0	0	0	0	2
8742	87.42	0	0	0	0	0	0	0	0	0	0	0	0	0	0	0	0	0	0	0	0	0	0	0	0	10.989	-10.989	19.033	0	0	0	1	0	0	17.883	2.027	16.961	0	0	0	0	0	0	0	0	0	0	0	0	0	0	0	0	0	0	0	0	0	0	0	0	0	0	0	2
8743	87.43	0	0	0	0	0	0	0	0	0	0	0	0	0	0	0	0	0	0	0	0	0	1	0	0	17.755	2.1475	16.785	0	0	0	1	0	0	17.761	2.1499	16.789	0	0	0	0	0	0	0	0	0	0	0	0	1	-1	0	7.5503	-27.469	31.921	0	0	0	0	0	0	0	0	0	2
8744	87.44	0	0	0	0	0	0	0	0	0	0	0	0	0	0	0	0	0	0	0	0	0	0	0	0	10.989	-10.989	19.033	0	0	0	1	0	0	17.761	2.1499	16.789	0	0	0	0	0	0	0	0	0	0	0	0	0	0	0	10.994	-10.994	19.042	0	0	0	0	0	0	0	0	0	2
8745	87.45	0	0	0	0	0	0	0	0	0	0	0	0	0	0	0	0	0	0	0	0	0	0	0	0	10.989	-10.989	19.033	0	0	0	1	0	0	17.761	2.1499	16.789	0	0	0	0	0	0	0	0	0	0	0	0	0	0	0	0	0	0	0	0	0	0	0	0	0	0	0	2
8746	87.46	0	0	0	0	0	0	0	0	0	0	0	0	0	0	0	0	0	0	0	0	0	1	0	0	17.755	2.1475	16.785	0	0	0	1	0	0	17.761	2.1499	16.789	0	0	0	1	0	0	17.883	2.027	16.961	0	0	0	1	-1	0	7.5503	-27.469	31.921	0	0	0	0	0	0	0	0	0	3
8747	87.47	0	0	0	0	0	0	0	0	0	0	0	0	0	0	0	0	0	0	0	0	0	0	0	0	10.989	-10.989	19.033	0	0	0	1	0	0	17.761	2.1499	16.789	0	0	0	0	0	0	0	0	0	0	0	0	1	-1	0	7.5503	-27.469	31.921	0	0	0	0	0	0	0	0	0	2
8748	87.48	0	0	0	0	0	0	0	0	0	0	0	0	0	0	0	0	0	0	0	0	0	1	0	0	17.755	2.1475	16.785	0	0	0	1	0	0	17.761	2.1499	16.789	0	0	0	1	0	0	17.883	2.027	16.961	0	0	0	0	0	0	10.994	-10.994	19.042	0	0	0	0	0	0	0	0	0	2
8749	87.49	0	0	0	0	0	0	10.917	-10.917	18.908	0	0	0	0	0	0	0	0	0	0	0	0	1	0	0	17.755	2.1475	16.785	0	0	0	1	0	0	17.761	2.1499	16.789	0	0	0	0	0	0	0	0	0	0	0	0	1	-1	0	7.5503	-27.469	31.921	0	0	0	0	0	0	0	0	0	2
8750	87.5	0	0	0	0	0	0	0	0	0	0	0	0	0	0	0	0	0	0	0	0	0	0	0	0	10.989	-10.989	19.033	0	0	0	1	0	0	17.761	2.1499	16.789	0	0	0	0	0	0	0	0	0	0	0	0	0	-1	0	-2.0278	-17.891	16.968	0	0	0	0	0	0	0	0	0	2
8751	87.51	0	0	0	0	0	0	10.917	-10.917	18.908	0	0	0	0	0	0	0	0	0	0	0	0	1	0	0	17.755	2.1475	16.785	0	0	0	1	0	0	17.761	2.1499	16.789	0	0	0	0	0	0	0	0	0	0	0	0	0	0	0	0	0	0	0	0	0	0	0	0	0	0	0	2
8752	87.52	0	0	0	0	0	0	0	0	0	0	0	0	0	0	0	0	0	0	0	0	0	1	0	0	17.755	2.1475	16.785	0	0	0	1	0	0	17.761	2.1499	16.789	0	0	0	0	0	0	0	0	0	0	0	0	1	-1	0	7.5503	-27.469	31.921	0	0	0	0	0	0	0	0	0	2
8753	87.53	0	0	0	0	0	0	10.917	-10.917	18.908	0	0	0	0	0	0	0	0	0	0	0	0	1	0	0	17.755	2.1475	16.785	0	0	0	1	0	0	17.761	2.1499	16.789	0	0	0	0	0	0	0	0	0	0	0	0	0	0	0	0	0	0	0	0	0	0	0	0	0	0	0	2
8754	87.54	0	0	0	0	0	0	0	0	0	0	0	0	0	0	0	0	0	0	0	0	0	0	0	0	10.989	-10.989	19.033	0	0	0	1	0	0	17.761	2.1499	16.789	0	0	0	0	0	0	0	0	0	0	0	0	1	-1	0	7.5503	-27.469	31.921	0	0	0	0	0	0	0	0	0	2
8755	87.55	0	0	0	0	0	0	0	0	0	0	0	0	0	0	0	0	0	0	0	0	0	1	0	0	17.755	2.1475	16.785	0	0	0	1	0	0	17.761	2.1499	16.789	0	0	0	0	0	0	0	0	0	0	0	0	0	0	0	10.994	-10.994	19.042	0	0	0	0	0	0	0	0	0	2
8756	87.56	0	0	0	0	0	0	10.917	-10.917	18.908	0	0	0	0	0	0	0	0	0	0	0	0	1	0	0	17.755	2.1475	16.785	0	0	0	1	0	0	17.761	2.1499	16.789	0	0	0	0	0	0	0	0	0	0	0	0	1	-1	0	7.5503	-27.469	31.921	0	0	0	0	0	0	0	0	0	2
8757	87.57	0	0	0	0	0	0	0	0	0	0	0	0	0	0	0	0	0	0	0	0	0	0	0	0	10.989	-10.989	19.033	0	0	0	1	0	0	17.761	2.1499	16.789	0	0	0	0	0	0	0	0	0	0	0	0	1	-1	0	7.5503	-27.469	31.921	0	0	0	0	0	0	0	0	0	2
8758	87.58	0	0	0	0	0	0	0	0	0	0	0	0	0	0	0	0	0	0	0	0	0	1	0	0	17.755	2.1475	16.785	0	0	0	1	0	0	17.761	2.1499	16.789	0	0	0	0	0	0	0	0	0	0	0	0	0	0	0	0	0	0	0	0	0	1	0	0	17.47	2.0148	16.554	2
8759	87.59	0	0	0	0	0	0	0	0	0	0	0	0	0	0	0	0	0	0	0	0	0	0	0	0	10.989	-10.989	19.033	0	0	0	1	0	0	17.761	2.1499	16.789	0	0	0	0	0	0	0	0	0	0	0	0	1	0	0	17.769	2.1543	16.796	0	0	0	0	0	0	0	0	0	2
8760	87.6	0	0	0	0	0	0	0	0	0	0	0	0	0	0	0	0	0	0	0	0	0	1	0	0	17.755	2.1475	16.785	0	0	0	1	0	0	17.761	2.1499	16.789	0	0	0	0	0	0	0	0	0	0	0	0	0	-1	0	-2.0278	-17.891	16.968	0	0	0	0	0	0	0	0	0	2
8761	87.61	0	0	0	0	0	0	0	0	0	0	0	0	0	0	0	0	0	0	0	0	0	1	0	0	17.755	2.1475	16.785	0	0	0	1	0	0	17.761	2.1499	16.789	0	0	0	0	0	0	0	0	0	0	0	0	0	0	0	10.994	-10.994	19.042	0	0	0	1	0	0	17.47	2.0148	16.554	2
8762	87.62	0	0	0	0	0	0	0	0	0	0	0	0	0	0	0	0	0	0	0	0	0	0	0	0	10.989	-10.989	19.033	0	0	0	1	0	0	17.761	2.1499	16.789	0	0	0	0	0	0	0	0	0	0	0	0	0	0	0	10.994	-10.994	19.042	0	0	0	0	0	0	0	0	0	2
8763	87.63	0	0	0	0	0	0	10.917	-10.917	18.908	0	0	0	0	0	0	0	0	0	0	0	0	1	0	0	17.755	2.1475	16.785	0	0	0	1	0	0	17.761	2.1499	16.789	0	0	0	1	0	0	17.883	2.027	16.961	0	0	0	0	0	0	0	0	0	0	0	0	0	0	0	0	0	0	2
8764	87.64	0	0	0	0	0	0	0	0	0	0	0	0	0	0	0	0	0	0	0	0	0	0	0	0	10.989	-10.989	19.033	0	0	0	1	0	0	17.761	2.1499	16.789	0	0	0	0	0	0	0	0	0	0	0	0	1	-1	0	7.5503	-27.469	31.921	0	0	0	0	0	0	0	0	0	2
8765	87.65	0	0	0	0	0	0	0	0	0	0	0	0	0	0	0	0	0	0	0	0	0	1	0	0	17.755	2.1475	16.785	0	0	0	1	0	0	17.883	2.027	16.961	0	0	0	0	0	0	0	0	0	0	0	0	0	-1	0	-2.0278	-17.891	16.968	0	0	0	0	0	0	0	0	0	2
8766	87.66	0	0	0	0	0	0	0	0	0	0	0	0	0	0	0	0	0	0	0	0	0	1	0	0	17.755	2.1475	16.785	0	0	0	1	0	0	17.761	2.1499	16.789	0	0	0	0	0	0	0	0	0	0	0	0	0	-1	0	-2.0278	-17.891	16.968	0	0	0	0	0	0	0	0	0	2
8767	87.67	0	0	0	0	0	0	0	0	0	0	0	0	0	0	0	0	0	0	0	0	0	1	0	0	17.755	2.1475	16.785	0	0	0	1	0	0	17.761	2.1499	16.789	0	0	0	0	0	0	0	0	0	0	0	0	0	0	0	10.994	-10.994	19.042	0	0	0	0	0	0	0	0	0	2
8768	87.68	0	0	0	0	0	0	0	0	0	0	0	0	0	0	0	0	0	0	0	0	0	1	0	0	17.755	2.1475	16.785	0	0	0	1	0	0	17.761	2.1499	16.789	0	0	0	0	0	0	0	0	0	0	0	0	1	-1	0	7.5503	-27.469	31.921	0	0	0	0	0	0	0	0	0	2
8769	87.69	0	0	0	0	0	0	0	0	0	0	0	0	0	0	0	0	0	0	0	0	0	0	0	0	10.989	-10.989	19.033	0	0	0	1	0	0	17.761	2.1499	16.789	0	0	0	0	0	0	0	0	0	0	0	0	0	0	0	0	0	0	0	0	0	0	0	0	0	0	0	2
8770	87.7	0	0	0	0	0	0	0	0	0	0	0	0	0	0	0	0	0	0	0	0	0	0	0	0	10.989	-10.989	19.033	0	0	0	1	0	0	17.761	2.1499	16.789	0	0	0	0	0	0	0	0	0	0	0	0	0	-1	0	-2.0278	-17.891	16.968	0	0	0	0	0	0	0	0	0	2
8771	87.71	0	0	0	0	0	0	0	0	0	0	0	0	0	0	0	0	0	0	0	0	0	0	0	0	10.989	-10.989	19.033	0	0	0	1	0	0	17.761	2.1499	16.789	0	0	0	1	0	0	17.883	2.027	16.961	0	0	0	0	0	0	10.994	-10.994	19.042	0	0	0	0	0	0	0	0	0	2
8772	87.72	0	0	0	0	0	0	0	0	0	0	0	0	0	0	0	0	0	0	0	0	0	0	0	0	10.989	-10.989	19.033	0	0	0	1	0	0	17.761	2.1499	16.789	0	0	0	0	0	0	0	0	0	0	0	0	0	-1	0	-2.0278	-17.891	16.968	0	0	0	0	0	0	0	0	0	2
8773	87.73	0	0	0	0	0	0	10.917	-10.917	18.908	0	0	0	0	0	0	0	0	0	0	0	0	1	0	0	17.755	2.1475	16.785	0	0	0	1	0	0	17.761	2.1499	16.789	0	0	0	1	0	0	17.883	2.027	16.961	0	0	0	0	0	0	10.994	-10.994	19.042	0	0	0	0	0	0	0	0	0	2
8774	87.74	0	0	0	0	0	0	0	0	0	0	0	0	0	0	0	0	0	0	0	0	0	0	0	0	10.989	-10.989	19.033	0	0	0	1	0	0	17.761	2.1499	16.789	0	0	0	0	0	0	0	0	0	0	0	0	0	0	0	10.994	-10.994	19.042	0	0	0	0	0	0	0	0	0	2
8775	87.75	0	0	0	0	0	0	0	0	0	0	0	0	0	0	0	0	0	0	0	0	0	0	0	0	10.989	-10.989	19.033	0	0	0	1	0	0	17.761	2.1499	16.789	0	0	0	0	0	0	0	0	0	0	0	0	0	0	0	0	0	0	0	0	0	0	0	0	0	0	0	2
8776	87.76	0	0	0	0	0	0	10.917	-10.917	18.908	0	0	0	0	0	0	0	0	0	0	0	0	1	0	0	17.755	2.1475	16.785	0	0	0	1	0	0	17.761	2.1499	16.789	0	0	0	0	0	0	0	0	0	0	0	0	0	-1	0	-2.0278	-17.891	16.968	0	0	0	1	0	0	17.47	2.0148	16.554	2
8777	87.77	0	0	0	0	0	0	10.917	-10.917	18.908	0	0	0	0	0	0	0	0	0	0	0	0	0	0	0	10.989	-10.989	19.033	0	0	0	1	0	0	17.761	2.1499	16.789	0	0	0	0	0	0	0	0	0	0	0	0	0	-1	0	-2.0278	-17.891	16.968	0	0	0	0	0	0	0	0	0	2
8778	87.78	0	0	0	0	0	0	0	0	0	0	0	0	0	0	0	0	0	0	0	0	0	0	0	0	10.989	-10.989	19.033	0	0	0	1	0	0	17.761	2.1499	16.789	0	0	0	0	0	0	0	0	0	0	0	0	0	0	0	10.994	-10.994	19.042	0	0	0	0	0	0	0	0	0	2
8779	87.79	0	0	0	0	0	0	10.917	-10.917	18.908	0	0	0	0	0	0	0	0	0	0	0	0	1	0	0	17.755	2.1475	16.785	0	0	0	1	0	0	17.761	2.1499	16.789	0	0	0	0	0	0	0	0	0	0	0	0	0	0	0	10.994	-10.994	19.042	0	0	0	0	0	0	0	0	0	2
8780	87.8	0	0	0	0	0	0	0	0	0	0	0	0	0	0	0	0	0	0	0	0	0	0	0	0	10.989	-10.989	19.033	0	0	0	1	0	0	17.761	2.1499	16.789	0	0	0	0	0	0	0	0	0	0	0	0	0	0	0	10.994	-10.994	19.042	0	0	0	0	0	0	0	0	0	2
8781	87.81	0	0	0	0	0	0	0	0	0	0	0	0	0	0	0	0	0	0	0	0	0	1	0	0	17.755	2.1475	16.785	0	0	0	1	0	0	17.761	2.1499	16.789	0	0	0	0	0	0	0	0	0	0	0	0	1	-1	0	7.5503	-27.469	31.921	0	0	0	1	0	0	17.47	2.0148	16.554	2
8782	87.82	0	0	0	0	0	0	0	0	0	0	0	0	0	0	0	0	0	0	0	0	0	1	0	0	17.755	2.1475	16.785	0	0	0	1	0	0	17.761	2.1499	16.789	0	0	0	0	0	0	0	0	0	0	0	0	0	0	0	0	0	0	0	0	0	0	0	0	0	0	0	2
8783	87.83	0	0	0	0	0	0	0	0	0	0	0	0	0	0	0	0	0	0	0	0	0	0	0	0	10.989	-10.989	19.033	0	0	0	1	0	0	17.761	2.1499	16.789	0	0	0	0	0	0	0	0	0	0	0	0	0	0	0	10.994	-10.994	19.042	0	0	0	1	0	0	17.47	2.0148	16.554	2
8784	87.84	0	0	0	0	0	0	0	0	0	0	0	0	0	0	0	0	0	0	0	0	0	1	0	0	17.755	2.1475	16.785	0	0	0	1	0	0	17.761	2.1499	16.789	0	0	0	0	0	0	0	0	0	0	0	0	1	-1	0	7.5503	-27.469	31.921	0	0	0	0	0	0	0	0	0	2
8785	87.85	0	0	0	0	0	0	0	0	0	0	0	0	0	0	0	0	0	0	0	0	0	0	0	0	10.989	-10.989	19.033	0	0	0	1	0	0	17.761	2.1499	16.789	0	0	0	0	0	0	0	0	0	0	0	0	1	-1	0	7.5503	-27.469	31.921	0	0	0	0	0	0	0	0	0	2
8786	87.86	0	0	0	0	0	0	0	0	0	0	0	0	0	0	0	0	0	0	0	0	0	1	0	0	17.755	2.1475	16.785	0	0	0	1	0	0	17.761	2.1499	16.789	0	0	0	0	0	0	0	0	0	0	0	0	1	-1	0	7.5503	-27.469	31.921	0	0	0	0	0	0	0	0	0	2
8787	87.87	0	0	0	0	0	0	10.917	-10.917	18.908	0	0	0	0	0	0	0	0	0	0	0	0	0	0	0	10.989	-10.989	19.033	0	0	0	1	0	0	17.761	2.1499	16.789	0	0	0	0	0	0	0	0	0	0	0	0	0	0	0	10.994	-10.994	19.042	0	0	0	0	0	0	0	0	0	2
8788	87.88	0	0	0	0	0	0	0	0	0	0	0	0	0	0	0	0	0	0	0	0	0	0	0	0	10.989	-10.989	19.033	0	0	0	1	0	0	17.761	2.1499	16.789	0	0	0	0	0	0	0	0	0	0	0	0	0	0	0	10.994	-10.994	19.042	0	0	0	0	0	0	0	0	0	2
8789	87.89	0	0	0	0	0	0	10.917	-10.917	18.908	0	0	0	0	0	0	0	0	0	0	0	0	1	0	0	17.755	2.1475	16.785	0	0	0	1	0	0	17.761	2.1499	16.789	0	0	0	0	0	0	0	0	0	0	0	0	0	-1	0	-2.0278	-17.891	16.968	0	0	0	1	0	0	17.47	2.0148	16.554	2
8790	87.9	0	0	0	0	0	0	0	0	0	0	0	0	0	0	0	0	0	0	0	0	0	0	0	0	10.989	-10.989	19.033	0	0	0	1	0	0	17.761	2.1499	16.789	0	0	0	0	0	0	0	0	0	0	0	0	0	0	0	10.994	-10.994	19.042	0	0	0	0	0	0	0	0	0	2
8791	87.91	0	0	0	0	0	0	0	0	0	0	0	0	0	0	0	0	0	0	0	0	0	1	0	0	17.755	2.1475	16.785	0	0	0	1	0	0	17.761	2.1499	16.789	0	0	0	0	0	0	0	0	0	0	0	0	0	0	0	10.994	-10.994	19.042	0	0	0	1	0	0	17.47	2.0148	16.554	3
8792	87.92	0	0	0	0	0	0	0	0	0	0	0	0	0	0	0	0	0	0	0	0	0	1	0	0	17.755	2.1475	16.785	0	0	0	1	0	0	17.761	2.1499	16.789	0	0	0	0	0	0	0	0	0	0	0	0	0	0	0	10.994	-10.994	19.042	0	0	0	0	0	0	0	0	0	2
8793	87.93	0	0	0	0	0	0	0	0	0	0	0	0	0	0	0	0	0	0	0	0	0	1	0	0	17.755	2.1475	16.785	0	0	0	1	0	0	17.761	2.1499	16.789	0	0	0	1	0	0	17.883	2.027	16.961	0	0	0	0	0	0	10.994	-10.994	19.042	0	0	0	0	0	0	0	0	0	2
8794	87.94	0	0	0	0	0	0	0	0	0	0	0	0	0	0	0	0	0	0	0	0	0	1	0	0	17.755	2.1475	16.785	0	0	0	1	0	0	17.761	2.1499	16.789	0	0	0	0	0	0	0	0	0	0	0	0	0	0	0	10.994	-10.994	19.042	0	0	0	0	0	0	0	0	0	2
8795	87.95	0	0	0	0	0	0	0	0	0	0	0	0	0	0	0	0	0	0	0	0	0	1	0	0	17.755	2.1475	16.785	0	0	0	1	0	0	17.761	2.1499	16.789	0	0	0	0	0	0	0	0	0	0	0	0	1	-1	0	7.5503	-27.469	31.921	0	0	0	0	0	0	0	0	0	2
8796	87.96	0	0	0	0	0	0	10.917	-10.917	18.908	0	0	0	0	0	0	0	0	0	0	0	0	1	0	0	17.755	2.1475	16.785	0	0	0	1	0	0	17.761	2.1499	16.789	0	0	0	0	0	0	0	0	0	0	0	0	0	0	0	10.994	-10.994	19.042	0	0	0	0	0	0	0	0	0	2
8797	87.97	0	0	0	0	0	0	10.917	-10.917	18.908	0	0	0	0	0	0	0	0	0	0	0	0	0	0	0	10.989	-10.989	19.033	0	0	0	1	0	0	17.761	2.1499	16.789	0	0	0	0	0	0	0	0	0	0	0	0	1	-1	0	7.5503	-27.469	31.921	0	0	0	0	0	0	0	0	0	2
8798	87.98	0	0	0	0	0	0	0	0	0	0	0	0	0	0	0	0	0	0	0	0	0	0	0	0	10.989	-10.989	19.033	0	0	0	1	0	0	17.761	2.1499	16.789	0	0	0	0	0	0	0	0	0	0	0	0	0	0	0	10.994	-10.994	19.042	0	0	0	0	0	0	0	0	0	2
8799	87.99	0	0	0	0	0	0	0	0	0	0	0	0	0	0	0	0	0	0	0	0	0	1	0	0	17.755	2.1475	16.785	0	0	0	1	0	0	17.761	2.1499	16.789	0	0	0	0	0	0	0	0	0	0	0	0	0	0	0	0	0	0	0	0	0	0	0	0	0	0	0	2
8800	88	0	0	0	0	0	0	0	0	0	0	0	0	0	0	0	0	0	0	0	0	0	0	0	0	10.989	-10.989	19.033	0	0	0	1	0	0	17.761	2.1499	16.789	0	0	0	0	0	0	0	0	0	0	0	0	1	-1	0	7.5503	-27.469	31.921	0	0	0	0	0	0	0	0	0	2
8801	88.01	0	0	0	0	0	0	0	0	0	0	0	0	0	0	0	0	0	0	0	0	0	1	0	0	17.755	2.1475	16.785	0	0	0	1	0	0	17.761	2.1499	16.789	0	0	0	0	0	0	0	0	0	0	0	0	0	-1	0	-2.0278	-17.891	16.968	0	0	0	1	0	0	17.47	2.0148	16.554	0
8802	88.02	0	0	0	0	0	0	0	0	0	0	0	0	0	0	0	0	0	0	0	0	0	0	0	0	10.989	-10.989	19.033	0	0	0	1	0	0	17.761	2.1499	16.789	0	0	0	0	0	0	0	0	0	0	0	0	0	0	0	10.994	-10.994	19.042	0	0	0	0	0	0	0	0	0	2
8803	88.03	0	0	0	0	0	0	0	0	0	0	0	0	0	0	0	0	0	0	0	0	0	1	0	0	17.755	2.1475	16.785	0	0	0	1	0	0	17.761	2.1499	16.789	0	0	0	0	0	0	0	0	0	0	0	0	1	-1	0	7.5503	-27.469	31.921	0	0	0	0	0	0	0	0	0	2
8804	88.04	0	0	0	0	0	0	0	0	0	0	0	0	0	0	0	0	0	0	0	0	0	0	0	0	10.989	-10.989	19.033	0	0	0	1	0	0	17.761	2.1499	16.789	0	0	0	0	0	0	0	0	0	0	0	0	0	0	0	10.994	-10.994	19.042	0	0	0	0	0	0	0	0	0	2
8805	88.05	0	0	0	0	0	0	0	0	0	0	0	0	0	0	0	0	0	0	0	0	0	1	0	0	17.755	2.1475	16.785	0	0	0	1	0	0	17.761	2.1499	16.789	0	0	0	0	0	0	0	0	0	0	0	0	0	-1	0	-2.0278	-17.891	16.968	0	0	0	0	0	0	0	0	0	2
8806	88.06	0	0	0	0	0	0	0	0	0	0	0	0	0	0	0	0	0	0	0	0	0	1	0	0	17.755	2.1475	16.785	0	0	0	1	0	0	17.761	2.1499	16.789	0	0	0	0	0	0	0	0	0	0	0	0	0	0	0	10.994	-10.994	19.042	0	0	0	1	0	0	17.47	2.0148	16.554	2
8807	88.07	0	0	0	0	0	0	0	0	0	0	0	0	0	0	0	0	0	0	0	0	0	1	0	0	17.755	2.1475	16.785	0	0	0	1	0	0	17.761	2.1499	16.789	0	0	0	0	0	0	0	0	0	0	0	0	0	0	0	0	0	0	0	0	0	0	0	0	0	0	0	2
8808	88.08	0	0	0	0	0	0	10.917	-10.917	18.908	0	0	0	0	0	0	0	0	0	0	0	0	1	0	0	17.755	2.1475	16.785	0	0	0	1	0	0	17.761	2.1499	16.789	0	0	0	0	0	0	0	0	0	0	0	0	1	-1	0	7.5503	-27.469	31.921	0	0	0	0	0	0	0	0	0	2
8809	88.09	0	0	0	0	0	0	0	0	0	0	0	0	0	0	0	0	0	0	0	0	0	0	0	0	10.989	-10.989	19.033	0	0	0	1	0	0	17.761	2.1499	16.789	0	0	0	0	0	0	0	0	0	0	0	0	1	-1	0	7.5503	-27.469	31.921	0	0	0	0	0	0	0	0	0	2
8810	88.1	0	0	0	0	0	0	0	0	0	0	0	0	0	0	0	0	0	0	0	0	0	1	0	0	17.755	2.1475	16.785	0	0	0	1	0	0	17.761	2.1499	16.789	0	0	0	0	0	0	0	0	0	0	0	0	0	0	0	10.994	-10.994	19.042	0	0	0	0	0	0	0	0	0	2
8811	88.11	0	0	0	0	0	0	0	0	0	0	0	0	0	0	0	0	0	0	0	0	0	1	0	0	17.755	2.1475	16.785	0	0	0	1	0	0	17.761	2.1499	16.789	0	0	0	0	0	0	0	0	0	0	0	0	0	0	0	10.994	-10.994	19.042	0	0	0	0	0	0	0	0	0	2
8812	88.12	0	0	0	0	0	0	0	0	0	0	0	0	0	0	0	0	0	0	0	0	0	1	0	0	17.755	2.1475	16.785	0	0	0	1	0	0	17.761	2.1499	16.789	0	0	0	0	0	0	0	0	0	0	0	0	0	-1	0	-2.0278	-17.891	16.968	0	0	0	0	0	0	0	0	0	2
8813	88.13	0	0	0	0	0	0	0	0	0	0	0	0	0	0	0	0	0	0	0	0	0	1	0	0	17.755	2.1475	16.785	0	0	0	1	0	0	17.761	2.1499	16.789	0	0	0	0	0	0	0	0	0	0	0	0	1	-1	0	7.5503	-27.469	31.921	0	0	0	0	0	0	0	0	0	2
8814	88.14	0	0	0	0	0	0	0	0	0	0	0	0	0	0	0	0	0	0	0	0	0	1	0	0	17.755	2.1475	16.785	0	0	0	1	0	0	17.761	2.1499	16.789	0	0	0	0	0	0	0	0	0	0	0	0	0	0	0	0	0	0	0	0	0	1	0	0	17.47	2.0148	16.554	2
8815	88.15	0	0	0	0	0	0	0	0	0	0	0	0	0	0	0	0	0	0	0	0	0	0	0	0	10.989	-10.989	19.033	0	0	0	1	0	0	17.761	2.1499	16.789	0	0	0	0	0	0	0	0	0	0	0	0	1	-1	0	7.5503	-27.469	31.921	0	0	0	0	0	0	0	0	0	2
8816	88.16	0	0	0	0	0	0	0	0	0	0	0	0	0	0	0	0	0	0	0	0	0	1	0	0	17.755	2.1475	16.785	0	0	0	1	0	0	17.761	2.1499	16.789	0	0	0	0	0	0	0	0	0	0	0	0	1	-1	0	7.5503	-27.469	31.921	0	0	0	1	0	0	17.47	2.0148	16.554	2
8817	88.17	0	0	0	0	0	0	0	0	0	0	0	0	0	0	0	0	0	0	0	0	0	0	0	0	10.989	-10.989	19.033	0	0	0	1	0	0	17.761	2.1499	16.789	0	0	0	0	0	0	0	0	0	0	0	0	0	-1	0	-2.0278	-17.891	16.968	0	0	0	0	0	0	0	0	0	2
8818	88.18	0	0	0	0	0	0	10.917	-10.917	18.908	0	0	0	0	0	0	0	0	0	0	0	0	1	0	0	17.755	2.1475	16.785	0	0	0	1	0	0	17.761	2.1499	16.789	0	0	0	0	0	0	0	0	0	0	0	0	0	-1	0	-2.0278	-17.891	16.968	0	0	0	0	0	0	0	0	0	2
8819	88.19	0	0	0	0	0	0	10.917	-10.917	18.908	0	0	0	0	0	0	0	0	0	0	0	0	0	0	0	10.989	-10.989	19.033	0	0	0	1	0	0	17.761	2.1499	16.789	0	0	0	0	0	0	0	0	0	0	0	0	0	0	0	10.994	-10.994	19.042	0	0	0	0	0	0	0	0	0	2
8820	88.2	0	0	0	0	0	0	0	0	0	0	0	0	0	0	0	0	0	0	0	0	0	0	0	0	10.989	-10.989	19.033	0	0	0	1	0	0	17.883	2.027	16.961	0	0	0	0	0	0	0	0	0	0	0	0	0	-1	0	-2.0278	-17.891	16.968	0	0	0	0	0	0	0	0	0	2
8821	88.21	0	0	0	0	0	0	10.917	-10.917	18.908	0	0	0	0	0	0	0	0	0	0	0	0	1	0	0	17.755	2.1475	16.785	0	0	0	1	0	0	17.761	2.1499	16.789	0	0	0	0	0	0	0	0	0	0	0	0	0	0	0	10.994	-10.994	19.042	0	0	0	0	0	0	0	0	0	2
8822	88.22	0	0	0	0	0	0	0	0	0	0	0	0	0	0	0	0	0	0	0	0	0	0	0	0	10.989	-10.989	19.033	0	0	0	1	0	0	17.761	2.1499	16.789	0	0	0	0	0	0	0	0	0	0	0	0	0	0	0	0	0	0	0	0	0	0	0	0	0	0	0	2
8823	88.23	0	0	0	0	0	0	0	0	0	0	0	0	0	0	0	0	0	0	0	0	0	1	0	0	17.755	2.1475	16.785	0	0	0	1	0	0	17.761	2.1499	16.789	0	0	0	0	0	0	0	0	0	0	0	0	0	-1	0	-2.0278	-17.891	16.968	0	0	0	1	0	0	17.47	2.0148	16.554	2
8824	88.24	0	0	0	0	0	0	0	0	0	0	0	0	0	0	0	0	0	0	0	0	0	1	0	0	17.755	2.1475	16.785	0	0	0	1	0	0	17.761	2.1499	16.789	0	0	0	0	0	0	0	0	0	0	0	0	0	0	0	0	0	0	0	0	0	0	0	0	0	0	0	2
8825	88.25	0	0	0	0	0	0	10.917	-10.917	18.908	0	0	0	0	0	0	0	0	0	0	0	0	0	0	0	10.989	-10.989	19.033	0	0	0	1	0	0	17.761	2.1499	16.789	0	0	0	0	0	0	0	0	0	0	0	0	0	0	0	10.994	-10.994	19.042	0	0	0	0	0	0	0	0	0	2
8826	88.26	0	0	0	0	0	0	0	0	0	0	0	0	0	0	0	0	0	0	0	0	0	1	0	0	17.755	2.1475	16.785	0	0	0	1	0	0	17.761	2.1499	16.789	0	0	0	0	0	0	0	0	0	0	0	0	0	0	0	0	0	0	0	0	0	0	0	0	0	0	0	2
8827	88.27	0	0	0	0	0	0	0	0	0	0	0	0	0	0	0	0	0	0	0	0	0	0	0	0	10.989	-10.989	19.033	0	0	0	1	0	0	17.883	2.027	16.961	0	0	0	0	0	0	0	0	0	0	0	0	0	0	0	0	0	0	0	0	0	0	0	0	0	0	0	2
8828	88.28	0	0	0	0	0	0	10.917	-10.917	18.908	0	0	0	0	0	0	0	0	0	0	0	0	0	0	0	10.989	-10.989	19.033	0	0	0	1	0	0	17.761	2.1499	16.789	0	0	0	0	0	0	0	0	0	0	0	0	1	-1	0	7.5503	-27.469	31.921	0	0	0	0	0	0	0	0	0	2
8829	88.29	0	0	0	0	0	0	0	0	0	0	0	0	0	0	0	0	0	0	0	0	0	0	0	0	10.989	-10.989	19.033	0	0	0	1	0	0	17.761	2.1499	16.789	0	0	0	1	0	0	17.883	2.027	16.961	0	0	0	0	0	0	10.994	-10.994	19.042	0	0	0	0	0	0	0	0	0	2
8830	88.3	0	0	0	0	0	0	0	0	0	0	0	0	0	0	0	0	0	0	0	0	0	1	0	0	17.755	2.1475	16.785	0	0	0	1	0	0	17.761	2.1499	16.789	0	0	0	0	0	0	0	0	0	0	0	0	0	-1	0	-2.0278	-17.891	16.968	0	0	0	0	0	0	0	0	0	2
8831	88.31	0	0	0	0	0	0	10.917	-10.917	18.908	0	0	0	0	0	0	0	0	0	0	0	0	1	0	0	17.755	2.1475	16.785	0	0	0	1	0	0	17.761	2.1499	16.789	0	0	0	0	0	0	0	0	0	0	0	0	0	-1	0	-2.0278	-17.891	16.968	0	0	0	1	0	0	17.47	2.0148	16.554	2
8832	88.32	0	0	0	0	0	0	0	0	0	0	0	0	0	0	0	0	0	0	0	0	0	0	0	0	10.989	-10.989	19.033	0	0	0	1	0	0	17.761	2.1499	16.789	0	0	0	0	0	0	0	0	0	0	0	0	0	0	0	0	0	0	0	0	0	0	0	0	0	0	0	2
8833	88.33	0	0	0	0	0	0	10.917	-10.917	18.908	0	0	0	0	0	0	0	0	0	0	0	0	1	0	0	17.755	2.1475	16.785	0	0	0	1	0	0	17.761	2.1499	16.789	0	0	0	0	0	0	0	0	0	0	0	0	0	0	0	10.994	-10.994	19.042	0	0	0	0	0	0	0	0	0	2
8834	88.34	0	0	0	0	0	0	0	0	0	0	0	0	0	0	0	0	0	0	0	0	0	1	0	0	17.755	2.1475	16.785	0	0	0	1	0	0	17.761	2.1499	16.789	0	0	0	0	0	0	0	0	0	0	0	0	0	0	0	10.994	-10.994	19.042	0	0	0	0	0	0	0	0	0	2
8835	88.35	0	0	0	0	0	0	0	0	0	0	0	0	0	0	0	0	0	0	0	0	0	0	0	0	10.989	-10.989	19.033	0	0	0	1	0	0	17.761	2.1499	16.789	0	0	0	0	0	0	0	0	0	0	0	0	0	0	0	0	0	0	0	0	0	0	0	0	0	0	0	2
8836	88.36	0	0	0	0	0	0	0	0	0	0	0	0	0	0	0	0	0	0	0	0	0	1	0	0	17.755	2.1475	16.785	0	0	0	1	0	0	17.761	2.1499	16.789	0	0	0	1	0	0	17.883	2.027	16.961	0	0	0	0	0	0	10.994	-10.994	19.042	0	0	0	1	0	0	17.47	2.0148	16.554	2
8837	88.37	0	0	0	0	0	0	0	0	0	0	0	0	0	0	0	0	0	0	0	0	0	0	0	0	10.989	-10.989	19.033	0	0	0	1	0	0	17.761	2.1499	16.789	0	0	0	0	0	0	0	0	0	0	0	0	0	0	0	0	0	0	0	0	0	0	0	0	0	0	0	2
8838	88.38	0	0	0	0	0	0	0	0	0	0	0	0	0	0	0	0	0	0	0	0	0	0	0	0	10.989	-10.989	19.033	0	0	0	1	0	0	17.761	2.1499	16.789	0	0	0	1	0	0	17.883	2.027	16.961	0	0	0	1	-1	0	7.5503	-27.469	31.921	0	0	0	1	0	0	17.47	2.0148	16.554	2
8839	88.39	0	0	0	0	0	0	0	0	0	0	0	0	0	0	0	0	0	0	0	0	0	0	0	0	10.989	-10.989	19.033	0	0	0	1	0	0	17.761	2.1499	16.789	0	0	0	0	0	0	0	0	0	0	0	0	0	0	0	0	0	0	0	0	0	0	0	0	0	0	0	2
8840	88.4	0	0	0	0	0	0	0	0	0	0	0	0	0	0	0	0	0	0	0	0	0	0	0	0	10.989	-10.989	19.033	0	0	0	1	0	0	17.761	2.1499	16.789	0	0	0	0	0	0	0	0	0	0	0	0	0	0	0	10.994	-10.994	19.042	0	0	0	0	0	0	0	0	0	2
8841	88.41	0	0	0	0	0	0	0	0	0	0	0	0	0	0	0	0	0	0	0	0	0	0	0	0	10.989	-10.989	19.033	0	0	0	1	0	0	17.761	2.1499	16.789	0	0	0	1	0	0	17.883	2.027	16.961	0	0	0	0	-1	0	-2.0278	-17.891	16.968	0	0	0	1	0	0	17.47	2.0148	16.554	2
8842	88.42	0	0	0	0	0	0	0	0	0	0	0	0	0	0	0	0	0	0	0	0	0	0	0	0	10.989	-10.989	19.033	0	0	0	1	0	0	17.761	2.1499	16.789	0	0	0	0	0	0	0	0	0	0	0	0	0	0	0	0	0	0	0	0	0	1	0	0	17.47	2.0148	16.554	2
8843	88.43	0	0	0	0	0	0	0	0	0	0	0	0	0	0	0	0	0	0	0	0	0	1	0	0	17.755	2.1475	16.785	0	0	0	1	0	0	17.761	2.1499	16.789	0	0	0	0	0	0	0	0	0	0	0	0	0	0	0	10.994	-10.994	19.042	0	0	0	0	0	0	0	0	0	2
8844	88.44	0	0	0	0	0	0	10.917	-10.917	18.908	0	0	0	0	0	0	0	0	0	0	0	0	0	0	0	10.989	-10.989	19.033	0	0	0	1	0	0	17.761	2.1499	16.789	0	0	0	0	0	0	0	0	0	0	0	0	0	0	0	10.994	-10.994	19.042	0	0	0	0	0	0	0	0	0	2
8845	88.45	0	0	0	0	0	0	0	0	0	0	0	0	0	0	0	0	0	0	0	0	0	0	0	0	10.989	-10.989	19.033	0	0	0	1	0	0	17.761	2.1499	16.789	0	0	0	0	0	0	0	0	0	0	0	0	1	-1	0	7.5503	-27.469	31.921	0	0	0	0	0	0	0	0	0	2
8846	88.46	0	0	0	0	0	0	10.917	-10.917	18.908	0	0	0	0	0	0	0	0	0	0	0	0	1	0	0	17.755	2.1475	16.785	0	0	0	1	0	0	17.761	2.1499	16.789	0	0	0	0	0	0	0	0	0	0	0	0	0	-1	0	-2.0278	-17.891	16.968	0	0	0	0	0	0	0	0	0	2
8847	88.47	0	0	0	0	0	0	0	0	0	0	0	0	0	0	0	0	0	0	0	0	0	1	0	0	17.755	2.1475	16.785	0	0	0	1	0	0	17.761	2.1499	16.789	0	0	0	0	0	0	0	0	0	0	0	0	1	-1	0	7.5503	-27.469	31.921	0	0	0	0	0	0	0	0	0	2
8848	88.48	0	0	0	0	0	0	10.917	-10.917	18.908	0	0	0	0	0	0	0	0	0	0	0	0	1	0	0	17.755	2.1475	16.785	0	0	0	1	0	0	17.761	2.1499	16.789	0	0	0	0	0	0	0	0	0	0	0	0	0	0	0	0	0	0	0	0	0	0	0	0	0	0	0	2
8849	88.49	0	0	0	0	0	0	0	0	0	0	0	0	0	0	0	0	0	0	0	0	0	1	0	0	17.755	2.1475	16.785	0	0	0	1	0	0	17.761	2.1499	16.789	0	0	0	1	0	0	17.883	2.027	16.961	0	0	0	0	0	0	10.994	-10.994	19.042	0	0	0	0	0	0	0	0	0	2
8850	88.5	0	0	0	0	0	0	0	0	0	0	0	0	0	0	0	0	0	0	0	0	0	0	0	0	10.989	-10.989	19.033	0	0	0	1	0	0	17.761	2.1499	16.789	0	0	0	0	0	0	0	0	0	0	0	0	0	0	0	10.994	-10.994	19.042	0	0	0	0	0	0	0	0	0	2
8851	88.51	0	0	0	0	0	0	0	0	0	0	0	0	0	0	0	0	0	0	0	0	0	1	0	0	17.755	2.1475	16.785	0	0	0	1	0	0	17.761	2.1499	16.789	0	0	0	1	0	0	17.883	2.027	16.961	0	0	0	0	0	0	10.994	-10.994	19.042	0	0	0	1	0	0	17.47	2.0148	16.554	2
8852	88.52	0	0	0	0	0	0	10.917	-10.917	18.908	0	0	0	0	0	0	0	0	0	0	0	0	0	0	0	10.989	-10.989	19.033	0	0	0	1	0	0	17.761	2.1499	16.789	0	0	0	0	0	0	0	0	0	0	0	0	0	-1	0	-2.0278	-17.891	16.968	0	0	0	0	0	0	0	0	0	2
8853	88.53	0	0	0	0	0	0	0	0	0	0	0	0	0	0	0	0	0	0	0	0	0	1	0	0	17.755	2.1475	16.785	0	0	0	1	0	0	17.761	2.1499	16.789	0	0	0	0	0	0	0	0	0	0	0	0	0	0	0	10.994	-10.994	19.042	0	0	0	0	0	0	0	0	0	2
8854	88.54	0	0	0	0	0	0	0	0	0	0	0	0	0	0	0	0	0	0	0	0	0	0	0	0	10.989	-10.989	19.033	0	0	0	1	0	0	17.761	2.1499	16.789	0	0	0	1	0	0	17.883	2.027	16.961	0	0	0	0	0	0	0	0	0	0	0	0	0	0	0	0	0	0	2
8855	88.55	0	0	0	0	0	0	0	0	0	0	0	0	0	0	0	0	0	0	0	0	0	0	0	0	10.989	-10.989	19.033	0	0	0	1	0	0	17.761	2.1499	16.789	0	0	0	0	0	0	0	0	0	0	0	0	0	0	0	0	0	0	0	0	0	0	0	0	0	0	0	2
8856	88.56	0	0	0	0	0	0	0	0	0	0	0	0	0	0	0	0	0	0	0	0	0	1	0	0	17.755	2.1475	16.785	0	0	0	1	0	0	17.761	2.1499	16.789	0	0	0	1	0	0	17.883	2.027	16.961	0	0	0	0	0	0	10.994	-10.994	19.042	0	0	0	1	0	0	17.47	2.0148	16.554	2
8857	88.57	0	0	0	0	0	0	0	0	0	0	0	0	0	0	0	0	0	0	0	0	0	0	0	0	10.989	-10.989	19.033	0	0	0	1	0	0	17.883	2.027	16.961	0	0	0	0	0	0	0	0	0	0	0	0	1	-1	0	7.5503	-27.469	31.921	0	0	0	0	0	0	0	0	0	2
8858	88.58	0	0	0	0	0	0	10.917	-10.917	18.908	0	0	0	0	0	0	0	0	0	0	0	0	0	0	0	10.989	-10.989	19.033	0	0	0	1	0	0	17.761	2.1499	16.789	0	0	0	0	0	0	0	0	0	0	0	0	1	-1	0	7.5503	-27.469	31.921	0	0	0	0	0	0	0	0	0	2
8859	88.59	0	0	0	0	0	0	0	0	0	0	0	0	0	0	0	0	0	0	0	0	0	0	0	0	10.989	-10.989	19.033	0	0	0	1	0	0	17.761	2.1499	16.789	0	0	0	0	0	0	0	0	0	0	0	0	0	0	0	0	0	0	0	0	0	0	0	0	0	0	0	2
8860	88.6	0	0	0	0	0	0	0	0	0	0	0	0	0	0	0	0	0	0	0	0	0	1	0	0	17.755	2.1475	16.785	0	0	0	1	0	0	17.761	2.1499	16.789	0	0	0	0	0	0	0	0	0	0	0	0	1	-1	0	7.5503	-27.469	31.921	0	0	0	0	0	0	0	0	0	2
8861	88.61	0	0	0	0	0	0	0	0	0	0	0	0	0	0	0	0	0	0	0	0	0	1	0	0	17.755	2.1475	16.785	0	0	0	1	0	0	17.761	2.1499	16.789	0	0	0	0	0	0	0	0	0	0	0	0	0	0	0	0	0	0	0	0	0	1	0	0	17.47	2.0148	16.554	2
8862	88.62	0	0	0	0	0	0	0	0	0	0	0	0	0	0	0	0	0	0	0	0	0	0	0	0	10.989	-10.989	19.033	0	0	0	1	0	0	17.761	2.1499	16.789	0	0	0	0	0	0	0	0	0	0	0	0	0	0	0	10.994	-10.994	19.042	0	0	0	0	0	0	0	0	0	2
8863	88.63	0	0	0	0	0	0	10.917	-10.917	18.908	0	0	0	0	0	0	0	0	0	0	0	0	1	0	0	17.755	2.1475	16.785	0	0	0	1	0	0	17.761	2.1499	16.789	0	0	0	1	0	0	17.883	2.027	16.961	0	0	0	0	0	0	11.266	-11.261	19.508	0	0	0	0	0	0	0	0	0	2
8864	88.64	0	0	0	0	0	0	0	0	0	0	0	0	0	0	0	0	0	0	0	0	0	0	0	0	10.989	-10.989	19.033	0	0	0	1	0	0	17.761	2.1499	16.789	0	0	0	0	0	0	0	0	0	0	0	0	0	-1	0	-2.0278	-17.891	16.968	0	0	0	0	0	0	0	0	0	2
8865	88.65	0	0	0	0	0	0	0	0	0	0	0	0	0	0	0	0	0	0	0	0	0	0	0	0	10.989	-10.989	19.033	0	0	0	1	0	0	17.761	2.1499	16.789	0	0	0	0	0	0	0	0	0	0	0	0	0	0	0	0	0	0	0	0	0	0	0	0	0	0	0	2
8866	88.66	0	0	0	0	0	0	10.917	-10.917	18.908	0	0	0	0	0	0	0	0	0	0	0	0	1	0	0	17.755	2.1475	16.785	0	0	0	1	0	0	17.761	2.1499	16.789	0	0	0	1	0	0	17.883	2.027	16.961	0	0	0	0	0	0	10.994	-10.994	19.042	0	0	0	0	0	0	0	0	0	2
8867	88.67	0	0	0	0	0	0	0	0	0	0	0	0	0	0	0	0	0	0	0	0	0	0	0	0	10.989	-10.989	19.033	0	0	0	1	0	0	17.883	2.027	16.961	0	0	0	0	0	0	0	0	0	0	0	0	0	-1	0	-2.0278	-17.891	16.968	0	0	0	0	0	0	0	0	0	2
8868	88.68	0	0	0	0	0	0	10.917	-10.917	18.908	0	0	0	0	0	0	0	0	0	0	0	0	1	0	0	17.755	2.1475	16.785	0	0	0	1	0	0	17.761	2.1499	16.789	0	0	0	0	0	0	0	0	0	0	0	0	0	0	0	10.994	-10.994	19.042	0	0	0	0	0	0	0	0	0	2
8869	88.69	0	0	0	0	0	0	0	0	0	0	0	0	0	0	0	0	0	0	0	0	0	1	0	0	17.755	2.1475	16.785	0	0	0	1	0	0	17.761	2.1499	16.789	0	0	0	0	0	0	0	0	0	0	0	0	0	0	0	0	0	0	0	0	0	0	0	0	0	0	0	2
8870	88.7	0	0	0	0	0	0	10.917	-10.917	18.908	0	0	0	0	0	0	0	0	0	0	0	0	0	0	0	10.989	-10.989	19.033	0	0	0	1	0	0	17.761	2.1499	16.789	0	0	0	0	0	0	0	0	0	0	0	0	1	-1	0	7.5503	-27.469	31.921	0	0	0	0	0	0	0	0	0	2
8871	88.71	0	0	0	0	0	0	0	0	0	0	0	0	0	0	0	0	0	0	0	0	0	1	0	0	17.755	2.1475	16.785	0	0	0	1	0	0	17.761	2.1499	16.789	0	0	0	0	0	0	0	0	0	0	0	0	1	0	0	17.769	2.1543	16.796	0	0	0	0	0	0	0	0	0	2
8872	88.72	0	0	0	0	0	0	0	0	0	0	0	0	0	0	0	0	0	0	0	0	0	0	0	0	10.989	-10.989	19.033	0	0	0	1	0	0	17.761	2.1499	16.789	0	0	0	0	0	0	0	0	0	0	0	0	1	-1	0	7.5503	-27.469	31.921	0	0	0	0	0	0	0	0	0	2
8873	88.73	0	0	0	0	0	0	10.917	-10.917	18.908	0	0	0	0	0	0	0	0	0	0	0	0	1	0	0	17.755	2.1475	16.785	0	0	0	1	0	0	17.761	2.1499	16.789	0	0	0	0	0	0	0	0	0	0	0	0	0	0	0	0	0	0	0	0	0	1	0	0	17.47	2.0148	16.554	2
8874	88.74	0	0	0	0	0	0	10.917	-10.917	18.908	0	0	0	0	0	0	0	0	0	0	0	0	0	0	0	10.989	-10.989	19.033	0	0	0	1	0	0	17.883	2.027	16.961	0	0	0	0	0	0	0	0	0	0	0	0	0	0	0	10.994	-10.994	19.042	0	0	0	0	0	0	0	0	0	2
8875	88.75	0	0	0	0	0	0	10.917	-10.917	18.908	0	0	0	0	0	0	0	0	0	0	0	0	0	0	0	10.989	-10.989	19.033	0	0	0	1	0	0	17.761	2.1499	16.789	0	0	0	0	0	0	0	0	0	0	0	0	0	0	0	0	0	0	0	0	0	0	0	0	0	0	0	2
8876	88.76	0	0	0	0	0	0	0	0	0	0	0	0	0	0	0	0	0	0	0	0	0	1	0	0	17.755	2.1475	16.785	0	0	0	1	0	0	17.761	2.1499	16.789	0	0	0	0	0	0	0	0	0	0	0	0	1	-1	0	7.5503	-27.469	31.921	0	0	0	0	0	0	0	0	0	2
8877	88.77	0	0	0	0	0	0	10.917	-10.917	18.908	0	0	0	0	0	0	0	0	0	0	0	0	1	0	0	17.755	2.1475	16.785	0	0	0	1	0	0	17.761	2.1499	16.789	0	0	0	0	0	0	0	0	0	0	0	0	0	0	0	0	0	0	0	0	0	0	0	0	0	0	0	2
8878	88.78	0	0	0	0	0	0	0	0	0	0	0	0	0	0	0	0	0	0	0	0	0	1	0	0	17.755	2.1475	16.785	0	0	0	1	0	0	17.761	2.1499	16.789	0	0	0	1	0	0	17.883	2.027	16.961	0	0	0	0	0	0	0	0	0	0	0	0	0	0	0	0	0	0	2
8879	88.79	0	0	0	0	0	0	0	0	0	0	0	0	0	0	0	0	0	0	0	0	0	1	0	0	17.755	2.1475	16.785	0	0	0	1	0	0	17.761	2.1499	16.789	0	0	0	0	0	0	0	0	0	0	0	0	1	-1	0	7.5503	-27.469	31.921	0	0	0	0	0	0	0	0	0	2
8880	88.8	0	0	0	0	0	0	0	0	0	0	0	0	0	0	0	0	0	0	0	0	0	0	0	0	10.989	-10.989	19.033	0	0	0	1	0	0	17.761	2.1499	16.789	0	0	0	0	0	0	0	0	0	0	0	0	0	0	0	0	0	0	0	0	0	0	0	0	0	0	0	2
8881	88.81	0	0	0	0	0	0	10.917	-10.917	18.908	0	0	0	0	0	0	0	0	0	0	0	0	1	0	0	17.755	2.1475	16.785	0	0	0	1	0	0	17.761	2.1499	16.789	0	0	0	1	0	0	17.883	2.027	16.961	0	0	0	0	-1	0	-2.0278	-17.891	16.968	0	0	0	0	0	0	0	0	0	2
8882	88.82	0	0	0	0	0	0	0	0	0	0	0	0	0	0	0	0	0	0	0	0	0	0	0	0	10.989	-10.989	19.033	0	0	0	1	0	0	17.883	2.027	16.961	0	0	0	0	0	0	0	0	0	0	0	0	0	0	0	0	0	0	0	0	0	0	0	0	0	0	0	2
8883	88.83	0	0	0	0	0	0	0	0	0	0	0	0	0	0	0	0	0	0	0	0	0	1	0	0	17.755	2.1475	16.785	0	0	0	1	0	0	17.761	2.1499	16.789	0	0	0	1	0	0	17.883	2.027	16.961	0	0	0	1	-1	0	7.5503	-27.469	31.921	0	0	0	0	0	0	0	0	0	2
8884	88.84	0	0	0	0	0	0	0	0	0	0	0	0	0	0	0	0	0	0	0	0	0	0	0	0	10.989	-10.989	19.033	0	0	0	1	0	0	17.761	2.1499	16.789	0	0	0	1	0	0	17.883	2.027	16.961	0	0	0	0	-1	0	-2.0278	-17.891	16.968	0	0	0	0	0	0	0	0	0	2
8885	88.85	0	0	0	0	0	0	0	0	0	0	0	0	0	0	0	0	0	0	0	0	0	1	0	0	17.755	2.1475	16.785	0	0	0	1	0	0	17.761	2.1499	16.789	0	0	0	0	0	0	0	0	0	0	0	0	0	-1	0	-2.0278	-17.891	16.968	0	0	0	0	0	0	0	0	0	2
8886	88.86	0	0	0	0	0	0	10.917	-10.917	18.908	0	0	0	0	0	0	0	0	0	0	0	0	1	0	0	17.755	2.1475	16.785	0	0	0	1	0	0	17.761	2.1499	16.789	0	0	0	0	0	0	0	0	0	0	0	0	0	0	0	10.994	-10.994	19.042	0	0	0	1	0	0	17.47	2.0148	16.554	2
8887	88.87	0	0	0	0	0	0	10.917	-10.917	18.908	0	0	0	0	0	0	0	0	0	0	0	0	0	0	0	10.989	-10.989	19.033	0	0	0	1	0	0	17.761	2.1499	16.789	0	0	0	0	0	0	0	0	0	0	0	0	1	-1	0	7.5503	-27.469	31.921	0	0	0	0	0	0	0	0	0	2
8888	88.88	0	0	0	0	0	0	10.917	-10.917	18.908	0	0	0	0	0	0	0	0	0	0	0	0	1	0	0	17.755	2.1475	16.785	0	0	0	1	0	0	17.761	2.1499	16.789	0	0	0	0	0	0	0	0	0	0	0	0	1	0	0	17.895	2.0284	16.972	0	0	0	0	0	0	0	0	0	2
8889	88.89	0	0	0	0	0	0	0	0	0	0	0	0	0	0	0	0	0	0	0	0	0	1	0	0	17.755	2.1475	16.785	0	0	0	1	0	0	17.761	2.1499	16.789	0	0	0	0	0	0	0	0	0	0	0	0	0	-1	0	-2.0278	-17.891	16.968	0	0	0	0	0	0	0	0	0	2
8890	88.9	0	0	0	0	0	0	0	0	0	0	0	0	0	0	0	0	0	0	0	0	0	0	0	0	10.989	-10.989	19.033	0	0	0	1	0	0	17.761	2.1499	16.789	0	0	0	0	0	0	0	0	0	0	0	0	0	0	0	10.994	-10.994	19.042	0	0	0	0	0	0	0	0	0	2
8891	88.91	0	0	0	0	0	0	0	0	0	0	0	0	0	0	0	0	0	0	0	0	0	1	0	0	17.755	2.1475	16.785	0	0	0	1	0	0	17.761	2.1499	16.789	0	0	0	0	0	0	0	0	0	0	0	0	0	0	0	10.994	-10.994	19.042	0	0	0	0	0	0	0	0	0	2
8892	88.92	0	0	0	0	0	0	0	0	0	0	0	0	0	0	0	0	0	0	0	0	0	0	0	0	10.989	-10.989	19.033	0	0	0	1	0	0	17.761	2.1499	16.789	0	0	0	0	0	0	0	0	0	0	0	0	0	0	0	0	0	0	0	0	0	0	0	0	0	0	0	2
8893	88.93	0	0	0	0	0	0	10.917	-10.917	18.908	0	0	0	0	0	0	0	0	0	0	0	0	1	0	0	17.755	2.1475	16.785	0	0	0	1	0	0	17.761	2.1499	16.789	0	0	0	0	0	0	0	0	0	0	0	0	0	0	0	10.994	-10.994	19.042	0	0	0	0	0	0	0	0	0	2
8894	88.94	0	0	0	0	0	0	0	0	0	0	0	0	0	0	0	0	0	0	0	0	0	0	0	0	10.989	-10.989	19.033	0	0	0	1	0	0	17.761	2.1499	16.789	0	0	0	0	0	0	0	0	0	0	0	0	1	-1	0	7.5503	-27.469	31.921	0	0	0	0	0	0	0	0	0	2
8895	88.95	0	0	0	0	0	0	0	0	0	0	0	0	0	0	0	0	0	0	0	0	0	0	0	0	10.989	-10.989	19.033	0	0	0	1	0	0	17.761	2.1499	16.789	0	0	0	0	0	0	0	0	0	0	0	0	0	0	0	0	0	0	0	0	0	0	0	0	0	0	0	2
8896	88.96	0	0	0	0	0	0	0	0	0	0	0	0	0	0	0	0	0	0	0	0	0	1	0	0	17.755	2.1475	16.785	0	0	0	1	0	0	17.761	2.1499	16.789	0	0	0	0	0	0	0	0	0	0	0	0	0	-1	0	-2.0278	-17.891	16.968	0	0	0	0	0	0	0	0	0	2
8897	88.97	0	0	0	0	0	0	0	0	0	0	0	0	0	0	0	0	0	0	0	0	0	1	0	0	17.755	2.1475	16.785	0	0	0	1	0	0	17.761	2.1499	16.789	0	0	0	0	0	0	0	0	0	0	0	0	0	0	0	0	0	0	0	0	0	0	0	0	0	0	0	2
8898	88.98	0	0	0	0	0	0	0	0	0	0	0	0	0	0	0	0	0	0	0	0	0	1	0	0	17.755	2.1475	16.785	0	0	0	1	0	0	17.761	2.1499	16.789	0	0	0	0	0	0	0	0	0	0	0	0	1	-1	0	7.5503	-27.469	31.921	0	0	0	0	0	0	0	0	0	2
8899	88.99	0	0	0	0	0	0	0	0	0	0	0	0	0	0	0	0	0	0	0	0	0	1	0	0	17.755	2.1475	16.785	0	0	0	1	0	0	17.761	2.1499	16.789	0	0	0	0	0	0	0	0	0	0	0	0	0	-1	0	-2.0278	-17.891	16.968	0	0	0	0	0	0	0	0	0	2
8900	89	0	0	0	0	0	0	0	0	0	0	0	0	0	0	0	0	0	0	0	0	0	0	0	0	10.989	-10.989	19.033	0	0	0	1	0	0	17.761	2.1499	16.789	0	0	0	0	0	0	0	0	0	0	0	0	1	-1	0	7.5503	-27.469	31.921	0	0	0	0	0	0	0	0	0	2
8901	89.01	0	0	0	0	0	0	0	0	0	0	0	0	0	0	0	0	0	0	0	0	0	1	0	0	17.755	2.1475	16.785	0	0	0	1	0	0	17.761	2.1499	16.789	0	0	0	0	0	0	0	0	0	0	0	0	0	0	0	10.994	-10.994	19.042	0	0	0	0	0	0	0	0	0	2
8902	89.02	0	0	0	0	0	0	0	0	0	0	0	0	0	0	0	0	0	0	0	0	0	0	0	0	10.989	-10.989	19.033	0	0	0	1	0	0	17.761	2.1499	16.789	0	0	0	0	0	0	0	0	0	0	0	0	0	0	0	0	0	0	0	0	0	0	0	0	0	0	0	2
8903	89.03	0	0	0	0	0	0	0	0	0	0	0	0	0	0	0	0	0	0	0	0	0	1	0	0	17.755	2.1475	16.785	0	0	0	1	0	0	17.761	2.1499	16.789	0	0	0	0	0	0	0	0	0	0	0	0	0	-1	0	-2.0278	-17.891	16.968	0	0	0	0	0	0	0	0	0	2
8904	89.04	0	0	0	0	0	0	0	0	0	0	0	0	0	0	0	0	0	0	0	0	0	0	0	0	10.989	-10.989	19.033	0	0	0	1	0	0	17.761	2.1499	16.789	0	0	0	0	0	0	0	0	0	0	0	0	0	-1	0	-2.0278	-17.891	16.968	0	0	0	0	0	0	0	0	0	2
8905	89.05	0	0	0	0	0	0	0	0	0	0	0	0	0	0	0	0	0	0	0	0	0	0	0	0	10.989	-10.989	19.033	0	0	0	1	0	0	17.761	2.1499	16.789	0	0	0	0	0	0	0	0	0	0	0	0	0	-1	0	-2.0278	-17.891	16.968	0	0	0	0	0	0	0	0	0	2
8906	89.06	0	0	0	0	0	0	10.917	-10.917	18.908	0	0	0	0	0	0	0	0	0	0	0	0	1	0	0	17.755	2.1475	16.785	0	0	0	1	0	0	17.761	2.1499	16.789	0	0	0	0	0	0	0	0	0	0	0	0	0	-1	0	-2.0278	-17.891	16.968	0	0	0	0	0	0	0	0	0	2
8907	89.07	0	0	0	0	0	0	0	0	0	0	0	0	0	0	0	0	0	0	0	0	0	1	0	0	17.755	2.1475	16.785	0	0	0	1	0	0	17.761	2.1499	16.789	0	0	0	0	0	0	0	0	0	0	0	0	0	0	0	0	0	0	0	0	0	1	0	0	17.47	2.0148	16.554	2
8908	89.08	0	0	0	0	0	0	10.917	-10.917	18.908	0	0	0	0	0	0	0	0	0	0	0	0	1	0	0	17.755	2.1475	16.785	0	0	0	1	0	0	17.883	2.027	16.961	0	0	0	0	0	0	0	0	0	0	0	0	0	0	0	0	0	0	0	0	0	0	0	0	0	0	0	2
8909	89.09	0	0	0	0	0	0	0	0	0	0	0	0	0	0	0	0	0	0	0	0	0	1	0	0	17.755	2.1475	16.785	0	0	0	1	0	0	17.761	2.1499	16.789	0	0	0	0	0	0	0	0	0	0	0	0	0	0	0	0	0	0	0	0	0	0	0	0	0	0	0	2
8910	89.1	0	0	0	0	0	0	10.917	-10.917	18.908	0	0	0	0	0	0	0	0	0	0	0	0	0	0	0	10.989	-10.989	19.033	0	0	0	1	0	0	17.761	2.1499	16.789	0	0	0	0	0	0	0	0	0	0	0	0	0	-1	0	-2.0278	-17.891	16.968	0	0	0	0	0	0	0	0	0	2
8911	89.11	0	0	0	0	0	0	0	0	0	0	0	0	0	0	0	0	0	0	0	0	0	1	0	0	17.755	2.1475	16.785	0	0	0	1	0	0	17.761	2.1499	16.789	0	0	0	0	0	0	0	0	0	0	0	0	0	-1	0	-2.0278	-17.891	16.968	0	0	0	0	0	0	0	0	0	2
8912	89.12	0	0	0	0	0	0	10.917	-10.917	18.908	0	0	0	0	0	0	0	0	0	0	0	0	0	0	0	10.989	-10.989	19.033	0	0	0	1	0	0	17.761	2.1499	16.789	0	0	0	0	0	0	0	0	0	0	0	0	1	-1	0	7.5503	-27.469	31.921	0	0	0	0	0	0	0	0	0	2
8913	89.13	0	0	0	0	0	0	0	0	0	0	0	0	0	0	0	0	0	0	0	0	0	0	0	0	10.989	-10.989	19.033	0	0	0	1	0	0	17.761	2.1499	16.789	0	0	0	0	0	0	0	0	0	0	0	0	1	-1	0	7.5503	-27.469	31.921	0	0	0	0	0	0	0	0	0	2
8914	89.14	0	0	0	0	0	0	0	0	0	0	0	0	0	0	0	0	0	0	0	0	0	0	0	0	10.989	-10.989	19.033	0	0	0	1	0	0	17.761	2.1499	16.789	0	0	0	0	0	0	0	0	0	0	0	0	0	0	0	10.994	-10.994	19.042	0	0	0	1	0	0	17.47	2.0148	16.554	2
8915	89.15	0	0	0	0	0	0	10.917	-10.917	18.908	0	0	0	0	0	0	0	0	0	0	0	0	0	0	0	10.989	-10.989	19.033	0	0	0	1	0	0	17.761	2.1499	16.789	0	0	0	0	0	0	0	0	0	0	0	0	0	0	0	0	0	0	0	0	0	0	0	0	0	0	0	2
8916	89.16	0	0	0	0	0	0	0	0	0	0	0	0	0	0	0	0	0	0	0	0	0	1	0	0	17.755	2.1475	16.785	0	0	0	1	0	0	17.761	2.1499	16.789	0	0	0	0	0	0	0	0	0	0	0	0	0	0	0	10.994	-10.994	19.042	0	0	0	1	0	0	17.47	2.0148	16.554	2
8917	89.17	0	0	0	0	0	0	0	0	0	0	0	0	0	0	0	0	0	0	0	0	0	0	0	0	10.989	-10.989	19.033	0	0	0	1	0	0	17.761	2.1499	16.789	0	0	0	0	0	0	0	0	0	0	0	0	0	-1	0	-2.0278	-17.891	16.968	0	0	0	0	0	0	0	0	0	2
8918	89.18	0	0	0	0	0	0	0	0	0	0	0	0	0	0	0	0	0	0	0	0	0	1	0	0	17.755	2.1475	16.785	0	0	0	1	0	0	17.761	2.1499	16.789	0	0	0	0	0	0	0	0	0	0	0	0	0	0	0	10.994	-10.994	19.042	0	0	0	0	0	0	0	0	0	2
8919	89.19	0	0	0	0	0	0	0	0	0	0	0	0	0	0	0	0	0	0	0	0	0	1	0	0	17.755	2.1475	16.785	0	0	0	1	0	0	17.761	2.1499	16.789	0	0	0	0	0	0	0	0	0	0	0	0	0	-1	0	-2.0278	-17.891	16.968	0	0	0	0	0	0	0	0	0	2
8920	89.2	0	0	0	0	0	0	0	0	0	0	0	0	0	0	0	0	0	0	0	0	0	0	0	0	10.989	-10.989	19.033	0	0	0	1	0	0	17.761	2.1499	16.789	0	0	0	0	0	0	0	0	0	0	0	0	1	-1	0	7.5503	-27.469	31.921	0	0	0	0	0	0	0	0	0	2
8921	89.21	0	0	0	0	0	0	0	0	0	0	0	0	0	0	0	0	0	0	0	0	0	1	0	0	17.755	2.1475	16.785	0	0	0	1	0	0	17.761	2.1499	16.789	0	0	0	1	0	0	17.883	2.027	16.961	0	0	0	0	0	0	10.994	-10.994	19.042	0	0	0	0	0	0	0	0	0	2
8922	89.22	0	0	0	0	0	0	0	0	0	0	0	0	0	0	0	0	0	0	0	0	0	1	0	0	17.755	2.1475	16.785	0	0	0	1	0	0	17.761	2.1499	16.789	0	0	0	0	0	0	0	0	0	0	0	0	1	-1	0	7.5503	-27.469	31.921	0	0	0	0	0	0	0	0	0	2
8923	89.23	0	0	0	0	0	0	10.917	-10.917	18.908	0	0	0	0	0	0	0	0	0	0	0	0	1	0	0	17.755	2.1475	16.785	0	0	0	1	0	0	17.761	2.1499	16.789	0	0	0	0	0	0	0	0	0	0	0	0	0	-1	0	-2.0278	-17.891	16.968	0	0	0	0	0	0	0	0	0	2
8924	89.24	0	0	0	0	0	0	0	0	0	0	0	0	0	0	0	0	0	0	0	0	0	0	0	0	10.989	-10.989	19.033	0	0	0	1	0	0	17.761	2.1499	16.789	0	0	0	0	0	0	0	0	0	0	0	0	0	0	0	0	0	0	0	0	0	0	0	0	0	0	0	2
8925	89.25	0	0	0	0	0	0	0	0	0	0	0	0	0	0	0	0	0	0	0	0	0	1	0	0	17.755	2.1475	16.785	0	0	0	1	0	0	17.761	2.1499	16.789	0	0	0	0	0	0	0	0	0	0	0	0	0	-1	0	-2.0278	-17.891	16.968	0	0	0	0	0	0	0	0	0	2
8926	89.26	0	0	0	0	0	0	10.917	-10.917	18.908	0	0	0	0	0	0	0	0	0	0	0	0	1	0	0	17.755	2.1475	16.785	0	0	0	1	0	0	17.761	2.1499	16.789	0	0	0	0	0	0	0	0	0	0	0	0	0	0	0	10.994	-10.994	19.042	0	0	0	0	0	0	0	0	0	2
8927	89.27	0	0	0	0	0	0	0	0	0	0	0	0	0	0	0	0	0	0	0	0	0	0	0	0	10.989	-10.989	19.033	0	0	0	1	0	0	17.761	2.1499	16.789	0	0	0	0	0	0	0	0	0	0	0	0	1	-1	0	7.5503	-27.469	31.921	0	0	0	0	0	0	0	0	0	2
8928	89.28	0	0	0	0	0	0	0	0	0	0	0	0	0	0	0	0	0	0	0	0	0	1	0	0	17.755	2.1475	16.785	0	0	0	1	0	0	17.761	2.1499	16.789	0	0	0	0	0	0	0	0	0	0	0	0	1	-1	0	7.5503	-27.469	31.921	0	0	0	0	0	0	0	0	0	2
8929	89.29	0	0	0	0	0	0	0	0	0	0	0	0	0	0	0	0	0	0	0	0	0	1	0	0	17.755	2.1475	16.785	0	0	0	1	0	0	17.761	2.1499	16.789	0	0	0	0	0	0	0	0	0	0	0	0	0	-1	0	-2.0278	-17.891	16.968	0	0	0	0	0	0	0	0	0	0
8930	89.3	0	0	0	0	0	0	0	0	0	0	0	0	0	0	0	0	0	0	0	0	0	0	0	0	10.989	-10.989	19.033	0	0	0	1	0	0	17.761	2.1499	16.789	0	0	0	0	0	0	0	0	0	0	0	0	0	-1	0	-2.0278	-17.891	16.968	0	0	0	0	0	0	0	0	0	2
8931	89.31	0	0	0	0	0	0	10.917	-10.917	18.908	0	0	0	0	0	0	0	0	0	0	0	0	1	0	0	17.755	2.1475	16.785	0	0	0	1	0	0	17.761	2.1499	16.789	0	0	0	0	0	0	0	0	0	0	0	0	0	-1	0	-2.0278	-17.891	16.968	0	0	0	0	0	0	0	0	0	2
8932	89.32	0	0	0	0	0	0	10.917	-10.917	18.908	0	0	0	0	0	0	0	0	0	0	0	0	0	0	0	10.989	-10.989	19.033	0	0	0	1	0	0	17.761	2.1499	16.789	0	0	0	0	0	0	0	0	0	0	0	0	0	-1	0	-2.0278	-17.891	16.968	0	0	0	0	0	0	0	0	0	2
8933	89.33	0	0	0	0	0	0	0	0	0	0	0	0	0	0	0	0	0	0	0	0	0	1	0	0	17.755	2.1475	16.785	0	0	0	1	0	0	17.761	2.1499	16.789	0	0	0	0	0	0	0	0	0	0	0	0	1	-1	0	7.5503	-27.469	31.921	0	0	0	0	0	0	0	0	0	2
8934	89.34	0	0	0	0	0	0	10.917	-10.917	18.908	0	0	0	0	0	0	0	0	0	0	0	0	0	0	0	10.989	-10.989	19.033	0	0	0	1	0	0	17.761	2.1499	16.789	0	0	0	0	0	0	0	0	0	0	0	0	0	0	0	0	0	0	0	0	0	0	0	0	0	0	0	2
8935	89.35	0	0	0	0	0	0	0	0	0	0	0	0	0	0	0	0	0	0	0	0	0	1	0	0	17.755	2.1475	16.785	0	0	0	1	0	0	17.761	2.1499	16.789	0	0	0	0	0	0	0	0	0	0	0	0	0	-1	0	-2.0278	-17.891	16.968	0	0	0	0	0	0	0	0	0	2
8936	89.36	0	0	0	0	0	0	0	0	0	0	0	0	0	0	0	0	0	0	0	0	0	1	0	0	17.755	2.1475	16.785	0	0	0	1	0	0	17.761	2.1499	16.789	0	0	0	1	0	0	17.883	2.027	16.961	0	0	0	0	0	0	10.994	-10.994	19.042	0	0	0	0	0	0	0	0	0	0
8937	89.37	0	0	0	0	0	0	0	0	0	0	0	0	0	0	0	0	0	0	0	0	0	1	0	0	17.755	2.1475	16.785	0	0	0	1	0	0	17.761	2.1499	16.789	0	0	0	0	0	0	0	0	0	0	0	0	0	-1	0	-2.0278	-17.891	16.968	0	0	0	0	0	0	0	0	0	2
8938	89.38	0	0	0	0	0	0	0	0	0	0	0	0	0	0	0	0	0	0	0	0	0	1	0	0	17.755	2.1475	16.785	0	0	0	1	0	0	17.761	2.1499	16.789	0	0	0	0	0	0	0	0	0	0	0	0	1	0	0	17.769	2.1543	16.796	0	0	0	1	0	0	17.47	2.0148	16.554	2
8939	89.39	0	0	0	0	0	0	0	0	0	0	0	0	0	0	0	0	0	0	0	0	0	0	0	0	10.989	-10.989	19.033	0	0	0	1	0	0	17.761	2.1499	16.789	0	0	0	0	0	0	0	0	0	0	0	0	0	-1	0	-2.0278	-17.891	16.968	0	0	0	0	0	0	0	0	0	2
8940	89.4	0	0	0	0	0	0	0	0	0	0	0	0	0	0	0	0	0	0	0	0	0	0	0	0	10.989	-10.989	19.033	0	0	0	1	0	0	17.761	2.1499	16.789	0	0	0	0	0	0	0	0	0	0	0	0	0	0	0	10.994	-10.994	19.042	0	0	0	0	0	0	0	0	0	2
8941	89.41	0	0	0	0	0	0	0	0	0	0	0	0	0	0	0	0	0	0	0	0	0	1	0	0	17.755	2.1475	16.785	0	0	0	1	0	0	17.761	2.1499	16.789	0	0	0	1	0	0	17.883	2.027	16.961	0	0	0	0	0	0	10.994	-10.994	19.042	0	0	0	1	0	0	17.47	2.0148	16.554	2
8942	89.42	0	0	0	0	0	0	0	0	0	0	0	0	0	0	0	0	0	0	0	0	0	0	0	0	10.989	-10.989	19.033	0	0	0	1	0	0	17.883	2.027	16.961	0	0	0	0	0	0	0	0	0	0	0	0	0	-1	0	-2.0278	-17.891	16.968	0	0	0	0	0	0	0	0	0	2
8943	89.43	0	0	0	0	0	0	0	0	0	0	0	0	0	0	0	0	0	0	0	0	0	0	0	0	10.989	-10.989	19.033	0	0	0	1	0	0	17.761	2.1499	16.789	0	0	0	0	0	0	0	0	0	0	0	0	0	0	0	0	0	0	0	0	0	0	0	0	0	0	0	2
8944	89.44	0	0	0	0	0	0	10.917	-10.917	18.908	0	0	0	0	0	0	0	0	0	0	0	0	1	0	0	17.755	2.1475	16.785	0	0	0	1	0	0	17.761	2.1499	16.789	0	0	0	0	0	0	0	0	0	0	0	0	1	-1	0	7.5503	-27.469	31.921	0	0	0	0	0	0	0	0	0	2
8945	89.45	0	0	0	0	0	0	0	0	0	0	0	0	0	0	0	0	0	0	0	0	0	0	0	0	10.989	-10.989	19.033	0	0	0	1	0	0	17.761	2.1499	16.789	0	0	0	0	0	0	0	0	0	0	0	0	0	-1	0	-2.0278	-17.891	16.968	0	0	0	0	0	0	0	0	0	2
8946	89.46	0	0	0	0	0	0	0	0	0	0	0	0	0	0	0	0	0	0	0	0	0	1	0	0	17.755	2.1475	16.785	0	0	0	1	0	0	17.761	2.1499	16.789	0	0	0	1	0	0	17.883	2.027	16.961	0	0	0	1	-1	0	7.5503	-27.469	31.921	0	0	0	0	0	0	0	0	0	2
8947	89.47	0	0	0	0	0	0	0	0	0	0	0	0	0	0	0	0	0	0	0	0	0	0	0	0	10.989	-10.989	19.033	0	0	0	1	0	0	17.761	2.1499	16.789	0	0	0	0	0	0	0	0	0	0	0	0	0	-1	0	-2.0278	-17.891	16.968	0	0	0	1	0	0	17.47	2.0148	16.554	2
8948	89.48	0	0	0	0	0	0	0	0	0	0	0	0	0	0	0	0	0	0	0	0	0	0	0	0	10.989	-10.989	19.033	0	0	0	1	0	0	17.761	2.1499	16.789	0	0	0	0	0	0	0	0	0	0	0	0	1	-1	0	7.5503	-27.469	31.921	0	0	0	0	0	0	0	0	0	2
8949	89.49	0	0	0	0	0	0	10.917	-10.917	18.908	0	0	0	0	0	0	0	0	0	0	0	0	0	0	0	10.989	-10.989	19.033	0	0	0	1	0	0	17.761	2.1499	16.789	0	0	0	0	0	0	0	0	0	0	0	0	1	-1	0	7.5503	-27.469	31.921	0	0	0	0	0	0	0	0	0	2
8950	89.5	0	0	0	0	0	0	0	0	0	0	0	0	0	0	0	0	0	0	0	0	0	0	0	0	10.989	-10.989	19.033	0	0	0	1	0	0	17.761	2.1499	16.789	0	0	0	0	0	0	0	0	0	0	0	0	0	-1	0	-2.0278	-17.891	16.968	0	0	0	0	0	0	0	0	0	2
8951	89.51	0	0	0	0	0	0	0	0	0	0	0	0	0	0	0	0	0	0	0	0	0	1	0	0	17.755	2.1475	16.785	0	0	0	1	0	0	17.761	2.1499	16.789	0	0	0	1	0	0	17.883	2.027	16.961	0	0	0	1	-1	0	7.5503	-27.469	31.921	0	0	0	0	0	0	0	0	0	2
8952	89.52	0	0	0	0	0	0	0	0	0	0	0	0	0	0	0	0	0	0	0	0	0	1	0	0	17.755	2.1475	16.785	0	0	0	1	0	0	17.761	2.1499	16.789	0	0	0	0	0	0	0	0	0	0	0	0	0	0	0	0	0	0	0	0	0	0	0	0	0	0	0	2
8953	89.53	0	0	0	0	0	0	0	0	0	0	0	0	0	0	0	0	0	0	0	0	0	1	0	0	17.755	2.1475	16.785	0	0	0	1	0	0	17.761	2.1499	16.789	0	0	0	0	0	0	0	0	0	0	0	0	0	-1	0	-2.0278	-17.891	16.968	0	0	0	0	0	0	0	0	0	2
8954	89.54	0	0	0	0	0	0	0	0	0	0	0	0	0	0	0	0	0	0	0	0	0	0	0	0	10.989	-10.989	19.033	0	0	0	1	0	0	17.761	2.1499	16.789	0	0	0	0	0	0	0	0	0	0	0	0	1	-1	0	7.5503	-27.469	31.921	0	0	0	0	0	0	0	0	0	2
8955	89.55	0	0	0	0	0	0	0	0	0	0	0	0	0	0	0	0	0	0	0	0	0	0	0	0	10.989	-10.989	19.033	0	0	0	1	0	0	17.761	2.1499	16.789	0	0	0	0	0	0	0	0	0	0	0	0	0	0	0	10.994	-10.994	19.042	0	0	0	0	0	0	0	0	0	2
8956	89.56	0	0	0	0	0	0	10.917	-10.917	18.908	0	0	0	0	0	0	0	0	0	0	0	0	1	0	0	17.755	2.1475	16.785	0	0	0	1	0	0	17.761	2.1499	16.789	0	0	0	0	0	0	0	0	0	0	0	0	0	0	0	0	0	0	0	0	0	0	0	0	0	0	0	2
8957	89.57	0	0	0	0	0	0	0	0	0	0	0	0	0	0	0	0	0	0	0	0	0	1	0	0	17.755	2.1475	16.785	0	0	0	1	0	0	17.761	2.1499	16.789	0	0	0	0	0	0	0	0	0	0	0	0	0	-1	0	-2.0278	-17.891	16.968	0	0	0	0	0	0	0	0	0	2
8958	89.58	0	0	0	0	0	0	10.917	-10.917	18.908	0	0	0	0	0	0	0	0	0	0	0	0	1	0	0	17.755	2.1475	16.785	0	0	0	1	0	0	17.761	2.1499	16.789	0	0	0	0	0	0	0	0	0	0	0	0	0	0	0	10.994	-10.994	19.042	0	0	0	0	0	0	0	0	0	2
8959	89.59	0	0	0	0	0	0	0	0	0	0	0	0	0	0	0	0	0	0	0	0	0	1	0	0	17.755	2.1475	16.785	0	0	0	1	0	0	17.761	2.1499	16.789	0	0	0	0	0	0	0	0	0	0	0	0	1	-1	0	7.5503	-27.469	31.921	0	0	0	0	0	0	0	0	0	2
8960	89.6	0	0	0	0	0	0	0	0	0	0	0	0	0	0	0	0	0	0	0	0	0	0	0	0	10.989	-10.989	19.033	0	0	0	1	0	0	17.761	2.1499	16.789	0	0	0	0	0	0	0	0	0	0	0	0	0	-1	0	-2.0278	-17.891	16.968	0	0	0	0	0	0	0	0	0	2
8961	89.61	0	0	0	0	0	0	0	0	0	0	0	0	0	0	0	0	0	0	0	0	0	1	0	0	17.755	2.1475	16.785	0	0	0	1	0	0	17.761	2.1499	16.789	0	0	0	0	0	0	0	0	0	0	0	0	0	0	0	10.994	-10.994	19.042	0	0	0	0	0	0	0	0	0	2
8962	89.62	0	0	0	0	0	0	0	0	0	0	0	0	0	0	0	0	0	0	0	0	0	0	0	0	10.989	-10.989	19.033	0	0	0	1	0	0	17.761	2.1499	16.789	0	0	0	0	0	0	0	0	0	0	0	0	0	0	0	0	0	0	0	0	0	0	0	0	0	0	0	2
8963	89.63	0	0	0	0	0	0	10.917	-10.917	18.908	0	0	0	0	0	0	0	0	0	0	0	0	1	0	0	17.755	2.1475	16.785	0	0	0	1	0	0	17.761	2.1499	16.789	0	0	0	1	0	0	17.883	2.027	16.961	0	0	0	0	0	0	11.266	-11.261	19.508	0	0	0	1	0	0	17.47	2.0148	16.554	2
8964	89.64	0	0	0	0	0	0	0	0	0	0	0	0	0	0	0	0	0	0	0	0	0	1	0	0	17.755	2.1475	16.785	0	0	0	1	0	0	17.761	2.1499	16.789	0	0	0	0	0	0	0	0	0	0	0	0	0	-1	0	-2.0278	-17.891	16.968	0	0	0	0	0	0	0	0	0	2
8965	89.65	0	0	0	0	0	0	0	0	0	0	0	0	0	0	0	0	0	0	0	0	0	0	0	0	10.989	-10.989	19.033	0	0	0	1	0	0	17.761	2.1499	16.789	0	0	0	0	0	0	0	0	0	0	0	0	1	-1	0	7.5503	-27.469	31.921	0	0	0	0	0	0	0	0	0	2
8966	89.66	0	0	0	0	0	0	0	0	0	0	0	0	0	0	0	10.918	-10.918	18.911	0	0	0	1	0	0	17.755	2.1475	16.785	0	0	0	1	0	0	17.761	2.1499	16.789	0	0	0	0	0	0	0	0	0	0	0	0	0	0	0	0	0	0	0	0	0	0	0	0	0	0	0	2
8967	89.67	0	0	0	0	0	0	0	0	0	0	0	0	0	0	0	0	0	0	0	0	0	0	0	0	10.989	-10.989	19.033	0	0	0	1	0	0	17.761	2.1499	16.789	0	0	0	0	0	0	0	0	0	0	0	0	1	-1	0	7.5503	-27.469	31.921	0	0	0	0	0	0	0	0	0	2
8968	89.68	0	0	0	0	0	0	0	0	0	0	0	0	0	0	0	0	0	0	0	0	0	1	0	0	17.755	2.1475	16.785	0	0	0	1	0	0	17.761	2.1499	16.789	0	0	0	0	0	0	0	0	0	0	0	0	0	0	0	10.994	-10.994	19.042	0	0	0	1	0	0	17.47	2.0148	16.554	2
8969	89.69	0	0	0	0	0	0	0	0	0	0	0	0	0	0	0	0	0	0	0	0	0	1	0	0	17.755	2.1475	16.785	0	0	0	1	0	0	17.761	2.1499	16.789	0	0	0	0	0	0	0	0	0	0	0	0	0	-1	0	-2.0278	-17.891	16.968	0	0	0	1	0	0	17.47	2.0148	16.554	2
8970	89.7	0	0	0	0	0	0	0	0	0	0	0	0	0	0	0	0	0	0	0	0	0	0	0	0	10.989	-10.989	19.033	0	0	0	1	0	0	17.761	2.1499	16.789	0	0	0	0	0	0	0	0	0	0	0	0	0	0	0	0	0	0	0	0	0	0	0	0	0	0	0	2
8971	89.71	0	0	0	0	0	0	0	0	0	0	0	0	0	0	0	0	0	0	0	0	0	1	0	0	17.755	2.1475	16.785	0	0	0	1	0	0	17.761	2.1499	16.789	0	0	0	0	0	0	0	0	0	0	0	0	1	-1	0	7.5503	-27.469	31.921	0	0	0	1	0	0	17.47	2.0148	16.554	2
8972	89.72	0	0	0	0	0	0	0	0	0	0	0	0	0	0	0	0	0	0	0	0	0	0	0	0	10.989	-10.989	19.033	0	0	0	1	0	0	17.761	2.1499	16.789	0	0	0	0	0	0	0	0	0	0	0	0	1	-1	0	7.5503	-27.469	31.921	0	0	0	0	0	0	0	0	0	2
8973	89.73	0	0	0	0	0	0	10.917	-10.917	18.908	0	0	0	0	0	0	0	0	0	0	0	0	1	0	0	17.755	2.1475	16.785	0	0	0	1	0	0	17.761	2.1499	16.789	0	0	0	0	0	0	0	0	0	0	0	0	0	0	0	10.994	-10.994	19.042	0	0	0	0	0	0	0	0	0	2
8974	89.74	0	0	0	0	0	0	0	0	0	0	0	0	0	0	0	0	0	0	0	0	0	0	0	0	10.989	-10.989	19.033	0	0	0	1	0	0	17.761	2.1499	16.789	0	0	0	0	0	0	0	0	0	0	0	0	0	0	0	0	0	0	0	0	0	1	0	0	17.47	2.0148	16.554	2
8975	89.75	0	0	0	0	0	0	0	0	0	0	0	0	0	0	0	0	0	0	0	0	0	0	0	0	10.989	-10.989	19.033	0	0	0	1	0	0	17.761	2.1499	16.789	0	0	0	0	0	0	0	0	0	0	0	0	0	0	0	10.994	-10.994	19.042	0	0	0	0	0	0	0	0	0	2
8976	89.76	0	0	0	0	0	0	0	0	0	0	0	0	0	0	0	0	0	0	0	0	0	1	0	0	17.755	2.1475	16.785	0	0	0	1	0	0	17.761	2.1499	16.789	0	0	0	1	0	0	17.883	2.027	16.961	0	0	0	1	-1	0	7.5503	-27.469	31.921	0	0	0	0	0	0	0	0	0	3
8977	89.77	0	0	0	0	0	0	10.917	-10.917	18.908	0	0	0	0	0	0	0	0	0	0	0	0	1	0	0	17.755	2.1475	16.785	0	0	0	1	0	0	17.761	2.1499	16.789	0	0	0	0	0	0	0	0	0	0	0	0	0	0	0	0	0	0	0	0	0	0	0	0	0	0	0	2
8978	89.78	0	0	0	0	0	0	0	0	0	0	0	0	0	0	0	0	0	0	0	0	0	1	0	0	17.755	2.1475	16.785	0	0	0	1	0	0	17.761	2.1499	16.789	0	0	0	0	0	0	0	0	0	0	0	0	1	-1	0	7.5503	-27.469	31.921	0	0	0	0	0	0	0	0	0	2
8979	89.79	0	0	0	0	0	0	0	0	0	0	0	0	0	0	0	0	0	0	0	0	0	0	0	0	10.989	-10.989	19.033	0	0	0	1	0	0	17.761	2.1499	16.789	0	0	0	0	0	0	0	0	0	0	0	0	0	0	0	0	0	0	0	0	0	1	0	0	17.47	2.0148	16.554	2
8980	89.8	0	0	0	0	0	0	10.917	-10.917	18.908	0	0	0	0	0	0	0	0	0	0	0	0	0	0	0	10.989	-10.989	19.033	0	0	0	1	0	0	17.761	2.1499	16.789	0	0	0	0	0	0	0	0	0	0	0	0	0	-1	0	-2.0278	-17.891	16.968	0	0	0	0	0	0	0	0	0	2
8981	89.81	0	0	0	0	0	0	10.917	-10.917	18.908	0	0	0	0	0	0	0	0	0	0	0	0	1	0	0	17.755	2.1475	16.785	0	0	0	1	0	0	17.761	2.1499	16.789	0	0	0	0	0	0	0	0	0	0	0	0	0	0	0	10.994	-10.994	19.042	0	0	0	1	0	0	17.47	2.0148	16.554	2
8982	89.82	0	0	0	0	0	0	0	0	0	0	0	0	0	0	0	0	0	0	0	0	0	0	0	0	10.989	-10.989	19.033	0	0	0	1	0	0	17.883	2.027	16.961	0	0	0	0	0	0	0	0	0	0	0	0	0	-1	0	-2.0278	-17.891	16.968	0	0	0	0	0	0	0	0	0	2
8983	89.83	0	0	0	0	0	0	0	0	0	0	0	0	0	0	0	0	0	0	0	0	0	1	0	0	17.755	2.1475	16.785	0	0	0	1	0	0	17.761	2.1499	16.789	0	0	0	0	0	0	0	0	0	0	0	0	0	-1	0	-2.0278	-17.891	16.968	0	0	0	1	0	0	17.47	2.0148	16.554	2
8984	89.84	0	0	0	0	0	0	0	0	0	0	0	0	0	0	0	0	0	0	0	0	0	1	0	0	17.755	2.1475	16.785	0	0	0	1	0	0	17.761	2.1499	16.789	0	0	0	0	0	0	0	0	0	0	0	0	0	-1	0	-2.0278	-17.891	16.968	0	0	0	1	0	0	17.47	2.0148	16.554	2
8985	89.85	0	0	0	0	0	0	0	0	0	0	0	0	0	0	0	0	0	0	0	0	0	0	0	0	10.989	-10.989	19.033	0	0	0	1	0	0	17.761	2.1499	16.789	0	0	0	0	0	0	0	0	0	0	0	0	0	0	0	0	0	0	0	0	0	1	0	0	17.47	2.0148	16.554	2
8986	89.86	0	0	0	0	0	0	0	0	0	0	0	0	0	0	0	0	0	0	0	0	0	1	0	0	17.755	2.1475	16.785	0	0	0	1	0	0	17.761	2.1499	16.789	0	0	0	1	0	0	17.883	2.027	16.961	0	0	0	0	-1	0	-2.0278	-17.891	16.968	0	0	0	0	0	0	0	0	0	2
8987	89.87	0	0	0	0	0	0	10.917	-10.917	18.908	0	0	0	0	0	0	0	0	0	0	0	0	0	0	0	10.989	-10.989	19.033	0	0	0	1	0	0	17.761	2.1499	16.789	0	0	0	0	0	0	0	0	0	0	0	0	0	-1	0	-2.0278	-17.891	16.968	0	0	0	0	0	0	0	0	0	2
8988	89.88	0	0	0	0	0	0	0	0	0	0	0	0	0	0	0	0	0	0	0	0	0	1	0	0	17.755	2.1475	16.785	0	0	0	1	0	0	17.761	2.1499	16.789	0	0	0	0	0	0	0	0	0	0	0	0	0	0	0	0	0	0	0	0	0	0	0	0	0	0	0	2
8989	89.89	0	0	0	0	0	0	10.917	-10.917	18.908	0	0	0	0	0	0	0	0	0	0	0	0	1	0	0	17.755	2.1475	16.785	0	0	0	1	0	0	17.761	2.1499	16.789	0	0	0	0	0	0	0	0	0	0	0	0	0	-1	0	-2.0278	-17.891	16.968	0	0	0	0	0	0	0	0	0	2
8990	89.9	0	0	0	0	0	0	0	0	0	0	0	0	0	0	0	0	0	0	0	0	0	0	0	0	10.989	-10.989	19.033	0	0	0	1	0	0	17.761	2.1499	16.789	0	0	0	0	0	0	0	0	0	0	0	0	0	0	0	0	0	0	0	0	0	0	0	0	0	0	0	2
8991	89.91	0	0	0	0	0	0	0	0	0	0	0	0	0	0	0	0	0	0	0	0	0	1	0	0	17.755	2.1475	16.785	0	0	0	1	0	0	17.761	2.1499	16.789	0	0	0	1	0	0	17.883	2.027	16.961	0	0	0	0	0	0	10.994	-10.994	19.042	0	0	0	1	0	0	17.47	2.0148	16.554	2
8992	89.92	0	0	0	0	0	0	0	0	0	0	0	0	0	0	0	0	0	0	0	0	0	1	0	0	17.755	2.1475	16.785	0	0	0	1	0	0	17.761	2.1499	16.789	0	0	0	0	0	0	0	0	0	0	0	0	1	-1	0	7.5503	-27.469	31.921	0	0	0	0	0	0	0	0	0	2
8993	89.93	0	0	0	0	0	0	0	0	0	0	0	0	0	0	0	0	0	0	0	0	0	1	0	0	17.755	2.1475	16.785	0	0	0	1	0	0	17.761	2.1499	16.789	0	0	0	0	0	0	0	0	0	0	0	0	0	-1	0	-2.0278	-17.891	16.968	0	0	0	1	0	0	17.47	2.0148	16.554	2
8994	89.94	0	0	0	0	0	0	10.917	-10.917	18.908	0	0	0	0	0	0	0	0	0	0	0	0	0	0	0	10.989	-10.989	19.033	0	0	0	1	0	0	17.761	2.1499	16.789	0	0	0	0	0	0	0	0	0	0	0	0	0	-1	0	-2.0278	-17.891	16.968	0	0	0	1	0	0	17.47	2.0148	16.554	2
8995	89.95	0	0	0	0	0	0	0	0	0	0	0	0	0	0	0	0	0	0	0	0	0	0	0	0	10.989	-10.989	19.033	0	0	0	1	0	0	17.761	2.1499	16.789	0	0	0	0	0	0	0	0	0	0	0	0	0	0	0	10.994	-10.994	19.042	0	0	0	1	0	0	17.47	2.0148	16.554	2
8996	89.96	0	0	0	0	0	0	0	0	0	0	0	0	0	0	0	0	0	0	0	0	0	0	0	0	10.989	-10.989	19.033	0	0	0	1	0	0	17.761	2.1499	16.789	0	0	0	0	0	0	0	0	0	0	0	0	0	-1	0	-2.0278	-17.891	16.968	0	0	0	1	0	0	17.47	2.0148	16.554	2
8997	89.97	0	0	0	0	0	0	0	0	0	0	0	0	0	0	0	0	0	0	0	0	0	1	0	0	17.755	2.1475	16.785	0	0	0	1	0	0	17.883	2.027	16.961	0	0	0	0	0	0	0	0	0	0	0	0	0	0	0	0	0	0	0	0	0	0	0	0	0	0	0	2
8998	89.98	0	0	0	0	0	0	0	0	0	0	0	0	0	0	0	0	0	0	0	0	0	1	0	0	17.755	2.1475	16.785	0	0	0	1	0	0	17.761	2.1499	16.789	0	0	0	0	0	0	0	0	0	0	0	0	0	0	0	0	0	0	0	0	0	0	0	0	0	0	0	2
8999	89.99	0	0	0	0	0	0	10.917	-10.917	18.908	0	0	0	0	0	0	0	0	0	0	0	0	0	0	0	10.989	-10.989	19.033	0	0	0	1	0	0	17.761	2.1499	16.789	0	0	0	0	0	0	0	0	0	0	0	0	1	-1	0	7.5503	-27.469	31.921	0	0	0	1	0	0	17.47	2.0148	16.554	2
9000	90	0	0	0	0	0	0	0	0	0	0	0	0	0	0	0	0	0	0	0	0	0	0	0	0	10.989	-10.989	19.033	0	0	0	1	0	0	17.761	2.1499	16.789	0	0	0	0	0	0	0	0	0	0	0	0	0	-1	0	-2.0278	-17.891	16.968	0	0	0	0	0	0	0	0	0	2
9001	90.01	0	0	0	0	0	0	0	0	0	0	0	0	0	0	0	0	0	0	0	0	0	1	0	0	17.755	2.1475	16.785	0	0	0	1	0	0	17.761	2.1499	16.789	0	0	0	1	0	0	17.883	2.027	16.961	0	0	0	0	0	0	0	0	0	0	0	0	1	0	0	17.47	2.0148	16.554	2
9002	90.02	0	0	0	0	0	0	10.917	-10.917	18.908	0	0	0	0	0	0	0	0	0	0	0	0	0	0	0	10.989	-10.989	19.033	0	0	0	1	0	0	17.761	2.1499	16.789	0	0	0	0	0	0	0	0	0	0	0	0	0	0	0	10.994	-10.994	19.042	0	0	0	0	0	0	0	0	0	2
9003	90.03	0	0	0	0	0	0	10.917	-10.917	18.908	0	0	0	0	0	0	0	0	0	0	0	0	1	0	0	17.755	2.1475	16.785	0	0	0	1	0	0	17.761	2.1499	16.789	0	0	0	1	0	0	17.883	2.027	16.961	0	0	0	0	0	0	0	0	0	0	0	0	1	0	0	17.47	2.0148	16.554	2
9004	90.04	0	0	0	0	0	0	0	0	0	0	0	0	0	0	0	0	0	0	0	0	0	1	0	0	17.755	2.1475	16.785	0	0	0	1	0	0	17.761	2.1499	16.789	0	0	0	0	0	0	0	0	0	0	0	0	0	0	0	0	0	0	0	0	0	0	0	0	0	0	0	2
9005	90.05	0	0	0	0	0	0	0	0	0	0	0	0	0	0	0	0	0	0	0	0	0	1	0	0	17.755	2.1475	16.785	0	0	0	1	0	0	17.761	2.1499	16.789	0	0	0	0	0	0	0	0	0	0	0	0	0	0	0	10.994	-10.994	19.042	0	0	0	0	0	0	0	0	0	2
9006	90.06	0	0	0	0	0	0	0	0	0	0	0	0	0	0	0	0	0	0	0	0	0	1	0	0	17.755	2.1475	16.785	0	0	0	1	0	0	17.761	2.1499	16.789	0	0	0	0	0	0	0	0	0	0	0	0	0	0	0	0	0	0	0	0	0	1	0	0	17.47	2.0148	16.554	2
9007	90.07	0	0	0	0	0	0	0	0	0	0	0	0	0	0	0	0	0	0	0	0	0	0	0	0	10.989	-10.989	19.033	0	0	0	1	0	0	17.761	2.1499	16.789	0	0	0	0	0	0	0	0	0	0	0	0	0	0	0	10.994	-10.994	19.042	0	0	0	0	0	0	0	0	0	2
9008	90.08	0	0	0	0	0	0	0	0	0	0	0	0	0	0	0	0	0	0	0	0	0	0	0	0	10.989	-10.989	19.033	0	0	0	1	0	0	17.761	2.1499	16.789	0	0	0	0	0	0	0	0	0	0	0	0	1	-1	0	7.5503	-27.469	31.921	0	0	0	0	0	0	0	0	0	2
9009	90.09	0	0	0	0	0	0	0	0	0	0	0	0	0	0	0	0	0	0	0	0	0	1	0	0	17.755	2.1475	16.785	0	0	0	1	0	0	17.883	2.027	16.961	0	0	0	1	0	0	17.883	2.027	16.961	0	0	0	0	0	0	10.994	-10.994	19.042	0	0	0	0	0	0	0	0	0	2
9010	90.1	0	0	0	0	0	0	10.917	-10.917	18.908	0	0	0	0	0	0	0	0	0	0	0	0	0	0	0	10.989	-10.989	19.033	0	0	0	1	0	0	17.761	2.1499	16.789	0	0	0	0	0	0	0	0	0	0	0	0	0	-1	0	-2.0278	-17.891	16.968	0	0	0	0	0	0	0	0	0	2
9011	90.11	0	0	0	0	0	0	0	0	0	0	0	0	0	0	0	0	0	0	0	0	0	0	0	0	10.989	-10.989	19.033	0	0	0	1	0	0	17.761	2.1499	16.789	0	0	0	0	0	0	0	0	0	0	0	0	1	-1	0	7.5503	-27.469	31.921	0	0	0	1	0	0	30.423	8.5595	27.174	2
9012	90.12	0	0	0	0	0	0	0	0	0	0	0	0	0	0	0	0	0	0	0	0	0	0	0	0	10.989	-10.989	19.033	0	0	0	1	0	0	17.761	2.1499	16.789	0	0	0	0	0	0	0	0	0	0	0	0	0	-1	0	-2.0278	-17.891	16.968	0	0	0	0	0	0	0	0	0	2
9013	90.13	0	0	0	0	0	0	0	0	0	0	0	0	0	0	0	0	0	0	0	0	0	1	0	0	17.755	2.1475	16.785	0	0	0	1	0	0	17.883	2.027	16.961	0	0	0	0	0	0	0	0	0	0	0	0	0	0	0	10.994	-10.994	19.042	0	0	0	0	0	0	0	0	0	2
9014	90.14	0	0	0	0	0	0	0	0	0	0	0	0	0	0	0	0	0	0	0	0	0	1	0	0	17.755	2.1475	16.785	0	0	0	1	0	0	17.761	2.1499	16.789	0	0	0	0	0	0	0	0	0	0	0	0	0	0	0	0	0	0	0	0	0	0	0	0	0	0	0	2
9015	90.15	0	0	0	0	0	0	0	0	0	0	0	0	0	0	0	0	0	0	0	0	0	0	0	0	10.989	-10.989	19.033	0	0	0	1	0	0	17.761	2.1499	16.789	0	0	0	0	0	0	0	0	0	0	0	0	1	-1	0	7.5503	-27.469	31.921	0	0	0	0	0	0	0	0	0	2
9016	90.16	0	0	0	0	0	0	10.917	-10.917	18.908	0	0	0	0	0	0	0	0	0	0	0	0	1	0	0	17.755	2.1475	16.785	0	0	0	1	0	0	17.761	2.1499	16.789	0	0	0	0	0	0	0	0	0	0	0	0	1	-1	0	7.5503	-27.469	31.921	0	0	0	0	0	0	0	0	0	2
9017	90.17	0	0	0	0	0	0	0	0	0	0	0	0	0	0	0	0	0	0	0	0	0	0	0	0	10.989	-10.989	19.033	0	0	0	1	0	0	17.761	2.1499	16.789	0	0	0	0	0	0	0	0	0	0	0	0	0	0	0	0	0	0	0	0	0	0	0	0	0	0	0	2
9018	90.18	0	0	0	0	0	0	0	0	0	0	0	0	0	0	0	0	0	0	0	0	0	1	0	0	17.755	2.1475	16.785	0	0	0	1	0	0	17.761	2.1499	16.789	0	0	0	0	0	0	0	0	0	0	0	0	0	0	0	10.994	-10.994	19.042	0	0	0	1	0	0	17.47	2.0148	16.554	2
9019	90.19	0	0	0	0	0	0	0	0	0	0	0	0	0	0	0	0	0	0	0	0	0	1	0	0	17.755	2.1475	16.785	0	0	0	1	0	0	17.761	2.1499	16.789	0	0	0	0	0	0	0	0	0	0	0	0	0	0	0	10.994	-10.994	19.042	0	0	0	0	0	0	0	0	0	2
9020	90.2	0	0	0	0	0	0	10.917	-10.917	18.908	0	0	0	0	0	0	0	0	0	0	0	0	0	0	0	10.989	-10.989	19.033	0	0	0	1	0	0	17.761	2.1499	16.789	0	0	0	0	0	0	0	0	0	0	0	0	0	0	0	0	0	0	0	0	0	0	0	0	0	0	0	2
9021	90.21	0	0	0	0	0	0	0	0	0	0	0	0	0	0	0	0	0	0	0	0	0	1	0	0	17.755	2.1475	16.785	0	0	0	1	0	0	17.761	2.1499	16.789	0	0	0	0	0	0	0	0	0	0	0	0	0	0	0	10.994	-10.994	19.042	0	0	0	1	0	0	17.47	2.0148	16.554	2
9022	90.22	0	0	0	0	0	0	0	0	0	0	0	0	0	0	0	0	0	0	0	0	0	0	0	0	10.989	-10.989	19.033	0	0	0	1	0	0	17.761	2.1499	16.789	0	0	0	0	0	0	0	0	0	0	0	0	0	-1	0	-2.0278	-17.891	16.968	0	0	0	0	0	0	0	0	0	2
9023	90.23	0	0	0	0	0	0	0	0	0	0	0	0	0	0	0	0	0	0	0	0	0	1	0	0	17.755	2.1475	16.785	0	0	0	1	0	0	17.883	2.027	16.961	0	0	0	1	0	0	17.883	2.027	16.961	0	0	0	1	-1	0	7.5503	-27.469	31.921	0	0	0	0	0	0	0	0	0	2
9024	90.24	0	0	0	0	0	0	0	0	0	0	0	0	0	0	0	0	0	0	0	0	0	1	0	0	17.755	2.1475	16.785	0	0	0	1	0	0	17.761	2.1499	16.789	0	0	0	1	0	0	17.883	2.027	16.961	0	0	0	0	0	0	0	0	0	0	0	0	0	0	0	0	0	0	2
9025	90.25	0	0	0	0	0	0	0	0	0	0	0	0	0	0	0	0	0	0	0	0	0	0	0	0	10.989	-10.989	19.033	0	0	0	1	0	0	17.883	2.027	16.961	0	0	0	0	0	0	0	0	0	0	0	0	0	0	0	10.994	-10.994	19.042	0	0	0	0	0	0	0	0	0	0
9026	90.26	0	0	0	0	0	0	0	0	0	0	0	0	0	0	0	0	0	0	0	0	0	0	0	0	10.989	-10.989	19.033	0	0	0	1	0	0	17.761	2.1499	16.789	0	0	0	1	0	0	17.883	2.027	16.961	0	0	0	1	-1	0	7.5503	-27.469	31.921	0	0	0	0	0	0	0	0	0	2
9027	90.27	0	0	0	0	0	0	0	0	0	0	0	0	0	0	0	0	0	0	0	0	0	0	0	0	10.989	-10.989	19.033	0	0	0	1	0	0	17.761	2.1499	16.789	0	0	0	0	0	0	0	0	0	0	0	0	0	0	0	0	0	0	0	0	0	0	0	0	0	0	0	2
9028	90.28	0	0	0	0	0	0	0	0	0	0	0	0	0	0	0	0	0	0	0	0	0	1	0	0	17.755	2.1475	16.785	0	0	0	1	0	0	17.761	2.1499	16.789	0	0	0	0	0	0	0	0	0	0	0	0	1	-1	0	7.5503	-27.469	31.921	0	0	0	1	0	0	17.47	2.0148	16.554	2
9029	90.29	0	0	0	0	0	0	0	0	0	0	0	0	0	0	0	0	0	0	0	0	0	1	0	0	17.755	2.1475	16.785	0	0	0	1	0	0	17.761	2.1499	16.789	0	0	0	0	0	0	0	0	0	0	0	0	0	-1	0	-2.0278	-17.891	16.968	0	0	0	0	0	0	0	0	0	2
9030	90.3	0	0	0	0	0	0	0	0	0	0	0	0	0	0	0	0	0	0	0	0	0	0	0	0	10.989	-10.989	19.033	0	0	0	1	0	0	17.761	2.1499	16.789	0	0	0	0	0	0	0	0	0	0	0	0	1	-1	0	7.5503	-27.469	31.921	0	0	0	0	0	0	0	0	0	2
9031	90.31	0	0	0	0	0	0	0	0	0	0	0	0	0	0	0	0	0	0	0	0	0	0	0	0	10.989	-10.989	19.033	0	0	0	1	0	0	17.761	2.1499	16.789	0	0	0	0	0	0	0	0	0	0	0	0	1	0	0	17.769	2.1543	16.796	0	0	0	1	0	0	17.47	2.0148	16.554	2
9032	90.32	0	0	0	0	0	0	0	0	0	0	0	0	0	0	0	0	0	0	0	0	0	0	0	0	10.989	-10.989	19.033	0	0	0	1	0	0	17.761	2.1499	16.789	0	0	0	0	0	0	0	0	0	0	0	0	0	-1	0	-2.0278	-17.891	16.968	0	0	0	0	0	0	0	0	0	2
9033	90.33	0	0	0	0	0	0	10.917	-10.917	18.908	0	0	0	0	0	0	0	0	0	0	0	0	1	0	0	17.755	2.1475	16.785	0	0	0	1	0	0	17.761	2.1499	16.789	0	0	0	0	0	0	0	0	0	0	0	0	0	-1	0	-2.0278	-17.891	16.968	0	0	0	0	0	0	0	0	0	2
9034	90.34	0	0	0	0	0	0	0	0	0	0	0	0	0	0	0	0	0	0	0	0	0	0	0	0	10.989	-10.989	19.033	0	0	0	1	0	0	17.883	2.027	16.961	0	0	0	0	0	0	0	0	0	0	0	0	0	-1	0	-2.0278	-17.891	16.968	0	0	0	1	0	0	17.47	2.0148	16.554	2
9035	90.35	0	0	0	0	0	0	10.917	-10.917	18.908	0	0	0	0	0	0	0	0	0	0	0	0	0	0	0	10.989	-10.989	19.033	0	0	0	1	0	0	17.761	2.1499	16.789	0	0	0	0	0	0	0	0	0	0	0	0	0	-1	0	-2.0278	-17.891	16.968	0	0	0	1	0	0	17.47	2.0148	16.554	2
9036	90.36	0	0	0	0	0	0	0	0	0	0	0	0	0	0	0	0	0	0	0	0	0	1	0	0	17.755	2.1475	16.785	0	0	0	1	0	0	17.761	2.1499	16.789	0	0	0	0	0	0	0	0	0	0	0	0	0	-1	0	-2.0278	-17.891	16.968	0	0	0	1	0	0	17.47	2.0148	16.554	2
9037	90.37	0	0	0	0	0	0	0	0	0	0	0	0	0	0	0	0	0	0	0	0	0	0	0	0	10.989	-10.989	19.033	0	0	0	1	0	0	17.761	2.1499	16.789	0	0	0	0	0	0	0	0	0	0	0	0	0	-1	0	-2.0278	-17.891	16.968	0	0	0	0	0	0	0	0	0	2
9038	90.38	0	0	0	0	0	0	0	0	0	0	0	0	0	0	0	0	0	0	0	0	0	1	0	0	17.755	2.1475	16.785	0	0	0	1	0	0	17.761	2.1499	16.789	0	0	0	0	0	0	0	0	0	0	0	0	0	0	0	0	0	0	0	0	0	0	0	0	0	0	0	2
9039	90.39	0	0	0	0	0	0	0	0	0	0	0	0	0	0	0	0	0	0	0	0	0	0	0	0	10.989	-10.989	19.033	0	0	0	1	0	0	17.883	2.027	16.961	0	0	0	0	0	0	0	0	0	0	0	0	0	0	0	0	0	0	0	0	0	0	0	0	0	0	0	2
9040	90.4	0	0	0	0	0	0	10.917	-10.917	18.908	0	0	0	0	0	0	0	0	0	0	0	0	0	0	0	10.989	-10.989	19.033	0	0	0	1	0	0	17.761	2.1499	16.789	0	0	0	0	0	0	0	0	0	0	0	0	0	-1	0	-2.0278	-17.891	16.968	0	0	0	0	0	0	0	0	0	0
9041	90.41	0	0	0	0	0	0	0	0	0	0	0	0	0	0	0	0	0	0	0	0	0	0	0	0	10.989	-10.989	19.033	0	0	0	1	0	0	17.761	2.1499	16.789	0	0	0	1	0	0	17.883	2.027	16.961	0	0	0	1	0	0	17.769	2.1543	16.796	0	0	0	1	0	0	17.47	2.0148	16.554	2
9042	90.42	0	0	0	0	0	0	0	0	0	0	0	0	0	0	0	0	0	0	0	0	0	1	0	0	17.755	2.1475	16.785	0	0	0	1	0	0	17.883	2.027	16.961	0	0	0	0	0	0	0	0	0	0	0	0	1	-1	0	7.5503	-27.469	31.921	0	0	0	0	0	0	0	0	0	2
9043	90.43	0	0	0	0	0	0	0	0	0	0	0	0	0	0	0	0	0	0	0	0	0	1	0	0	17.755	2.1475	16.785	0	0	0	1	0	0	17.761	2.1499	16.789	0	0	0	0	0	0	0	0	0	0	0	0	1	-1	0	7.5503	-27.469	31.921	0	0	0	0	0	0	0	0	0	2
9044	90.44	0	0	0	0	0	0	0	0	0	0	0	0	0	0	0	0	0	0	0	0	0	0	0	0	10.989	-10.989	19.033	0	0	0	1	0	0	17.761	2.1499	16.789	0	0	0	0	0	0	0	0	0	0	0	0	0	0	0	0	0	0	0	0	0	1	0	0	17.47	2.0148	16.554	2
9045	90.45	0	0	0	0	0	0	10.917	-10.917	18.908	0	0	0	0	0	0	0	0	0	0	0	0	0	0	0	10.989	-10.989	19.033	0	0	0	1	0	0	17.761	2.1499	16.789	0	0	0	0	0	0	0	0	0	0	0	0	0	-1	0	-2.0278	-17.891	16.968	0	0	0	0	0	0	0	0	0	2
9046	90.46	0	0	0	0	0	0	10.917	-10.917	18.908	0	0	0	0	0	0	0	0	0	0	0	0	0	0	0	10.989	-10.989	19.033	0	0	0	1	0	0	17.761	2.1499	16.789	0	0	0	0	0	0	0	0	0	0	0	0	0	0	0	10.994	-10.994	19.042	0	0	0	1	0	0	17.47	2.0148	16.554	2
9047	90.47	0	0	0	0	0	0	0	0	0	0	0	0	0	0	0	0	0	0	0	0	0	0	0	0	10.989	-10.989	19.033	0	0	0	1	0	0	17.761	2.1499	16.789	0	0	0	0	0	0	0	0	0	0	0	0	0	-1	0	-2.0278	-17.891	16.968	0	0	0	0	0	0	0	0	0	2
9048	90.48	0	0	0	0	0	0	0	0	0	0	0	0	0	0	0	0	0	0	0	0	0	1	0	0	17.755	2.1475	16.785	0	0	0	1	0	0	17.761	2.1499	16.789	0	0	0	0	0	0	0	0	0	0	0	0	1	-1	0	7.5503	-27.469	31.921	0	0	0	1	0	0	17.47	2.0148	16.554	2
9049	90.49	0	0	0	0	0	0	0	0	0	0	0	0	0	0	0	0	0	0	0	0	0	0	0	0	10.989	-10.989	19.033	0	0	0	1	0	0	17.761	2.1499	16.789	0	0	0	0	0	0	0	0	0	0	0	0	0	0	0	0	0	0	0	0	0	0	0	0	0	0	0	2
9050	90.5	0	0	0	0	0	0	0	0	0	0	0	0	0	0	0	0	0	0	0	0	0	0	0	0	10.989	-10.989	19.033	0	0	0	1	0	0	17.761	2.1499	16.789	0	0	0	0	0	0	0	0	0	0	0	0	0	0	0	0	0	0	0	0	0	0	0	0	0	0	0	2
9051	90.51	0	0	0	0	0	0	0	0	0	0	0	0	0	0	0	0	0	0	0	0	0	0	0	0	10.989	-10.989	19.033	0	0	0	1	0	0	17.761	2.1499	16.789	0	0	0	0	0	0	0	0	0	0	0	0	0	0	0	0	0	0	0	0	0	0	0	0	0	0	0	2
9052	90.52	0	0	0	0	0	0	0	0	0	0	0	0	0	0	0	0	0	0	0	0	0	0	0	0	10.989	-10.989	19.033	0	0	0	1	0	0	17.761	2.1499	16.789	0	0	0	0	0	0	0	0	0	0	0	0	0	0	0	0	0	0	0	0	0	0	0	0	0	0	0	2
9053	90.53	0	0	0	0	0	0	0	0	0	0	0	0	0	0	0	0	0	0	0	0	0	1	0	0	17.755	2.1475	16.785	0	0	0	1	0	0	17.761	2.1499	16.789	0	0	0	0	0	0	0	0	0	0	0	0	0	0	0	0	0	0	0	0	0	0	0	0	0	0	0	2
9054	90.54	0	0	0	0	0	0	0	0	0	0	0	0	0	0	0	0	0	0	0	0	0	1	0	0	17.755	2.1475	16.785	0	0	0	1	0	0	17.761	2.1499	16.789	0	0	0	0	0	0	0	0	0	0	0	0	0	-1	0	-2.0278	-17.891	16.968	0	0	0	0	0	0	0	0	0	2
9055	90.55	0	0	0	0	0	0	0	0	0	0	0	0	0	0	0	0	0	0	0	0	0	0	0	0	10.989	-10.989	19.033	0	0	0	1	0	0	17.761	2.1499	16.789	0	0	0	0	0	0	0	0	0	0	0	0	0	0	0	0	0	0	0	0	0	0	0	0	0	0	0	2
9056	90.56	0	0	0	0	0	0	0	0	0	0	0	0	0	0	0	0	0	0	0	0	0	1	0	0	17.755	2.1475	16.785	0	0	0	1	0	0	17.761	2.1499	16.789	0	0	0	0	0	0	0	0	0	0	0	0	0	-1	0	-2.0278	-17.891	16.968	0	0	0	1	0	0	17.47	2.0148	16.554	2
9057	90.57	0	0	0	0	0	0	0	0	0	0	0	0	0	0	0	0	0	0	0	0	0	1	0	0	17.755	2.1475	16.785	0	0	0	1	0	0	17.761	2.1499	16.789	0	0	0	0	0	0	0	0	0	0	0	0	0	0	0	0	0	0	0	0	0	0	0	0	0	0	0	0
9058	90.58	0	0	0	0	0	0	0	0	0	0	0	0	0	0	0	0	0	0	0	0	0	0	0	0	10.989	-10.989	19.033	0	0	0	1	0	0	17.761	2.1499	16.789	0	0	0	0	0	0	0	0	0	0	0	0	0	-1	0	-2.0278	-17.891	16.968	0	0	0	1	0	0	17.47	2.0148	16.554	2
9059	90.59	0	0	0	0	0	0	10.917	-10.917	18.908	0	0	0	0	0	0	0	0	0	0	0	0	0	0	0	10.989	-10.989	19.033	0	0	0	1	0	0	17.761	2.1499	16.789	0	0	0	0	0	0	0	0	0	0	0	0	0	0	0	0	0	0	0	0	0	1	0	0	17.47	2.0148	16.554	2
9060	90.6	0	0	0	0	0	0	0	0	0	0	0	0	0	0	0	0	0	0	0	0	0	0	0	0	10.989	-10.989	19.033	0	0	0	1	0	0	17.761	2.1499	16.789	0	0	0	0	0	0	0	0	0	0	0	0	0	0	0	0	0	0	0	0	0	1	0	0	17.47	2.0148	16.554	2
9061	90.61	0	0	0	0	0	0	10.917	-10.917	18.908	0	0	0	0	0	0	0	0	0	0	0	0	1	0	0	17.755	2.1475	16.785	0	0	0	1	0	0	17.761	2.1499	16.789	0	0	0	1	0	0	17.883	2.027	16.961	0	0	0	1	-1	0	7.5503	-27.469	31.921	0	0	0	1	0	0	17.47	2.0148	16.554	2
9062	90.62	0	0	0	0	0	0	0	0	0	0	0	0	0	0	0	0	0	0	0	0	0	0	0	0	10.989	-10.989	19.033	0	0	0	1	0	0	17.883	2.027	16.961	0	0	0	0	0	0	0	0	0	0	0	0	0	-1	0	-2.0278	-17.891	16.968	0	0	0	0	0	0	0	0	0	2
9063	90.63	0	0	0	0	0	0	0	0	0	0	0	0	0	0	0	0	0	0	0	0	0	1	0	0	17.755	2.1475	16.785	0	0	0	1	0	0	17.761	2.1499	16.789	0	0	0	0	0	0	0	0	0	0	0	0	1	-1	0	7.5503	-27.469	31.921	0	0	0	1	0	0	17.47	2.0148	16.554	2
9064	90.64	0	0	0	0	0	0	0	0	0	0	0	0	0	0	0	0	0	0	0	0	0	0	0	0	10.989	-10.989	19.033	0	0	0	1	0	0	17.761	2.1499	16.789	0	0	0	0	0	0	0	0	0	0	0	0	0	0	0	0	0	0	0	0	0	0	0	0	0	0	0	2
9065	90.65	0	0	0	0	0	0	0	0	0	0	0	0	0	0	0	0	0	0	0	0	0	0	0	0	10.989	-10.989	19.033	0	0	0	1	0	0	17.761	2.1499	16.789	0	0	0	0	0	0	0	0	0	0	0	0	0	-1	0	-2.0278	-17.891	16.968	0	0	0	0	0	0	0	0	0	2
9066	90.66	0	0	0	0	0	0	0	0	0	0	0	0	0	0	0	0	0	0	0	0	0	1	0	0	17.755	2.1475	16.785	0	0	0	1	0	0	17.761	2.1499	16.789	0	0	0	0	0	0	0	0	0	0	0	0	0	0	0	0	0	0	0	0	0	1	0	0	17.47	2.0148	16.554	2
9067	90.67	0	0	0	0	0	0	0	0	0	0	0	0	0	0	0	0	0	0	0	0	0	0	0	0	10.989	-10.989	19.033	0	0	0	1	0	0	17.761	2.1499	16.789	0	0	0	0	0	0	0	0	0	0	0	0	1	-1	0	7.5503	-27.469	31.921	0	0	0	0	0	0	0	0	0	2
9068	90.68	0	0	0	0	0	0	0	0	0	0	0	0	0	0	0	0	0	0	0	0	0	1	0	0	17.755	2.1475	16.785	0	0	0	1	0	0	17.761	2.1499	16.789	0	0	0	0	0	0	0	0	0	0	0	0	0	0	0	0	0	0	0	0	0	1	0	0	17.482	2.0162	16.566	2
9069	90.69	0	0	0	0	0	0	0	0	0	0	0	0	0	0	0	0	0	0	0	0	0	0	0	0	10.989	-10.989	19.033	0	0	0	1	0	0	17.761	2.1499	16.789	0	0	0	1	0	0	17.883	2.027	16.961	0	0	0	0	-1	0	-2.0278	-17.891	16.968	0	0	0	0	0	0	0	0	0	2
9070	90.7	0	0	0	0	0	0	0	0	0	0	0	0	0	0	0	0	0	0	0	0	0	0	0	0	10.989	-10.989	19.033	0	0	0	1	0	0	17.761	2.1499	16.789	0	0	0	0	0	0	0	0	0	0	0	0	0	0	0	0	0	0	0	0	0	0	0	0	0	0	0	2
9071	90.71	0	0	0	0	0	0	0	0	0	0	0	0	0	0	0	0	0	0	0	0	0	1	0	0	17.755	2.1475	16.785	0	0	0	1	0	0	17.761	2.1499	16.789	0	0	0	0	0	0	0	0	0	0	0	0	0	0	0	0	0	0	0	0	0	0	0	0	0	0	0	2
9072	90.72	0	0	0	0	0	0	0	0	0	0	0	0	0	0	0	0	0	0	0	0	0	1	0	0	17.755	2.1475	16.785	0	0	0	1	0	0	17.761	2.1499	16.789	0	0	0	0	0	0	0	0	0	0	0	0	1	-1	0	7.5503	-27.469	31.921	0	0	0	0	0	0	0	0	0	2
9073	90.73	0	0	0	0	0	0	10.917	-10.917	18.908	0	0	0	0	0	0	0	0	0	0	0	0	1	0	0	17.755	2.1475	16.785	0	0	0	1	0	0	17.761	2.1499	16.789	0	0	0	0	0	0	0	0	0	0	0	0	0	-1	0	-2.0278	-17.891	16.968	0	0	0	1	0	0	17.47	2.0148	16.554	2
9074	90.74	0	0	0	0	0	0	0	0	0	0	0	0	0	0	0	0	0	0	0	0	0	1	0	0	17.755	2.1475	16.785	0	0	0	1	0	0	17.761	2.1499	16.789	0	0	0	0	0	0	0	0	0	0	0	0	0	0	0	10.994	-10.994	19.042	0	0	0	0	0	0	0	0	0	2
9075	90.75	0	0	0	0	0	0	0	0	0	0	0	0	0	0	0	0	0	0	0	0	0	0	0	0	10.989	-10.989	19.033	0	0	0	1	0	0	17.761	2.1499	16.789	0	0	0	0	0	0	0	0	0	0	0	0	0	0	0	0	0	0	0	0	0	1	0	0	17.47	2.0148	16.554	2
9076	90.76	0	0	0	0	0	0	0	0	0	0	0	0	0	0	0	0	0	0	0	0	0	1	0	0	17.755	2.1475	16.785	0	0	0	1	0	0	17.761	2.1499	16.789	0	0	0	0	0	0	0	0	0	0	0	0	0	-1	0	-2.0278	-17.891	16.968	0	0	0	1	0	0	17.47	2.0148	16.554	2
9077	90.77	0	0	0	0	0	0	0	0	0	0	0	0	0	0	0	0	0	0	0	0	0	0	0	0	10.989	-10.989	19.033	0	0	0	1	0	0	17.761	2.1499	16.789	0	0	0	0	0	0	0	0	0	0	0	0	0	0	0	0	0	0	0	0	0	0	0	0	0	0	0	2
9078	90.78	0	0	0	0	0	0	0	0	0	0	0	0	0	0	0	0	0	0	0	0	0	1	0	0	17.755	2.1475	16.785	0	0	0	1	0	0	17.761	2.1499	16.789	0	0	0	0	0	0	0	0	0	0	0	0	0	0	0	0	0	0	0	0	0	1	0	0	17.47	2.0148	16.554	2
9079	90.79	0	0	0	0	0	0	0	0	0	0	0	0	0	0	0	0	0	0	0	0	0	0	0	0	10.989	-10.989	19.033	0	0	0	1	0	0	17.761	2.1499	16.789	0	0	0	0	0	0	0	0	0	0	0	0	0	0	0	10.994	-10.994	19.042	0	0	0	0	0	0	0	0	0	2
9080	90.8	0	0	0	0	0	0	0	0	0	0	0	0	0	0	0	0	0	0	0	0	0	0	0	0	10.989	-10.989	19.033	0	0	0	1	0	0	17.761	2.1499	16.789	0	0	0	0	0	0	0	0	0	0	0	0	0	0	0	10.994	-10.994	19.042	0	0	0	0	0	0	0	0	0	2
9081	90.81	0	0	0	0	0	0	0	0	0	0	0	0	0	0	0	0	0	0	0	0	0	1	0	0	17.755	2.1475	16.785	0	0	0	1	0	0	17.761	2.1499	16.789	0	0	0	0	0	0	0	0	0	0	0	0	0	-1	0	-2.0278	-17.891	16.968	0	0	0	0	0	0	0	0	0	2
9082	90.82	0	0	0	0	0	0	0	0	0	0	0	0	0	0	0	0	0	0	0	0	0	0	0	0	10.989	-10.989	19.033	0	0	0	1	0	0	17.761	2.1499	16.789	0	0	0	0	0	0	0	0	0	0	0	0	0	-1	0	-2.0278	-17.891	16.968	0	0	0	0	0	0	0	0	0	2
9083	90.83	0	0	0	0	0	0	10.917	-10.917	18.908	0	0	0	0	0	0	0	0	0	0	0	0	1	0	0	17.755	2.1475	16.785	0	0	0	1	0	0	17.761	2.1499	16.789	0	0	0	0	0	0	0	0	0	0	0	0	0	0	0	10.994	-10.994	19.042	0	0	0	1	0	0	17.47	2.0148	16.554	2
9084	90.84	0	0	0	0	0	0	0	0	0	0	0	0	0	0	0	0	0	0	0	0	0	0	0	0	10.989	-10.989	19.033	0	0	0	1	0	0	17.761	2.1499	16.789	0	0	0	0	0	0	0	0	0	0	0	0	0	0	0	0	0	0	0	0	0	0	0	0	0	0	0	2
9085	90.85	0	0	0	0	0	0	0	0	0	0	0	0	0	0	0	0	0	0	0	0	0	0	0	0	10.989	-10.989	19.033	0	0	0	1	0	0	17.761	2.1499	16.789	0	0	0	0	0	0	0	0	0	0	0	0	1	-1	0	7.5503	-27.469	31.921	0	0	0	0	0	0	0	0	0	2
9086	90.86	0	0	0	0	0	0	10.917	-10.917	18.908	0	0	0	0	0	0	0	0	0	0	0	0	1	0	0	17.755	2.1475	16.785	0	0	0	1	0	0	17.761	2.1499	16.789	0	0	0	0	0	0	0	0	0	0	0	0	0	0	0	10.994	-10.994	19.042	0	0	0	0	0	0	0	0	0	2
9087	90.87	0	0	0	0	0	0	0	0	0	0	0	0	0	0	0	0	0	0	0	0	0	0	0	0	10.989	-10.989	19.033	0	0	0	1	0	0	17.761	2.1499	16.789	0	0	0	0	0	0	0	0	0	0	0	0	0	-1	0	-2.0278	-17.891	16.968	0	0	0	0	0	0	0	0	0	2
9088	90.88	0	0	0	0	0	0	0	0	0	0	0	0	0	0	0	0	0	0	0	0	0	1	0	0	17.755	2.1475	16.785	0	0	0	1	0	0	17.761	2.1499	16.789	0	0	0	0	0	0	0	0	0	0	0	0	0	-1	0	-2.0278	-17.891	16.968	0	0	0	1	0	0	17.47	2.0148	16.554	2
9089	90.89	0	0	0	0	0	0	0	0	0	0	0	0	0	0	0	0	0	0	0	0	0	1	0	0	17.755	2.1475	16.785	0	0	0	1	0	0	17.761	2.1499	16.789	0	0	0	0	0	0	0	0	0	0	0	0	0	0	0	0	0	0	0	0	0	1	0	0	17.47	2.0148	16.554	2
9090	90.9	0	0	0	0	0	0	0	0	0	0	0	0	0	0	0	0	0	0	0	0	0	1	0	0	17.755	2.1475	16.785	0	0	0	1	0	0	17.883	2.027	16.961	0	0	0	0	0	0	0	0	0	0	0	0	1	-1	0	7.5503	-27.469	31.921	0	0	0	0	0	0	0	0	0	2
9091	90.91	0	0	0	0	0	0	0	0	0	0	0	0	0	0	0	0	0	0	0	0	0	0	0	0	10.989	-10.989	19.033	0	0	0	1	0	0	17.761	2.1499	16.789	0	0	0	0	0	0	0	0	0	0	0	0	0	0	0	0	0	0	0	0	0	1	0	0	17.47	2.0148	16.554	2
9092	90.92	0	0	0	0	0	0	0	0	0	0	0	0	0	0	0	0	0	0	0	0	0	1	0	0	17.755	2.1475	16.785	0	0	0	1	0	0	17.761	2.1499	16.789	0	0	0	0	0	0	0	0	0	0	0	0	0	0	0	0	0	0	0	0	0	0	0	0	0	0	0	2
9093	90.93	0	0	0	0	0	0	0	0	0	0	0	0	0	0	0	0	0	0	0	0	0	1	0	0	17.755	2.1475	16.785	0	0	0	1	0	0	17.761	2.1499	16.789	0	0	0	0	0	0	0	0	0	0	0	0	0	0	0	0	0	0	0	0	0	1	0	0	17.47	2.0148	16.554	0
9094	90.94	0	0	0	0	0	0	0	0	0	0	0	0	0	0	0	0	0	0	0	0	0	0	0	0	10.989	-10.989	19.033	0	0	0	1	0	0	17.761	2.1499	16.789	0	0	0	0	0	0	0	0	0	0	0	0	0	0	0	0	0	0	0	0	0	1	0	0	17.47	2.0148	16.554	2
9095	90.95	0	0	0	0	0	0	0	0	0	0	0	0	0	0	0	0	0	0	0	0	0	1	0	0	17.755	2.1475	16.785	0	0	0	1	0	0	17.761	2.1499	16.789	0	0	0	0	0	0	0	0	0	0	0	0	0	0	0	0	0	0	0	0	0	0	0	0	0	0	0	2
9096	90.96	0	0	0	0	0	0	10.917	-10.917	18.908	0	0	0	0	0	0	0	0	0	0	0	0	1	0	0	17.755	2.1475	16.785	0	0	0	1	0	0	17.761	2.1499	16.789	0	0	0	1	0	0	17.883	2.027	16.961	0	0	0	0	0	0	11.266	-11.261	19.508	0	0	0	1	0	0	17.47	2.0148	16.554	2
9097	90.97	0	0	0	0	0	0	0	0	0	0	0	0	0	0	0	0	0	0	0	0	0	0	0	0	10.989	-10.989	19.033	0	0	0	1	0	0	17.883	2.027	16.961	0	0	0	0	0	0	0	0	0	0	0	0	0	0	0	0	0	0	0	0	0	0	0	0	0	0	0	2
9098	90.98	0	0	0	0	0	0	10.917	-10.917	18.908	0	0	0	0	0	0	0	0	0	0	0	0	1	0	0	17.755	2.1475	16.785	0	0	0	1	0	0	17.761	2.1499	16.789	0	0	0	0	0	0	0	0	0	0	0	0	0	0	0	10.994	-10.994	19.042	0	0	0	0	0	0	0	0	0	2
9099	90.99	0	0	0	0	0	0	0	0	0	0	0	0	0	0	0	0	0	0	0	0	0	0	0	0	10.989	-10.989	19.033	0	0	0	1	0	0	17.761	2.1499	16.789	0	0	0	0	0	0	0	0	0	0	0	0	0	-1	0	-2.0278	-17.891	16.968	0	0	0	1	0	0	17.47	2.0148	16.554	2
9100	91	0	0	0	0	0	0	0	0	0	0	0	0	0	0	0	0	0	0	0	0	0	1	0	0	17.755	2.1475	16.785	0	0	0	1	0	0	17.761	2.1499	16.789	0	0	0	0	0	0	0	0	0	0	0	0	0	0	0	0	0	0	0	0	0	0	0	0	0	0	0	2
9101	91.01	0	0	0	0	0	0	0	0	0	0	0	0	0	0	0	0	0	0	0	0	0	1	0	0	17.755	2.1475	16.785	0	0	0	1	0	0	17.761	2.1499	16.789	0	0	0	0	0	0	0	0	0	0	0	0	0	0	0	10.994	-10.994	19.042	0	0	0	1	0	0	17.47	2.0148	16.554	2
9102	91.02	0	0	0	0	0	0	0	0	0	0	0	0	0	0	0	0	0	0	0	0	0	0	0	0	10.989	-10.989	19.033	0	0	0	1	0	0	17.761	2.1499	16.789	0	0	0	0	0	0	0	0	0	0	0	0	0	0	0	0	0	0	0	0	0	0	0	0	0	0	0	2
9103	91.03	0	0	0	0	0	0	10.917	-10.917	18.908	0	0	0	0	0	0	0	0	0	0	0	0	1	0	0	17.755	2.1475	16.785	0	0	0	1	0	0	17.761	2.1499	16.789	0	0	0	0	0	0	0	0	0	0	0	0	0	0	0	10.994	-10.994	19.042	0	0	0	1	0	0	17.47	2.0148	16.554	2
9104	91.04	0	0	0	0	0	0	0	0	0	0	0	0	0	0	0	0	0	0	0	0	0	0	0	0	10.989	-10.989	19.033	0	0	0	1	0	0	17.761	2.1499	16.789	0	0	0	0	0	0	0	0	0	0	0	0	0	-1	0	-2.0278	-17.891	16.968	0	0	0	1	0	0	17.47	2.0148	16.554	2
9105	91.05	0	0	0	0	0	0	0	0	0	0	0	0	0	0	0	0	0	0	0	0	0	0	0	0	10.989	-10.989	19.033	0	0	0	1	0	0	17.761	2.1499	16.789	0	0	0	0	0	0	0	0	0	0	0	0	1	-1	0	7.5503	-27.469	31.921	0	0	0	0	0	0	0	0	0	2
9106	91.06	0	0	0	0	0	0	0	0	0	0	0	0	0	0	0	0	0	0	0	0	0	1	0	0	17.755	2.1475	16.785	0	0	0	1	0	0	17.761	2.1499	16.789	0	0	0	1	0	0	17.883	2.027	16.961	0	0	0	0	0	0	10.994	-10.994	19.042	0	0	0	1	0	0	17.47	2.0148	16.554	2
9107	91.07	0	0	0	0	0	0	10.917	-10.917	18.908	0	0	0	0	0	0	0	0	0	0	0	0	0	0	0	10.989	-10.989	19.033	0	0	0	1	0	0	17.761	2.1499	16.789	0	0	0	0	0	0	0	0	0	0	0	0	0	0	0	0	0	0	0	0	0	0	0	0	0	0	0	2
9108	91.08	0	0	0	0	0	0	0	0	0	0	0	0	0	0	0	0	0	0	0	0	0	1	0	0	17.755	2.1475	16.785	0	0	0	1	0	0	17.761	2.1499	16.789	0	0	0	0	0	0	0	0	0	0	0	0	0	-1	0	-2.0278	-17.891	16.968	0	0	0	1	0	0	17.47	2.0148	16.554	2
9109	91.09	0	0	0	0	0	0	10.917	-10.917	18.908	0	0	0	0	0	0	0	0	0	0	0	0	1	0	0	17.755	2.1475	16.785	0	0	0	1	0	0	17.761	2.1499	16.789	0	0	0	0	0	0	0	0	0	0	0	0	0	0	0	0	0	0	0	0	0	1	0	0	17.47	2.0148	16.554	2
9110	91.1	0	0	0	0	0	0	0	0	0	0	0	0	0	0	0	0	0	0	0	0	0	0	0	0	10.989	-10.989	19.033	0	0	0	1	0	0	17.761	2.1499	16.789	0	0	0	0	0	0	0	0	0	0	0	0	0	-1	0	-2.0278	-17.891	16.968	0	0	0	0	0	0	0	0	0	2
9111	91.11	0	0	0	0	0	0	0	0	0	0	0	0	0	0	0	0	0	0	0	0	0	1	0	0	17.755	2.1475	16.785	0	0	0	1	0	0	17.761	2.1499	16.789	0	0	0	0	0	0	0	0	0	0	0	0	0	0	0	10.994	-10.994	19.042	0	0	0	1	0	0	17.47	2.0148	16.554	2
9112	91.12	0	0	0	0	0	0	0	0	0	0	0	0	0	0	0	0	0	0	0	0	0	0	0	0	10.989	-10.989	19.033	0	0	0	1	0	0	17.761	2.1499	16.789	0	0	0	0	0	0	0	0	0	0	0	0	0	-1	0	-2.0278	-17.891	16.968	0	0	0	0	0	0	0	0	0	2
9113	91.13	0	0	0	0	0	0	10.917	-10.917	18.908	0	0	0	0	0	0	0	0	0	0	0	0	0	0	0	10.989	-10.989	19.033	0	0	0	0	0	0	10.991	-10.991	19.037	0	0	0	0	0	0	0	0	0	0	0	0	0	0	0	10.994	-10.994	19.042	0	0	0	1	0	0	17.47	2.0148	16.554	2
9114	91.14	0	0	0	0	0	0	0	0	0	0	0	0	0	0	0	0	0	0	0	0	0	1	0	0	17.755	2.1475	16.785	0	0	0	1	0	0	17.761	2.1499	16.789	0	0	0	0	0	0	0	0	0	0	0	0	0	0	0	10.994	-10.994	19.042	0	0	0	1	0	0	17.47	2.0148	16.554	2
9115	91.15	0	0	0	0	0	0	0	0	0	0	0	0	0	0	0	0	0	0	0	0	0	0	0	0	10.989	-10.989	19.033	0	0	0	1	0	0	17.761	2.1499	16.789	0	0	0	0	0	0	0	0	0	0	0	0	0	-1	0	-2.0278	-17.891	16.968	0	0	0	0	0	0	0	0	0	2
9116	91.16	0	0	0	0	0	0	0	0	0	0	0	0	0	0	0	0	0	0	0	0	0	1	0	0	17.755	2.1475	16.785	0	0	0	1	0	0	17.761	2.1499	16.789	0	0	0	0	0	0	0	0	0	0	0	0	0	0	0	10.994	-10.994	19.042	0	0	0	0	0	0	0	0	0	2
9117	91.17	0	0	0	0	0	0	0	0	0	0	0	0	0	0	0	0	0	0	0	0	0	0	0	0	10.989	-10.989	19.033	0	0	0	1	0	0	17.761	2.1499	16.789	0	0	0	0	0	0	0	0	0	0	0	0	0	-1	0	-2.0278	-17.891	16.968	0	0	0	0	0	0	0	0	0	2
9118	91.18	0	0	0	0	0	0	0	0	0	0	0	0	0	0	0	0	0	0	0	0	0	1	0	0	17.755	2.1475	16.785	0	0	0	1	0	0	17.761	2.1499	16.789	0	0	0	0	0	0	0	0	0	0	0	0	0	0	0	10.994	-10.994	19.042	0	0	0	1	0	0	17.47	2.0148	16.554	2
9119	91.19	0	0	0	0	0	0	0	0	0	0	0	0	0	0	0	0	0	0	0	0	0	0	0	0	10.989	-10.989	19.033	0	0	0	1	0	0	17.761	2.1499	16.789	0	0	0	0	0	0	0	0	0	0	0	0	0	-1	0	-2.0278	-17.891	16.968	0	0	0	0	0	0	0	0	0	2
9120	91.2	0	0	0	0	0	0	10.917	-10.917	18.908	0	0	0	0	0	0	0	0	0	0	0	0	0	0	0	10.989	-10.989	19.033	0	0	0	1	0	0	17.761	2.1499	16.789	0	0	0	0	0	0	0	0	0	0	0	0	0	-1	0	-2.0278	-17.891	16.968	0	0	0	1	0	0	17.47	2.0148	16.554	2
9121	91.21	0	0	0	0	0	0	0	0	0	0	0	0	0	0	0	0	0	0	0	0	0	1	0	0	17.755	2.1475	16.785	0	0	0	1	0	0	17.761	2.1499	16.789	0	0	0	0	0	0	0	0	0	0	0	0	0	-1	0	-2.0278	-17.891	16.968	0	0	0	0	0	0	0	0	0	0
9122	91.22	0	0	0	0	0	0	0	0	0	0	0	0	0	0	0	0	0	0	0	0	0	0	0	0	10.989	-10.989	19.033	0	0	0	1	0	0	17.761	2.1499	16.789	0	0	0	0	0	0	0	0	0	0	0	0	1	-1	0	7.5503	-27.469	31.921	0	0	0	0	0	0	0	0	0	2
9123	91.23	0	0	0	0	0	0	0	0	0	0	0	0	0	0	0	0	0	0	0	0	0	1	0	0	17.755	2.1475	16.785	0	0	0	1	0	0	17.761	2.1499	16.789	0	0	0	0	0	0	0	0	0	0	0	0	1	-1	0	7.5503	-27.469	31.921	0	0	0	0	0	0	0	0	0	2
9124	91.24	0	0	0	0	0	0	0	0	0	0	0	0	0	0	0	0	0	0	0	0	0	0	0	0	10.989	-10.989	19.033	0	0	0	1	0	0	17.761	2.1499	16.789	0	0	0	0	0	0	0	0	0	0	0	0	0	0	0	10.994	-10.994	19.042	0	0	0	1	0	0	17.47	2.0148	16.554	2
9125	91.25	0	0	0	0	0	0	10.917	-10.917	18.908	0	0	0	0	0	0	0	0	0	0	0	0	1	0	0	17.755	2.1475	16.785	0	0	0	1	0	0	17.761	2.1499	16.789	0	0	0	1	0	0	17.883	2.027	16.961	0	0	0	0	-1	0	-2.0278	-17.891	16.968	0	0	0	0	0	0	0	0	0	2
9126	91.26	0	0	0	0	0	0	0	0	0	0	0	0	0	0	0	0	0	0	0	0	0	1	0	0	17.755	2.1475	16.785	0	0	0	1	0	0	17.761	2.1499	16.789	0	0	0	0	0	0	0	0	0	0	0	0	0	0	0	0	0	0	0	0	0	1	0	0	17.47	2.0148	16.554	2
9127	91.27	0	0	0	0	0	0	0	0	0	0	0	0	0	0	0	0	0	0	0	0	0	0	0	0	10.989	-10.989	19.033	0	0	0	1	0	0	17.761	2.1499	16.789	0	0	0	0	0	0	0	0	0	0	0	0	0	-1	0	-2.0278	-17.891	16.968	0	0	0	0	0	0	0	0	0	2
9128	91.28	0	0	0	0	0	0	0	0	0	0	0	0	0	0	0	0	0	0	0	0	0	1	0	0	17.755	2.1475	16.785	0	0	0	1	0	0	17.761	2.1499	16.789	0	0	0	0	0	0	0	0	0	0	0	0	0	-1	0	-2.0278	-17.891	16.968	0	0	0	1	0	0	17.47	2.0148	16.554	2
9129	91.29	0	0	0	0	0	0	0	0	0	0	0	0	0	0	0	0	0	0	0	0	0	1	0	0	17.755	2.1475	16.785	0	0	0	1	0	0	17.761	2.1499	16.789	0	0	0	0	0	0	0	0	0	0	0	0	0	-1	0	-2.0278	-17.891	16.968	0	0	0	1	0	0	17.47	2.0148	16.554	2
9130	91.3	0	0	0	0	0	0	0	0	0	0	0	0	0	0	0	0	0	0	0	0	0	1	0	0	17.755	2.1475	16.785	0	0	0	1	0	0	17.761	2.1499	16.789	0	0	0	0	0	0	0	0	0	0	0	0	0	-1	0	-2.0278	-17.891	16.968	0	0	0	0	0	0	0	0	0	2
9131	91.31	0	0	0	0	0	0	10.917	-10.917	18.908	0	0	0	0	0	0	0	0	0	0	0	0	1	0	0	17.755	2.1475	16.785	0	0	0	1	0	0	17.761	2.1499	16.789	0	0	0	0	0	0	0	0	0	0	0	0	0	0	0	10.994	-10.994	19.042	0	0	0	1	0	0	17.47	2.0148	16.554	2
9132	91.32	0	0	0	0	0	0	0	0	0	0	0	0	0	0	0	0	0	0	0	0	0	1	0	0	17.755	2.1475	16.785	0	0	0	1	0	0	17.761	2.1499	16.789	0	0	0	0	0	0	0	0	0	0	0	0	0	0	0	10.994	-10.994	19.042	0	0	0	0	0	0	0	0	0	2
9133	91.33	0	0	0	0	0	0	0	0	0	0	0	0	0	0	0	0	0	0	0	0	0	1	0	0	17.755	2.1475	16.785	0	0	0	1	0	0	17.761	2.1499	16.789	0	0	0	0	0	0	0	0	0	0	0	0	0	-1	0	-2.0278	-17.891	16.968	0	0	0	1	0	0	17.47	2.0148	16.554	2
9134	91.34	0	0	0	0	0	0	10.917	-10.917	18.908	0	0	0	0	0	0	0	0	0	0	0	0	1	0	0	17.755	2.1475	16.785	0	0	0	1	0	0	17.761	2.1499	16.789	0	0	0	0	0	0	0	0	0	0	0	0	0	-1	0	-2.0278	-17.891	16.968	0	0	0	1	0	0	17.47	2.0148	16.554	2
9135	91.35	0	0	0	0	0	0	0	0	0	0	0	0	0	0	0	0	0	0	0	0	0	0	0	0	10.989	-10.989	19.033	0	0	0	1	0	0	17.761	2.1499	16.789	0	0	0	0	0	0	0	0	0	0	0	0	0	0	0	10.994	-10.994	19.042	0	0	0	0	0	0	0	0	0	2
9136	91.36	0	0	0	0	0	0	0	0	0	0	0	0	0	0	0	0	0	0	0	0	0	1	0	0	17.755	2.1475	16.785	0	0	0	1	0	0	17.761	2.1499	16.789	0	0	0	0	0	0	0	0	0	0	0	0	0	-1	0	-2.0278	-17.891	16.968	0	0	0	1	0	0	17.47	2.0148	16.554	2
9137	91.37	0	0	0	0	0	0	0	0	0	0	0	0	0	0	0	0	0	0	0	0	0	0	0	0	10.989	-10.989	19.033	0	0	0	1	0	0	17.883	2.027	16.961	0	0	0	0	0	0	0	0	0	0	0	0	0	0	0	0	0	0	0	0	0	0	0	0	0	0	0	3
9138	91.38	0	0	0	0	0	0	10.917	-10.917	18.908	0	0	0	0	0	0	0	0	0	0	0	0	1	0	0	17.755	2.1475	16.785	0	0	0	1	0	0	17.761	2.1499	16.789	0	0	0	0	0	0	0	0	0	0	0	0	0	0	0	0	0	0	0	0	0	0	0	0	0	0	0	2
9139	91.39	0	0	0	0	0	0	0	0	0	0	0	0	0	0	0	0	0	0	0	0	0	1	0	0	17.755	2.1475	16.785	0	0	0	1	0	0	17.761	2.1499	16.789	0	0	0	0	0	0	0	0	0	0	0	0	0	0	0	0	0	0	0	0	0	0	0	0	0	0	0	2
9140	91.4	0	0	0	0	0	0	0	0	0	0	0	0	0	0	0	0	0	0	0	0	0	0	0	0	10.989	-10.989	19.033	0	0	0	1	0	0	17.761	2.1499	16.789	0	0	0	0	0	0	0	0	0	0	0	0	0	-1	0	-2.0278	-17.891	16.968	0	0	0	0	0	0	0	0	0	2
9141	91.41	0	0	0	0	0	0	0	0	0	0	0	0	0	0	0	0	0	0	0	0	0	1	0	0	17.755	2.1475	16.785	0	0	0	1	0	0	17.761	2.1499	16.789	0	0	0	1	0	0	17.883	2.027	16.961	0	0	0	0	-1	0	-2.0278	-17.891	16.968	0	0	0	0	0	0	0	0	0	2
9142	91.42	0	0	0	0	0	0	0	0	0	0	0	0	0	0	0	0	0	0	0	0	0	0	0	0	10.989	-10.989	19.033	0	0	0	1	0	0	17.761	2.1499	16.789	0	0	0	0	0	0	0	0	0	0	0	0	0	0	0	10.994	-10.994	19.042	0	0	0	0	0	0	0	0	0	2
9143	91.43	0	0	0	0	0	0	0	0	0	0	0	0	0	0	0	0	0	0	0	0	0	1	0	0	17.755	2.1475	16.785	0	0	0	1	0	0	17.761	2.1499	16.789	0	0	0	0	0	0	0	0	0	0	0	0	0	0	0	0	0	0	0	0	0	1	0	0	17.47	2.0148	16.554	2
9144	91.44	0	0	0	0	0	0	0	0	0	0	0	0	0	0	0	0	0	0	0	0	0	0	0	0	10.989	-10.989	19.033	0	0	0	1	0	0	17.761	2.1499	16.789	0	0	0	0	0	0	0	0	0	0	0	0	0	-1	0	-2.0278	-17.891	16.968	0	0	0	0	0	0	0	0	0	2
9145	91.45	0	0	0	0	0	0	0	0	0	0	0	0	0	0	0	0	0	0	0	0	0	1	0	0	17.755	2.1475	16.785	0	0	0	1	0	0	17.761	2.1499	16.789	0	0	0	0	0	0	0	0	0	0	0	0	0	0	0	10.994	-10.994	19.042	0	0	0	0	0	0	0	0	0	2
9146	91.46	0	0	0	0	0	0	0	0	0	0	0	0	0	0	0	0	0	0	0	0	0	1	0	0	17.755	2.1475	16.785	0	0	0	1	0	0	17.761	2.1499	16.789	0	0	0	0	0	0	0	0	0	0	0	0	1	-1	0	7.5503	-27.469	31.921	0	0	0	1	0	0	17.482	2.0162	16.566	2
9147	91.47	0	0	0	0	0	0	0	0	0	0	0	0	0	0	0	0	0	0	0	0	0	0	0	0	10.989	-10.989	19.033	0	0	0	1	0	0	17.761	2.1499	16.789	0	0	0	0	0	0	0	0	0	0	0	0	0	0	0	0	0	0	0	0	0	0	0	0	0	0	0	2
9148	91.48	0	0	0	0	0	0	0	0	0	0	0	0	0	0	0	0	0	0	0	0	0	0	0	0	10.989	-10.989	19.033	0	0	0	1	0	0	17.761	2.1499	16.789	0	0	0	0	0	0	0	0	0	0	0	0	1	-1	0	7.5503	-27.469	31.921	0	0	0	0	0	0	0	0	0	2
9149	91.49	0	0	0	0	0	0	0	0	0	0	0	0	0	0	0	0	0	0	0	0	0	1	0	0	17.755	2.1475	16.785	0	0	0	1	0	0	17.761	2.1499	16.789	0	0	0	0	0	0	0	0	0	0	0	0	0	0	0	0	0	0	0	0	0	0	0	0	0	0	0	2
9150	91.5	0	0	0	0	0	0	0	0	0	0	0	0	0	0	0	0	0	0	0	0	0	0	0	0	10.989	-10.989	19.033	0	0	0	1	0	0	17.761	2.1499	16.789	0	0	0	0	0	0	0	0	0	0	0	0	0	0	0	10.994	-10.994	19.042	0	0	0	1	0	0	17.47	2.0148	16.554	2
9151	91.51	0	0	0	0	0	0	0	0	0	0	0	0	0	0	0	0	0	0	0	0	0	1	0	0	17.755	2.1475	16.785	0	0	0	1	0	0	17.761	2.1499	16.789	0	0	0	1	0	0	17.883	2.027	16.961	0	0	0	0	0	0	0	0	0	0	0	0	0	0	0	0	0	0	2
9152	91.52	0	0	0	0	0	0	0	0	0	0	0	0	0	0	0	0	0	0	0	0	0	0	0	0	10.989	-10.989	19.033	0	0	0	1	0	0	17.761	2.1499	16.789	0	0	0	0	0	0	0	0	0	0	0	0	0	-1	0	-2.0278	-17.891	16.968	0	0	0	1	0	0	17.47	2.0148	16.554	2
9153	91.53	0	0	0	0	0	0	0	0	0	0	0	0	0	0	0	0	0	0	0	0	0	1	0	0	17.755	2.1475	16.785	0	0	0	1	0	0	17.761	2.1499	16.789	0	0	0	0	0	0	0	0	0	0	0	0	1	-1	0	7.5503	-27.469	31.921	0	0	0	1	0	0	17.47	2.0148	16.554	2
9154	91.54	0	0	0	0	0	0	10.917	-10.917	18.908	0	0	0	0	0	0	0	0	0	0	0	0	1	0	0	17.755	2.1475	16.785	0	0	0	1	0	0	17.761	2.1499	16.789	0	0	0	0	0	0	0	0	0	0	0	0	1	-1	0	7.5503	-27.469	31.921	0	0	0	1	0	0	17.47	2.0148	16.554	2
9155	91.55	0	0	0	0	0	0	0	0	0	0	0	0	0	0	0	0	0	0	0	0	0	0	0	0	10.989	-10.989	19.033	0	0	0	1	0	0	17.761	2.1499	16.789	0	0	0	0	0	0	0	0	0	0	0	0	0	-1	0	-2.0278	-17.891	16.968	0	0	0	1	0	0	17.47	2.0148	16.554	2
9156	91.56	0	0	0	0	0	0	10.917	-10.917	18.908	0	0	0	0	0	0	0	0	0	0	0	0	1	0	0	17.755	2.1475	16.785	0	0	0	1	0	0	17.761	2.1499	16.789	0	0	0	0	0	0	0	0	0	0	0	0	0	0	0	10.994	-10.994	19.042	0	0	0	1	0	0	17.47	2.0148	16.554	2
9157	91.57	0	0	0	0	0	0	0	0	0	0	0	0	0	0	0	0	0	0	0	0	0	0	0	0	10.989	-10.989	19.033	0	0	0	1	0	0	17.761	2.1499	16.789	0	0	0	0	0	0	0	0	0	0	0	0	0	-1	0	-2.0278	-17.891	16.968	0	0	0	0	0	0	0	0	0	2
9158	91.58	0	0	0	0	0	0	0	0	0	0	0	0	0	0	0	0	0	0	0	0	0	1	0	0	17.755	2.1475	16.785	0	0	0	1	0	0	17.761	2.1499	16.789	0	0	0	0	0	0	0	0	0	0	0	0	0	0	0	0	0	0	0	0	0	0	0	0	0	0	0	2
9159	91.59	0	0	0	0	0	0	10.917	-10.917	18.908	0	0	0	0	0	0	0	0	0	0	0	0	0	0	0	10.989	-10.989	19.033	0	0	0	1	0	0	17.761	2.1499	16.789	0	0	0	0	0	0	0	0	0	0	0	0	0	-1	0	-2.0278	-17.891	16.968	0	0	0	0	0	0	0	0	0	2
9160	91.6	0	0	0	0	0	0	10.917	-10.917	18.908	0	0	0	0	0	0	0	0	0	0	0	0	1	0	0	17.755	2.1475	16.785	0	0	0	1	0	0	17.761	2.1499	16.789	0	0	0	0	0	0	0	0	0	0	0	0	0	0	0	0	0	0	0	0	0	1	0	0	17.47	2.0148	16.554	2
9161	91.61	0	0	0	0	0	0	0	0	0	0	0	0	0	0	0	0	0	0	0	0	0	1	0	0	17.755	2.1475	16.785	0	0	0	1	0	0	17.761	2.1499	16.789	0	0	0	0	0	0	0	0	0	0	0	0	0	0	0	0	0	0	0	0	0	0	0	0	0	0	0	2
9162	91.62	0	0	0	0	0	0	0	0	0	0	0	0	0	0	0	0	0	0	0	0	0	1	0	0	17.755	2.1475	16.785	0	0	0	1	0	0	17.761	2.1499	16.789	0	0	0	0	0	0	0	0	0	0	0	0	0	-1	0	-2.0278	-17.891	16.968	0	0	0	1	0	0	17.47	2.0148	16.554	2
9163	91.63	0	0	0	0	0	0	0	0	0	0	0	0	0	0	0	0	0	0	0	0	0	1	0	0	17.755	2.1475	16.785	0	0	0	1	0	0	17.761	2.1499	16.789	0	0	0	0	0	0	0	0	0	0	0	0	0	0	0	0	0	0	0	0	0	1	0	0	17.47	2.0148	16.554	2
9164	91.64	0	0	0	0	0	0	0	0	0	0	0	0	0	0	0	0	0	0	0	0	0	0	0	0	10.989	-10.989	19.033	0	0	0	1	0	0	17.761	2.1499	16.789	0	0	0	0	0	0	0	0	0	0	0	0	0	-1	0	-2.0278	-17.891	16.968	0	0	0	0	0	0	0	0	0	2
9165	91.65	0	0	0	0	0	0	10.917	-10.917	18.908	0	0	0	0	0	0	0	0	0	0	0	0	1	0	0	17.755	2.1475	16.785	0	0	0	1	0	0	17.761	2.1499	16.789	0	0	0	0	0	0	0	0	0	0	0	0	0	0	0	0	0	0	0	0	0	0	0	0	0	0	0	2
9166	91.66	0	0	0	0	0	0	0	0	0	0	0	0	0	0	0	0	0	0	0	0	0	1	0	0	17.755	2.1475	16.785	0	0	0	1	0	0	17.761	2.1499	16.789	0	0	0	0	0	0	0	0	0	0	0	0	0	-1	0	-2.0278	-17.891	16.968	0	0	0	1	0	0	17.47	2.0148	16.554	2
9167	91.67	0	0	0	0	0	0	0	0	0	0	0	0	0	0	0	0	0	0	0	0	0	0	0	0	10.989	-10.989	19.033	0	0	0	1	0	0	17.761	2.1499	16.789	0	0	0	0	0	0	0	0	0	0	0	0	0	0	0	0	0	0	0	0	0	0	0	0	0	0	0	2
9168	91.68	0	0	0	0	0	0	10.917	-10.917	18.908	0	0	0	0	0	0	0	0	0	0	0	0	1	0	0	17.755	2.1475	16.785	0	0	0	1	0	0	17.761	2.1499	16.789	0	0	0	0	0	0	0	0	0	0	0	0	0	0	0	0	0	0	0	0	0	0	0	0	0	0	0	2
9169	91.69	0	0	0	0	0	0	0	0	0	0	0	0	0	0	0	0	0	0	0	0	0	0	0	0	10.989	-10.989	19.033	0	0	0	1	0	0	17.761	2.1499	16.789	0	0	0	0	0	0	0	0	0	0	0	0	0	-1	0	-2.0278	-17.891	16.968	0	0	0	1	0	0	17.47	2.0148	16.554	2
9170	91.7	0	0	0	0	0	0	10.917	-10.917	18.908	0	0	0	0	0	0	0	0	0	0	0	0	0	0	0	10.989	-10.989	19.033	0	0	0	1	0	0	17.761	2.1499	16.789	0	0	0	0	0	0	0	0	0	0	0	0	0	0	0	0	0	0	0	0	0	0	0	0	0	0	0	2
9171	91.71	0	0	0	0	0	0	0	0	0	0	0	0	0	0	0	0	0	0	0	0	0	1	0	0	17.755	2.1475	16.785	0	0	0	1	0	0	17.761	2.1499	16.789	0	0	0	1	0	0	17.883	2.027	16.961	0	0	0	0	0	0	0	0	0	0	0	0	0	0	0	0	0	0	2
9172	91.72	0	0	0	0	0	0	0	0	0	0	0	0	0	0	0	0	0	0	0	0	0	0	0	0	10.989	-10.989	19.033	0	0	0	1	0	0	17.761	2.1499	16.789	0	0	0	0	0	0	0	0	0	0	0	0	0	0	0	0	0	0	0	0	0	1	0	0	17.47	2.0148	16.554	2
9173	91.73	0	0	0	0	0	0	0	0	0	0	0	0	0	0	0	0	0	0	0	0	0	1	0	0	17.755	2.1475	16.785	0	0	0	1	0	0	17.761	2.1499	16.789	0	0	0	0	0	0	0	0	0	0	0	0	0	0	0	0	0	0	0	0	0	0	0	0	0	0	0	2
9174	91.74	0	0	0	0	0	0	0	0	0	0	0	0	0	0	0	0	0	0	0	0	0	0	0	0	10.989	-10.989	19.033	0	0	0	0	0	0	10.991	-10.991	19.037	0	0	0	0	0	0	0	0	0	0	0	0	1	-1	0	7.5503	-27.469	31.921	0	0	0	0	0	0	0	0	0	2
9175	91.75	0	0	0	0	0	0	10.917	-10.917	18.908	0	0	0	0	0	0	0	0	0	0	0	0	1	0	0	17.755	2.1475	16.785	0	0	0	1	0	0	17.761	2.1499	16.789	0	0	0	0	0	0	0	0	0	0	0	0	0	-1	0	-2.0278	-17.891	16.968	0	0	0	0	0	0	0	0	0	2
9176	91.76	0	0	0	0	0	0	0	0	0	0	0	0	0	0	0	0	0	0	0	0	0	1	0	0	17.755	2.1475	16.785	0	0	0	1	0	0	17.761	2.1499	16.789	0	0	0	0	0	0	0	0	0	0	0	0	0	0	0	10.994	-10.994	19.042	0	0	0	1	0	0	17.47	2.0148	16.554	2
9177	91.77	0	0	0	0	0	0	0	0	0	0	0	0	0	0	0	0	0	0	0	0	0	0	0	0	10.989	-10.989	19.033	0	0	0	1	0	0	17.761	2.1499	16.789	0	0	0	0	0	0	0	0	0	0	0	0	0	-1	0	-2.0278	-17.891	16.968	0	0	0	0	0	0	0	0	0	2
9178	91.78	0	0	0	0	0	0	0	0	0	0	0	0	0	0	0	0	0	0	0	0	0	1	0	0	17.755	2.1475	16.785	0	0	0	1	0	0	17.761	2.1499	16.789	0	0	0	1	0	0	17.883	2.027	16.961	0	0	0	0	-1	0	-2.0278	-17.891	16.968	0	0	0	1	0	0	17.47	2.0148	16.554	2
9179	91.79	0	0	0	0	0	0	0	0	0	0	0	0	0	0	0	0	0	0	0	0	0	0	0	0	10.989	-10.989	19.033	0	0	0	1	0	0	17.761	2.1499	16.789	0	0	0	0	0	0	0	0	0	0	0	0	0	-1	0	-2.0278	-17.891	16.968	0	0	0	0	0	0	0	0	0	2
9180	91.8	0	0	0	0	0	0	10.917	-10.917	18.908	0	0	0	0	0	0	0	0	0	0	0	0	0	0	0	10.989	-10.989	19.033	0	0	0	1	0	0	17.761	2.1499	16.789	0	0	0	0	0	0	0	0	0	0	0	0	1	-1	0	7.5503	-27.469	31.921	0	0	0	0	0	0	0	0	0	2
9181	91.81	0	0	0	0	0	0	0	0	0	0	0	0	0	0	0	0	0	0	0	0	0	1	0	0	17.755	2.1475	16.785	0	0	0	1	0	0	17.761	2.1499	16.789	0	0	0	0	0	0	0	0	0	0	0	0	0	0	0	10.994	-10.994	19.042	0	0	0	1	0	0	17.47	2.0148	16.554	2
9182	91.82	0	0	0	0	0	0	0	0	0	0	0	0	0	0	0	0	0	0	0	0	0	0	0	0	10.989	-10.989	19.033	0	0	0	1	0	0	17.761	2.1499	16.789	0	0	0	0	0	0	0	0	0	0	0	0	1	-1	0	7.5503	-27.469	31.921	0	0	0	0	0	0	0	0	0	2
9183	91.83	0	0	0	0	0	0	10.917	-10.917	18.908	0	0	0	0	0	0	0	0	0	0	0	0	1	0	0	17.755	2.1475	16.785	0	0	0	1	0	0	17.761	2.1499	16.789	0	0	0	0	0	0	0	0	0	0	0	0	0	-1	0	-2.0278	-17.891	16.968	0	0	0	0	0	0	0	0	0	2
9184	91.84	0	0	0	0	0	0	0	0	0	0	0	0	0	0	0	0	0	0	0	0	0	1	0	0	17.755	2.1475	16.785	0	0	0	1	0	0	17.761	2.1499	16.789	0	0	0	0	0	0	0	0	0	0	0	0	0	0	0	10.994	-10.994	19.042	0	0	0	0	0	0	0	0	0	2
9185	91.85	0	0	0	0	0	0	10.917	-10.917	18.908	0	0	0	0	0	0	0	0	0	0	0	0	0	0	0	10.989	-10.989	19.033	0	0	0	1	0	0	17.761	2.1499	16.789	0	0	0	0	0	0	0	0	0	0	0	0	0	-1	0	-2.0278	-17.891	16.968	0	0	0	0	0	0	0	0	0	0
9186	91.86	0	0	0	0	0	0	0	0	0	0	0	0	0	0	0	0	0	0	0	0	0	1	0	0	17.755	2.1475	16.785	0	0	0	1	0	0	17.761	2.1499	16.789	0	0	0	0	0	0	0	0	0	0	0	0	0	-1	0	-2.0278	-17.891	16.968	0	0	0	0	0	0	0	0	0	2
9187	91.87	0	0	0	0	0	0	0	0	0	0	0	0	0	0	0	0	0	0	0	0	0	0	0	0	10.989	-10.989	19.033	0	0	0	1	0	0	17.761	2.1499	16.789	0	0	0	0	0	0	0	0	0	0	0	0	0	0	0	0	0	0	0	0	0	0	0	0	0	0	0	2
9188	91.88	0	0	0	0	0	0	10.917	-10.917	18.908	0	0	0	0	0	0	0	0	0	0	0	0	0	0	0	10.989	-10.989	19.033	0	0	0	1	0	0	17.761	2.1499	16.789	0	0	0	0	0	0	0	0	0	0	0	0	1	-1	0	7.5503	-27.469	31.921	0	0	0	1	0	0	17.47	2.0148	16.554	2
9189	91.89	0	0	0	0	0	0	0	0	0	0	0	0	0	0	0	0	0	0	0	0	0	1	0	0	17.755	2.1475	16.785	0	0	0	1	0	0	17.761	2.1499	16.789	0	0	0	0	0	0	0	0	0	0	0	0	0	-1	0	-2.0278	-17.891	16.968	0	0	0	0	0	0	0	0	0	2
9190	91.9	0	0	0	0	0	0	10.917	-10.917	18.908	0	0	0	0	0	0	0	0	0	0	0	0	0	0	0	10.989	-10.989	19.033	0	0	0	1	0	0	17.761	2.1499	16.789	0	0	0	0	0	0	0	0	0	0	0	0	0	0	0	0	0	0	0	0	0	1	0	0	17.47	2.0148	16.554	2
9191	91.91	0	0	0	0	0	0	0	0	0	0	0	0	0	0	0	0	0	0	0	0	0	1	0	0	17.755	2.1475	16.785	0	0	0	1	0	0	17.761	2.1499	16.789	0	0	0	1	0	0	17.883	2.027	16.961	0	0	0	0	0	0	10.994	-10.994	19.042	0	0	0	0	0	0	0	0	0	2
9192	91.92	0	0	0	0	0	0	0	0	0	0	0	0	0	0	0	0	0	0	0	0	0	0	0	0	10.989	-10.989	19.033	0	0	0	1	0	0	17.883	2.027	16.961	0	0	0	0	0	0	0	0	0	0	0	0	0	-1	0	-2.0278	-17.891	16.968	0	0	0	0	0	0	0	0	0	2
9193	91.93	0	0	0	0	0	0	10.917	-10.917	18.908	0	0	0	0	0	0	0	0	0	0	0	0	1	0	0	17.755	2.1475	16.785	0	0	0	1	0	0	17.761	2.1499	16.789	0	0	0	0	0	0	0	0	0	0	0	0	0	0	0	0	0	0	0	0	0	0	0	0	0	0	0	2
9194	91.94	0	0	0	0	0	0	10.917	-10.917	18.908	0	0	0	0	0	0	0	0	0	0	0	0	0	0	0	10.989	-10.989	19.033	0	0	0	1	0	0	17.761	2.1499	16.789	0	0	0	0	0	0	0	0	0	0	0	0	0	0	0	0	0	0	0	0	0	0	0	0	0	0	0	2
9195	91.95	0	0	0	0	0	0	10.917	-10.917	18.908	0	0	0	0	0	0	0	0	0	0	0	0	1	0	0	17.755	2.1475	16.785	0	0	0	1	0	0	17.761	2.1499	16.789	0	0	0	0	0	0	0	0	0	0	0	0	0	0	0	0	0	0	0	0	0	0	0	0	0	0	0	2
9196	91.96	0	0	0	0	0	0	0	0	0	0	0	0	0	0	0	0	0	0	0	0	0	1	0	0	17.755	2.1475	16.785	0	0	0	1	0	0	17.761	2.1499	16.789	0	0	0	0	0	0	0	0	0	0	0	0	0	0	0	10.994	-10.994	19.042	0	0	0	1	0	0	17.47	2.0148	16.554	2
9197	91.97	0	0	0	0	0	0	10.917	-10.917	18.908	0	0	0	0	0	0	0	0	0	0	0	0	0	0	0	10.989	-10.989	19.033	0	0	0	1	0	0	17.761	2.1499	16.789	0	0	0	0	0	0	0	0	0	0	0	0	0	-1	0	-2.0278	-17.891	16.968	0	0	0	0	0	0	0	0	0	2
9198	91.98	0	0	0	0	0	0	10.917	-10.917	18.908	0	0	0	0	0	0	0	0	0	0	0	0	1	0	0	17.755	2.1475	16.785	0	0	0	1	0	0	17.761	2.1499	16.789	0	0	0	0	0	0	0	0	0	0	0	0	0	0	0	10.994	-10.994	19.042	0	0	0	0	0	0	0	0	0	2
9199	91.99	0	0	0	0	0	0	10.917	-10.917	18.908	0	0	0	0	0	0	0	0	0	0	0	0	1	0	0	17.755	2.1475	16.785	0	0	0	1	0	0	17.761	2.1499	16.789	0	0	0	0	0	0	0	0	0	0	0	0	0	0	0	0	0	0	0	0	0	0	0	0	0	0	0	2
9200	92	0	0	0	0	0	0	10.917	-10.917	18.908	0	0	0	0	0	0	0	0	0	0	0	0	0	0	0	10.989	-10.989	19.033	0	0	0	1	0	0	17.761	2.1499	16.789	0	0	0	0	0	0	0	0	0	0	0	0	0	-1	0	-2.0278	-17.891	16.968	0	0	0	0	0	0	0	0	0	2
9201	92.01	0	0	0	0	0	0	0	0	0	0	0	0	0	0	0	0	0	0	0	0	0	1	0	0	17.755	2.1475	16.785	0	0	0	1	0	0	17.761	2.1499	16.789	0	0	0	0	0	0	0	0	0	0	0	0	0	0	0	0	0	0	0	0	0	1	0	0	17.47	2.0148	16.554	2
9202	92.02	0	0	0	0	0	0	10.917	-10.917	18.908	0	0	0	0	0	0	0	0	0	0	0	0	0	0	0	10.989	-10.989	19.033	0	0	0	1	0	0	17.761	2.1499	16.789	0	0	0	0	0	0	0	0	0	0	0	0	0	-1	0	-2.0278	-17.891	16.968	0	0	0	0	0	0	0	0	0	2
9203	92.03	0	0	0	0	0	0	0	0	0	0	0	0	0	0	0	0	0	0	0	0	0	0	0	0	10.989	-10.989	19.033	0	0	0	1	0	0	17.761	2.1499	16.789	0	0	0	0	0	0	0	0	0	0	0	0	0	0	0	0	0	0	0	0	0	1	0	0	17.47	2.0148	16.554	2
9204	92.04	0	0	0	0	0	0	10.917	-10.917	18.908	0	0	0	0	0	0	0	0	0	0	0	0	0	0	0	10.989	-10.989	19.033	0	0	0	1	0	0	17.761	2.1499	16.789	0	0	0	0	0	0	0	0	0	0	0	0	1	-1	0	7.5503	-27.469	31.921	0	0	0	0	0	0	0	0	0	2
9205	92.05	0	0	0	0	0	0	10.917	-10.917	18.908	0	0	0	0	0	0	0	0	0	0	0	0	0	0	0	10.989	-10.989	19.033	0	0	0	1	0	0	17.761	2.1499	16.789	0	0	0	0	0	0	0	0	0	0	0	0	0	0	0	0	0	0	0	0	0	1	0	0	17.47	2.0148	16.554	2
9206	92.06	0	0	0	0	0	0	0	0	0	0	0	0	0	0	0	0	0	0	0	0	0	1	0	0	17.755	2.1475	16.785	0	0	0	1	0	0	17.761	2.1499	16.789	0	0	0	1	0	0	17.883	2.027	16.961	0	0	0	0	0	0	0	0	0	0	0	0	1	0	0	17.47	2.0148	16.554	2
9207	92.07	0	0	0	0	0	0	10.917	-10.917	18.908	0	0	0	0	0	0	0	0	0	0	0	0	1	0	0	17.755	2.1475	16.785	0	0	0	1	0	0	17.761	2.1499	16.789	0	0	0	0	0	0	0	0	0	0	0	0	0	0	0	0	0	0	0	0	0	0	0	0	0	0	0	2
9208	92.08	0	0	0	0	0	0	0	0	0	0	0	0	0	0	0	0	0	0	0	0	0	1	0	0	17.755	2.1475	16.785	0	0	0	1	0	0	17.761	2.1499	16.789	0	0	0	0	0	0	0	0	0	0	0	0	1	-1	0	7.5503	-27.469	31.921	0	0	0	0	0	0	0	0	0	2
9209	92.09	0	0	0	0	0	0	10.917	-10.917	18.908	0	0	0	0	0	0	0	0	0	0	0	0	0	0	0	10.989	-10.989	19.033	0	0	0	1	0	0	17.761	2.1499	16.789	0	0	0	0	0	0	0	0	0	0	0	0	1	-1	0	7.5503	-27.469	31.921	0	0	0	1	0	0	17.47	2.0148	16.554	2
9210	92.1	0	0	0	0	0	0	10.917	-10.917	18.908	0	0	0	0	0	0	0	0	0	0	0	0	0	0	0	10.989	-10.989	19.033	0	0	0	1	0	0	17.761	2.1499	16.789	0	0	0	0	0	0	0	0	0	0	0	0	0	0	0	0	0	0	0	0	0	1	0	0	17.47	2.0148	16.554	2
9211	92.11	0	0	0	0	0	0	0	0	0	0	0	0	0	0	0	0	0	0	0	0	0	1	0	0	17.755	2.1475	16.785	0	0	0	1	0	0	17.761	2.1499	16.789	0	0	0	0	0	0	0	0	0	0	0	0	1	-1	0	7.5503	-27.469	31.921	0	0	0	0	0	0	0	0	0	2
9212	92.12	0	0	0	0	0	0	10.917	-10.917	18.908	0	0	0	0	0	0	0	0	0	0	0	0	1	0	0	17.755	2.1475	16.785	0	0	0	1	0	0	17.761	2.1499	16.789	0	0	0	0	0	0	0	0	0	0	0	0	0	-1	0	-2.0278	-17.891	16.968	0	0	0	0	0	0	0	0	0	2
9213	92.13	0	0	0	0	0	0	10.917	-10.917	18.908	0	0	0	0	0	0	0	0	0	0	0	0	1	0	0	17.755	2.1475	16.785	0	0	0	1	0	0	17.761	2.1499	16.789	0	0	0	0	0	0	0	0	0	0	0	0	1	-1	0	7.5503	-27.469	31.921	0	0	0	1	0	0	17.47	2.0148	16.554	2
9214	92.14	0	0	0	0	0	0	0	0	0	0	0	0	0	0	0	0	0	0	0	0	0	1	0	0	17.755	2.1475	16.785	0	0	0	1	0	0	17.761	2.1499	16.789	0	0	0	1	0	0	17.883	2.027	16.961	0	0	0	0	0	0	0	0	0	0	0	0	0	0	0	0	0	0	2
9215	92.15	0	0	0	0	0	0	0	0	0	0	0	0	0	0	0	0	0	0	0	0	0	0	0	0	10.989	-10.989	19.033	0	0	0	1	0	0	17.761	2.1499	16.789	0	0	0	0	0	0	0	0	0	0	0	0	0	-1	0	-2.0278	-17.891	16.968	0	0	0	0	0	0	0	0	0	2
9216	92.16	0	0	0	0	0	0	0	0	0	0	0	0	0	0	0	0	0	0	0	0	0	1	0	0	17.755	2.1475	16.785	0	0	0	1	0	0	17.761	2.1499	16.789	0	0	0	0	0	0	0	0	0	0	0	0	0	0	0	0	0	0	0	0	0	0	0	0	0	0	0	2
9217	92.17	0	0	0	0	0	0	10.917	-10.917	18.908	0	0	0	0	0	0	0	0	0	0	0	0	0	0	0	10.989	-10.989	19.033	0	0	0	1	0	0	17.761	2.1499	16.789	0	0	0	0	0	0	0	0	0	0	0	0	0	-1	0	-2.0278	-17.891	16.968	0	0	0	0	0	0	0	0	0	2
9218	92.18	0	0	0	0	0	0	0	0	0	0	0	0	0	0	0	0	0	0	0	0	0	1	0	0	17.755	2.1475	16.785	0	0	0	1	0	0	17.761	2.1499	16.789	0	0	0	0	0	0	0	0	0	0	0	0	0	-1	0	-2.0278	-17.891	16.968	0	0	0	0	0	0	0	0	0	2
9219	92.19	0	0	0	0	0	0	10.917	-10.917	18.908	0	0	0	0	0	0	0	0	0	0	0	0	1	0	0	17.755	2.1475	16.785	0	0	0	1	0	0	17.761	2.1499	16.789	0	0	0	0	0	0	0	0	0	0	0	0	0	0	0	0	0	0	0	0	0	1	0	0	17.47	2.0148	16.554	2
9220	92.2	0	0	0	0	0	0	0	0	0	0	0	0	0	0	0	0	0	0	0	0	0	1	0	0	17.755	2.1475	16.785	0	0	0	1	0	0	17.761	2.1499	16.789	0	0	0	1	0	0	17.883	2.027	16.961	0	0	0	1	-1	0	7.5503	-27.469	31.921	0	0	0	1	0	0	17.47	2.0148	16.554	2
9221	92.21	0	0	0	0	0	0	0	0	0	0	0	0	0	0	0	0	0	0	0	0	0	1	0	0	17.755	2.1475	16.785	0	0	0	1	0	0	17.761	2.1499	16.789	0	0	0	0	0	0	0	0	0	0	0	0	0	-1	0	-2.0278	-17.891	16.968	0	0	0	1	0	0	17.47	2.0148	16.554	2
9222	92.22	0	0	0	0	0	0	0	0	0	0	0	0	0	0	0	0	0	0	0	0	0	1	0	0	17.755	2.1475	16.785	0	0	0	1	0	0	17.761	2.1499	16.789	0	0	0	0	0	0	0	0	0	0	0	0	0	0	0	0	0	0	0	0	0	0	0	0	0	0	0	2
9223	92.23	0	0	0	0	0	0	0	0	0	0	0	0	0	0	0	0	0	0	0	0	0	1	0	0	17.755	2.1475	16.785	0	0	0	1	0	0	17.761	2.1499	16.789	0	0	0	0	0	0	0	0	0	0	0	0	0	0	0	10.994	-10.994	19.042	0	0	0	1	0	0	17.47	2.0148	16.554	2
9224	92.24	0	0	0	0	0	0	0	0	0	0	0	0	0	0	0	0	0	0	0	0	0	1	0	0	17.755	2.1475	16.785	0	0	0	1	0	0	17.761	2.1499	16.789	0	0	0	1	0	0	17.883	2.027	16.961	0	0	0	0	-1	0	-2.0278	-17.891	16.968	0	0	0	0	0	0	0	0	0	2
9225	92.25	0	0	0	0	0	0	10.917	-10.917	18.908	0	0	0	0	0	0	0	0	0	0	0	0	0	0	0	10.989	-10.989	19.033	0	0	0	1	0	0	17.761	2.1499	16.789	0	0	0	0	0	0	0	0	0	0	0	0	1	-1	0	7.5503	-27.469	31.921	0	0	0	0	0	0	0	0	0	2
9226	92.26	0	0	0	0	0	0	10.917	-10.917	18.908	0	0	0	0	0	0	0	0	0	0	0	0	1	0	0	17.755	2.1475	16.785	0	0	0	1	0	0	17.761	2.1499	16.789	0	0	0	0	0	0	0	0	0	0	0	0	1	0	0	17.895	2.0284	16.972	0	0	0	0	0	0	0	0	0	2
9227	92.27	0	0	0	0	0	0	0	0	0	0	0	0	0	0	0	0	0	0	0	0	0	0	0	0	10.989	-10.989	19.033	0	0	0	1	0	0	17.761	2.1499	16.789	0	0	0	0	0	0	0	0	0	0	0	0	1	-1	0	7.5503	-27.469	31.921	0	0	0	0	0	0	0	0	0	0
9228	92.28	0	0	0	0	0	0	0	0	0	0	0	0	0	0	0	0	0	0	0	0	0	1	0	0	17.755	2.1475	16.785	0	0	0	1	0	0	17.761	2.1499	16.789	0	0	0	0	0	0	0	0	0	0	0	0	0	0	0	0	0	0	0	0	0	1	0	0	17.47	2.0148	16.554	2
9229	92.29	0	0	0	0	0	0	10.917	-10.917	18.908	0	0	0	0	0	0	0	0	0	0	0	0	0	0	0	10.989	-10.989	19.033	0	0	0	1	0	0	17.761	2.1499	16.789	0	0	0	0	0	0	0	0	0	0	0	0	0	0	0	10.994	-10.994	19.042	0	0	0	1	0	0	17.47	2.0148	16.554	2
9230	92.3	0	0	0	0	0	0	10.917	-10.917	18.908	0	0	0	0	0	0	0	0	0	0	0	0	1	0	0	17.755	2.1475	16.785	0	0	0	1	0	0	17.761	2.1499	16.789	0	0	0	0	0	0	0	0	0	0	0	0	0	0	0	0	0	0	0	0	0	0	0	0	0	0	0	2
9231	92.31	0	0	0	0	0	0	10.917	-10.917	18.908	0	0	0	0	0	0	0	0	0	0	0	0	0	0	0	10.989	-10.989	19.033	0	0	0	1	0	0	17.761	2.1499	16.789	0	0	0	0	0	0	0	0	0	0	0	0	1	-1	0	7.5503	-27.469	31.921	0	0	0	0	0	0	0	0	0	2
9232	92.32	0	0	0	0	0	0	10.917	-10.917	18.908	0	0	0	0	0	0	0	0	0	0	0	0	1	0	0	17.755	2.1475	16.785	0	0	0	1	0	0	17.761	2.1499	16.789	0	0	0	0	0	0	0	0	0	0	0	0	0	-1	0	-2.0278	-17.891	16.968	0	0	0	1	0	0	17.47	2.0148	16.554	2
9233	92.33	0	0	0	0	0	0	0	0	0	0	0	0	0	0	0	0	0	0	0	0	0	1	0	0	17.755	2.1475	16.785	0	0	0	1	0	0	17.761	2.1499	16.789	0	0	0	0	0	0	0	0	0	0	0	0	0	-1	0	-2.0278	-17.891	16.968	0	0	0	1	0	0	17.47	2.0148	16.554	2
9234	92.34	0	0	0	0	0	0	0	0	0	0	0	0	0	0	0	0	0	0	0	0	0	1	0	0	17.755	2.1475	16.785	0	0	0	1	0	0	17.761	2.1499	16.789	0	0	0	0	0	0	0	0	0	0	0	0	0	0	0	10.994	-10.994	19.042	0	0	0	1	0	0	17.47	2.0148	16.554	2
9235	92.35	0	0	0	0	0	0	0	0	0	0	0	0	0	0	0	0	0	0	0	0	0	0	0	0	10.989	-10.989	19.033	0	0	0	1	0	0	17.761	2.1499	16.789	0	0	0	0	0	0	0	0	0	0	0	0	0	0	0	0	0	0	0	0	0	0	0	0	0	0	0	2
9236	92.36	0	0	0	0	0	0	0	0	0	0	0	0	0	0	0	0	0	0	0	0	0	1	0	0	17.755	2.1475	16.785	0	0	0	1	0	0	17.761	2.1499	16.789	0	0	0	1	0	0	17.883	2.027	16.961	0	0	0	1	-1	0	7.5503	-27.469	31.921	0	0	0	0	0	0	0	0	0	2
9237	92.37	0	0	0	0	0	0	10.917	-10.917	18.908	0	0	0	0	0	0	0	0	0	0	0	0	0	0	0	10.989	-10.989	19.033	0	0	0	1	0	0	17.761	2.1499	16.789	0	0	0	0	0	0	0	0	0	0	0	0	0	-1	0	-2.0278	-17.891	16.968	0	0	0	0	0	0	0	0	0	2
9238	92.38	0	0	0	0	0	0	10.917	-10.917	18.908	0	0	0	0	0	0	0	0	0	0	0	0	0	0	0	10.989	-10.989	19.033	0	0	0	1	0	0	17.761	2.1499	16.789	0	0	0	0	0	0	0	0	0	0	0	0	0	0	0	0	0	0	0	0	0	0	0	0	0	0	0	2
9239	92.39	0	0	0	0	0	0	0	0	0	0	0	0	0	0	0	0	0	0	0	0	0	1	0	0	17.755	2.1475	16.785	0	0	0	1	0	0	17.761	2.1499	16.789	0	0	0	0	0	0	0	0	0	0	0	0	0	0	0	0	0	0	0	0	0	0	0	0	0	0	0	2
9240	92.4	0	0	0	0	0	0	0	0	0	0	0	0	0	0	0	0	0	0	0	0	0	1	0	0	17.755	2.1475	16.785	0	0	0	1	0	0	17.761	2.1499	16.789	0	0	0	0	0	0	0	0	0	0	0	0	0	0	0	10.994	-10.994	19.042	0	0	0	0	0	0	0	0	0	2
9241	92.41	0	0	0	0	0	0	0	0	0	0	0	0	0	0	0	0	0	0	0	0	0	1	0	0	17.755	2.1475	16.785	0	0	0	1	0	0	17.761	2.1499	16.789	0	0	0	0	0	0	0	0	0	0	0	0	0	-1	0	-2.0278	-17.891	16.968	0	0	0	1	0	0	17.47	2.0148	16.554	2
9242	92.42	0	0	0	0	0	0	10.917	-10.917	18.908	0	0	0	0	0	0	0	0	0	0	0	0	1	0	0	17.755	2.1475	16.785	0	0	0	1	0	0	17.761	2.1499	16.789	0	0	0	0	0	0	0	0	0	0	0	0	1	-1	0	7.5503	-27.469	31.921	0	0	0	0	0	0	0	0	0	2
9243	92.43	0	0	0	0	0	0	0	0	0	0	0	0	0	0	0	0	0	0	0	0	0	1	0	0	17.755	2.1475	16.785	0	0	0	1	0	0	17.761	2.1499	16.789	0	0	0	0	0	0	0	0	0	0	0	0	0	0	0	10.994	-10.994	19.042	0	0	0	0	0	0	0	0	0	2
9244	92.44	0	0	0	0	0	0	10.917	-10.917	18.908	0	0	0	0	0	0	0	0	0	0	0	0	1	0	0	17.755	2.1475	16.785	0	0	0	1	0	0	17.761	2.1499	16.789	0	0	0	0	0	0	0	0	0	0	0	0	0	0	0	0	0	0	0	0	0	0	0	0	0	0	0	2
9245	92.45	0	0	0	0	0	0	10.917	-10.917	18.908	0	0	0	0	0	0	0	0	0	0	0	0	1	0	0	17.755	2.1475	16.785	0	0	0	1	0	0	17.761	2.1499	16.789	0	0	0	0	0	0	0	0	0	0	0	0	0	0	0	0	0	0	0	0	0	0	0	0	0	0	0	2
9246	92.46	0	0	0	0	0	0	0	0	0	0	0	0	0	0	0	0	0	0	0	0	0	1	0	0	17.755	2.1475	16.785	0	0	0	1	0	0	17.761	2.1499	16.789	0	0	0	0	0	0	0	0	0	0	0	0	0	0	0	0	0	0	0	0	0	0	0	0	0	0	0	2
9247	92.47	0	0	0	0	0	0	10.917	-10.917	18.908	0	0	0	0	0	0	0	0	0	0	0	0	0	0	0	10.989	-10.989	19.033	0	0	0	1	0	0	17.761	2.1499	16.789	0	0	0	0	0	0	0	0	0	0	0	0	1	-1	0	7.5503	-27.469	31.921	0	0	0	0	0	0	0	0	0	2
9248	92.48	0	0	0	0	0	0	0	0	0	0	0	0	0	0	0	0	0	0	0	0	0	1	0	0	17.755	2.1475	16.785	0	0	0	1	0	0	17.761	2.1499	16.789	0	0	0	0	0	0	0	0	0	0	0	0	0	0	0	0	0	0	0	0	0	0	0	0	0	0	0	2
9249	92.49	0	0	0	0	0	0	0	0	0	0	0	0	0	0	0	0	0	0	0	0	0	1	0	0	17.755	2.1475	16.785	0	0	0	1	0	0	17.761	2.1499	16.789	0	0	0	0	0	0	0	0	0	0	0	0	0	-1	0	-2.0278	-17.891	16.968	0	0	0	0	0	0	0	0	0	0
9250	92.5	0	0	0	0	0	0	0	0	0	0	0	0	0	0	0	0	0	0	0	0	0	1	0	0	17.755	2.1475	16.785	0	0	0	1	0	0	17.761	2.1499	16.789	0	0	0	0	0	0	0	0	0	0	0	0	0	0	0	10.994	-10.994	19.042	0	0	0	0	0	0	0	0	0	2
9251	92.51	0	0	0	0	0	0	0	0	0	0	0	0	0	0	0	0	0	0	0	0	0	1	0	0	17.755	2.1475	16.785	0	0	0	1	0	0	17.761	2.1499	16.789	0	0	0	0	0	0	0	0	0	0	0	0	1	-1	0	7.5503	-27.469	31.921	0	0	0	1	0	0	17.47	2.0148	16.554	2
9252	92.52	0	0	0	0	0	0	10.917	-10.917	18.908	0	0	0	0	0	0	0	0	0	0	0	0	0	0	0	10.989	-10.989	19.033	0	0	0	1	0	0	17.761	2.1499	16.789	0	0	0	0	0	0	0	0	0	0	0	0	0	0	0	10.994	-10.994	19.042	0	0	0	0	0	0	0	0	0	2
9253	92.53	0	0	0	0	0	0	0	0	0	0	0	0	0	0	0	0	0	0	0	0	0	1	0	0	17.755	2.1475	16.785	0	0	0	1	0	0	17.761	2.1499	16.789	0	0	0	0	0	0	0	0	0	0	0	0	1	-1	0	7.5503	-27.469	31.921	0	0	0	0	0	0	0	0	0	2
9254	92.54	0	0	0	0	0	0	0	0	0	0	0	0	0	0	0	0	0	0	0	0	0	1	0	0	17.755	2.1475	16.785	0	0	0	1	0	0	17.761	2.1499	16.789	0	0	0	0	0	0	0	0	0	0	0	0	0	0	0	10.994	-10.994	19.042	0	0	0	0	0	0	0	0	0	2
9255	92.55	0	0	0	0	0	0	0	0	0	0	0	0	0	0	0	0	0	0	0	0	0	1	0	0	17.755	2.1475	16.785	0	0	0	1	0	0	17.761	2.1499	16.789	0	0	0	0	0	0	0	0	0	0	0	0	0	0	0	0	0	0	0	0	0	1	0	0	17.47	2.0148	16.554	2
9256	92.56	0	0	0	0	0	0	0	0	0	0	0	0	0	0	0	0	0	0	0	0	0	1	0	0	17.755	2.1475	16.785	0	0	0	1	0	0	17.761	2.1499	16.789	0	0	0	0	0	0	0	0	0	0	0	0	0	0	0	10.994	-10.994	19.042	0	0	0	0	0	0	0	0	0	2
9257	92.57	0	0	0	0	0	0	0	0	0	0	0	0	0	0	0	0	0	0	0	0	0	0	0	0	10.989	-10.989	19.033	0	0	0	1	0	0	17.761	2.1499	16.789	0	0	0	0	0	0	0	0	0	0	0	0	0	-1	0	-2.0278	-17.891	16.968	0	0	0	0	0	0	0	0	0	2
9258	92.58	0	0	0	0	0	0	10.917	-10.917	18.908	0	0	0	0	0	0	0	0	0	0	0	0	1	0	0	17.755	2.1475	16.785	0	0	0	1	0	0	17.761	2.1499	16.789	0	0	0	0	0	0	0	0	0	0	0	0	0	0	0	10.994	-10.994	19.042	0	0	0	0	0	0	0	0	0	2
9259	92.59	0	0	0	0	0	0	0	0	0	0	0	0	0	0	0	0	0	0	0	0	0	0	0	0	10.989	-10.989	19.033	0	0	0	1	0	0	17.761	2.1499	16.789	0	0	0	0	0	0	0	0	0	0	0	0	0	-1	0	-2.0278	-17.891	16.968	0	0	0	0	0	0	0	0	0	2
9260	92.6	0	0	0	0	0	0	0	0	0	0	0	0	0	0	0	0	0	0	0	0	0	0	0	0	10.989	-10.989	19.033	0	0	0	1	0	0	17.761	2.1499	16.789	0	0	0	1	0	0	17.883	2.027	16.961	0	0	0	0	-1	0	-2.0278	-17.891	16.968	0	0	0	0	0	0	0	0	0	2
9261	92.61	0	0	0	0	0	0	10.917	-10.917	18.908	0	0	0	0	0	0	0	0	0	0	0	0	1	0	0	17.755	2.1475	16.785	0	0	0	1	0	0	17.761	2.1499	16.789	0	0	0	0	0	0	0	0	0	0	0	0	0	-1	0	-2.0278	-17.891	16.968	0	0	0	1	0	0	17.47	2.0148	16.554	2
9262	92.62	0	0	0	0	0	0	0	0	0	0	0	0	0	0	0	0	0	0	0	0	0	0	0	0	10.989	-10.989	19.033	0	0	0	1	0	0	17.761	2.1499	16.789	0	0	0	0	0	0	0	0	0	0	0	0	0	0	0	10.994	-10.994	19.042	0	0	0	0	0	0	0	0	0	2
9263	92.63	0	0	0	0	0	0	0	0	0	0	0	0	0	0	0	0	0	0	0	0	0	1	0	0	17.755	2.1475	16.785	0	0	0	1	0	0	17.761	2.1499	16.789	0	0	0	0	0	0	0	0	0	0	0	0	0	0	0	0	0	0	0	0	0	1	0	0	17.47	2.0148	16.554	2
9264	92.64	0	0	0	0	0	0	0	0	0	0	0	0	0	0	0	0	0	0	0	0	0	1	0	0	17.755	2.1475	16.785	0	0	0	1	0	0	17.761	2.1499	16.789	0	0	0	0	0	0	0	0	0	0	0	0	1	-1	0	7.5503	-27.469	31.921	0	0	0	0	0	0	0	0	0	2
9265	92.65	0	0	0	0	0	0	10.917	-10.917	18.908	0	0	0	0	0	0	0	0	0	0	0	0	1	0	0	17.755	2.1475	16.785	0	0	0	1	0	0	17.761	2.1499	16.789	0	0	0	0	0	0	0	0	0	0	0	0	0	0	0	0	0	0	0	0	0	0	0	0	0	0	0	2
9266	92.66	0	0	0	0	0	0	0	0	0	0	0	0	0	0	0	0	0	0	0	0	0	1	0	0	17.755	2.1475	16.785	0	0	0	1	0	0	17.761	2.1499	16.789	0	0	0	0	0	0	0	0	0	0	0	0	1	-1	0	7.5503	-27.469	31.921	0	0	0	1	0	0	17.47	2.0148	16.554	2
9267	92.67	0	0	0	0	0	0	0	0	0	0	0	0	0	0	0	0	0	0	0	0	0	0	0	0	10.989	-10.989	19.033	0	0	0	1	0	0	17.761	2.1499	16.789	0	0	0	0	0	0	0	0	0	0	0	0	0	-1	0	-2.0278	-17.891	16.968	0	0	0	0	0	0	0	0	0	0
9268	92.68	0	0	0	0	0	0	10.917	-10.917	18.908	0	0	0	0	0	0	0	0	0	0	0	0	1	0	0	17.755	2.1475	16.785	0	0	0	1	0	0	17.761	2.1499	16.789	0	0	0	0	0	0	0	0	0	0	0	0	1	-1	0	7.5503	-27.469	31.921	0	0	0	1	0	0	30.423	8.5595	27.174	2
9269	92.69	0	0	0	0	0	0	0	0	0	0	0	0	0	0	0	0	0	0	0	0	0	1	0	0	17.755	2.1475	16.785	0	0	0	1	0	0	17.761	2.1499	16.789	0	0	0	0	0	0	0	0	0	0	0	0	0	0	0	0	0	0	0	0	0	0	0	0	0	0	0	2
9270	92.7	0	0	0	0	0	0	10.917	-10.917	18.908	0	0	0	0	0	0	0	0	0	0	0	0	1	0	0	17.755	2.1475	16.785	0	0	0	1	0	0	17.761	2.1499	16.789	0	0	0	0	0	0	0	0	0	0	0	0	0	0	0	10.994	-10.994	19.042	0	0	0	0	0	0	0	0	0	2
9271	92.71	0	0	0	0	0	0	10.917	-10.917	18.908	0	0	0	0	0	0	0	0	0	0	0	0	1	0	0	17.755	2.1475	16.785	0	0	0	1	0	0	17.761	2.1499	16.789	0	0	0	0	0	0	0	0	0	0	0	0	0	0	0	0	0	0	0	0	0	0	0	0	0	0	0	2
9272	92.72	0	0	0	0	0	0	0	0	0	0	0	0	0	0	0	0	0	0	0	0	0	0	0	0	10.989	-10.989	19.033	0	0	0	1	0	0	17.761	2.1499	16.789	0	0	0	0	0	0	0	0	0	0	0	0	1	-1	0	7.5503	-27.469	31.921	0	0	0	0	0	0	0	0	0	2
9273	92.73	0	0	0	0	0	0	10.917	-10.917	18.908	0	0	0	0	0	0	0	0	0	0	0	0	1	0	0	17.755	2.1475	16.785	0	0	0	1	0	0	17.761	2.1499	16.789	0	0	0	1	0	0	17.883	2.027	16.961	0	0	0	0	0	0	10.994	-10.994	19.042	0	0	0	0	0	0	0	0	0	2
9274	92.74	0	0	0	0	0	0	0	0	0	0	0	0	0	0	0	0	0	0	0	0	0	1	0	0	17.755	2.1475	16.785	0	0	0	1	0	0	17.883	2.027	16.961	0	0	0	0	0	0	0	0	0	0	0	0	0	0	0	10.994	-10.994	19.042	0	0	0	0	0	0	0	0	0	2
9275	92.75	0	0	0	0	0	0	0	0	0	0	0	0	0	0	0	0	0	0	0	0	0	1	0	0	17.755	2.1475	16.785	0	0	0	1	0	0	17.761	2.1499	16.789	0	0	0	0	0	0	0	0	0	0	0	0	1	-1	0	7.5503	-27.469	31.921	0	0	0	1	0	0	17.47	2.0148	16.554	2
9276	92.76	0	0	0	0	0	0	0	0	0	0	0	0	0	0	0	0	0	0	0	0	0	1	0	0	17.755	2.1475	16.785	0	0	0	1	0	0	17.761	2.1499	16.789	0	0	0	1	0	0	17.883	2.027	16.961	0	0	0	0	0	0	10.994	-10.994	19.042	0	0	0	1	0	0	17.47	2.0148	16.554	2
9277	92.77	0	0	0	0	0	0	0	0	0	0	0	0	0	0	0	0	0	0	0	0	0	0	0	0	10.989	-10.989	19.033	0	0	0	1	0	0	17.761	2.1499	16.789	0	0	0	0	0	0	0	0	0	0	0	0	1	-1	0	7.5503	-27.469	31.921	0	0	0	0	0	0	0	0	0	2
9278	92.78	0	0	0	0	0	0	0	0	0	0	0	0	0	0	0	0	0	0	0	0	0	1	0	0	17.755	2.1475	16.785	0	0	0	1	0	0	17.761	2.1499	16.789	0	0	0	0	0	0	0	0	0	0	0	0	0	0	0	0	0	0	0	0	0	1	0	0	17.47	2.0148	16.554	2
9279	92.79	0	0	0	0	0	0	10.917	-10.917	18.908	0	0	0	0	0	0	0	0	0	0	0	0	0	0	0	10.989	-10.989	19.033	0	0	0	1	0	0	17.761	2.1499	16.789	0	0	0	0	0	0	0	0	0	0	0	0	0	0	0	0	0	0	0	0	0	0	0	0	0	0	0	2
9280	92.8	0	0	0	0	0	0	0	0	0	0	0	0	0	0	0	0	0	0	0	0	0	0	0	0	10.989	-10.989	19.033	0	0	0	1	0	0	17.761	2.1499	16.789	0	0	0	0	0	0	0	0	0	0	0	0	0	-1	0	-2.0278	-17.891	16.968	0	0	0	0	0	0	0	0	0	2
9281	92.81	0	0	0	0	0	0	0	0	0	0	0	0	0	0	0	0	0	0	0	0	0	1	0	0	17.755	2.1475	16.785	0	0	0	1	0	0	17.761	2.1499	16.789	0	0	0	0	0	0	0	0	0	0	0	0	1	0	0	17.895	2.0284	16.972	0	0	0	1	0	0	17.47	2.0148	16.554	2
9282	92.82	0	0	0	0	0	0	0	0	0	0	0	0	0	0	0	0	0	0	0	0	0	0	0	0	10.989	-10.989	19.033	0	0	0	1	0	0	17.761	2.1499	16.789	0	0	0	0	0	0	0	0	0	0	0	0	0	-1	0	-2.0278	-17.891	16.968	0	0	0	0	0	0	0	0	0	2
9283	92.83	0	0	0	0	0	0	10.917	-10.917	18.908	0	0	0	0	0	0	0	0	0	0	0	0	1	0	0	17.755	2.1475	16.785	0	0	0	1	0	0	17.761	2.1499	16.789	0	0	0	0	0	0	0	0	0	0	0	0	0	0	0	10.994	-10.994	19.042	0	0	0	0	0	0	0	0	0	2
9284	92.84	0	0	0	0	0	0	0	0	0	0	0	0	0	0	0	0	0	0	0	0	0	1	0	0	17.755	2.1475	16.785	0	0	0	1	0	0	17.761	2.1499	16.789	0	0	0	1	0	0	17.883	2.027	16.961	0	0	0	0	0	0	0	0	0	0	0	0	1	0	0	17.47	2.0148	16.554	2
9285	92.85	0	0	0	0	0	0	10.917	-10.917	18.908	0	0	0	0	0	0	0	0	0	0	0	0	1	0	0	17.755	2.1475	16.785	0	0	0	1	0	0	17.761	2.1499	16.789	0	0	0	0	0	0	0	0	0	0	0	0	0	0	0	10.994	-10.994	19.042	0	0	0	0	0	0	0	0	0	2
9286	92.86	0	0	0	0	0	0	0	0	0	0	0	0	0	0	0	0	0	0	0	0	0	1	0	0	17.755	2.1475	16.785	0	0	0	1	0	0	17.761	2.1499	16.789	0	0	0	1	0	0	17.883	2.027	16.961	0	0	0	0	0	0	0	0	0	0	0	0	1	0	0	17.482	2.0162	16.566	2
9287	92.87	0	0	0	0	0	0	0	0	0	0	0	0	0	0	0	0	0	0	0	0	0	1	0	0	17.755	2.1475	16.785	0	0	0	1	0	0	17.761	2.1499	16.789	0	0	0	0	0	0	0	0	0	0	0	0	1	-1	0	7.5503	-27.469	31.921	0	0	0	0	0	0	0	0	0	2
9288	92.88	0	0	0	0	0	0	10.917	-10.917	18.908	0	0	0	0	0	0	0	0	0	0	0	0	1	0	0	17.755	2.1475	16.785	0	0	0	1	0	0	17.761	2.1499	16.789	0	0	0	0	0	0	0	0	0	0	0	0	0	0	0	0	0	0	0	0	0	1	0	0	17.47	2.0148	16.554	2
9289	92.89	0	0	0	0	0	0	0	0	0	0	0	0	0	0	0	0	0	0	0	0	0	1	0	0	17.755	2.1475	16.785	0	0	0	1	0	0	17.761	2.1499	16.789	0	0	0	0	0	0	0	0	0	0	0	0	0	-1	0	-2.0278	-17.891	16.968	0	0	0	0	0	0	0	0	0	2
9290	92.9	0	0	0	0	0	0	10.917	-10.917	18.908	0	0	0	0	0	0	0	0	0	0	0	0	1	0	0	17.755	2.1475	16.785	0	0	0	1	0	0	17.761	2.1499	16.789	0	0	0	0	0	0	0	0	0	0	0	0	0	0	0	0	0	0	0	0	0	1	0	0	17.47	2.0148	16.554	2
9291	92.91	0	0	0	0	0	0	0	0	0	0	0	0	0	0	0	0	0	0	0	0	0	1	0	0	17.755	2.1475	16.785	0	0	0	1	0	0	17.761	2.1499	16.789	0	0	0	0	0	0	0	0	0	0	0	0	0	0	0	10.994	-10.994	19.042	0	0	0	1	0	0	17.482	2.0162	16.566	0
9292	92.92	0	0	0	0	0	0	0	0	0	0	0	0	0	0	0	0	0	0	0	0	0	0	0	0	10.989	-10.989	19.033	0	0	0	1	0	0	17.761	2.1499	16.789	0	0	0	0	0	0	0	0	0	0	0	0	0	0	0	0	0	0	0	0	0	0	0	0	0	0	0	2
9293	92.93	0	0	0	0	0	0	0	0	0	0	0	0	0	0	0	0	0	0	0	0	0	1	0	0	17.755	2.1475	16.785	0	0	0	1	0	0	17.761	2.1499	16.789	0	0	0	0	0	0	0	0	0	0	0	0	0	0	0	11.266	-11.261	19.508	0	0	0	0	0	0	0	0	0	2
9294	92.94	0	0	0	0	0	0	0	0	0	0	0	0	0	0	0	0	0	0	0	0	0	0	0	0	10.989	-10.989	19.033	0	0	0	1	0	0	17.761	2.1499	16.789	0	0	0	0	0	0	0	0	0	0	0	0	0	0	0	0	0	0	0	0	0	0	0	0	0	0	0	2
9295	92.95	0	0	0	0	0	0	0	0	0	0	0	0	0	0	0	0	0	0	0	0	0	1	0	0	17.755	2.1475	16.785	0	0	0	1	0	0	17.761	2.1499	16.789	0	0	0	0	0	0	0	0	0	0	0	0	0	0	0	0	0	0	0	0	0	0	0	0	0	0	0	2
9296	92.96	0	0	0	0	0	0	10.917	-10.917	18.908	0	0	0	0	0	0	0	0	0	0	0	0	1	0	0	17.755	2.1475	16.785	0	0	0	1	0	0	17.761	2.1499	16.789	0	0	0	0	0	0	0	0	0	0	0	0	0	-1	0	-2.0278	-17.891	16.968	0	0	0	1	0	0	17.482	2.0162	16.566	2
9297	92.97	0	0	0	0	0	0	10.917	-10.917	18.908	0	0	0	0	0	0	0	0	0	0	0	0	0	0	0	10.989	-10.989	19.033	0	0	0	1	0	0	17.761	2.1499	16.789	0	0	0	0	0	0	0	0	0	0	0	0	0	-1	0	-2.0278	-17.891	16.968	0	0	0	0	0	0	0	0	0	2
9298	92.98	0	0	0	0	0	0	0	0	0	0	0	0	0	0	0	0	0	0	0	0	0	1	0	0	17.755	2.1475	16.785	0	0	0	1	0	0	17.761	2.1499	16.789	0	0	0	0	0	0	0	0	0	0	0	0	0	0	0	10.994	-10.994	19.042	0	0	0	1	0	0	30.423	8.5595	27.174	2
9299	92.99	0	0	0	0	0	0	0	0	0	0	0	0	0	0	0	0	0	0	0	0	0	1	0	0	17.755	2.1475	16.785	0	0	0	1	0	0	17.761	2.1499	16.789	0	0	0	0	0	0	0	0	0	0	0	0	0	0	0	10.994	-10.994	19.042	0	0	0	1	0	0	17.47	2.0148	16.554	2
9300	93	0	0	0	0	0	0	0	0	0	0	0	0	0	0	0	0	0	0	0	0	0	1	0	0	17.755	2.1475	16.785	0	0	0	1	0	0	17.761	2.1499	16.789	0	0	0	0	0	0	0	0	0	0	0	0	0	0	0	0	0	0	0	0	0	1	0	0	17.47	2.0148	16.554	0
9301	93.01	0	0	0	0	0	0	0	0	0	0	0	0	0	0	0	0	0	0	0	0	0	1	0	0	17.755	2.1475	16.785	0	0	0	1	0	0	17.761	2.1499	16.789	0	0	0	0	0	0	0	0	0	0	0	0	1	0	0	17.895	2.0284	16.972	0	0	0	0	0	0	0	0	0	2
9302	93.02	0	0	0	0	0	0	10.917	-10.917	18.908	0	0	0	0	0	0	0	0	0	0	0	0	0	0	0	10.989	-10.989	19.033	0	0	0	1	0	0	17.761	2.1499	16.789	0	0	0	0	0	0	0	0	0	0	0	0	0	0	0	10.994	-10.994	19.042	0	0	0	0	0	0	0	0	0	2
9303	93.03	0	0	0	0	0	0	0	0	0	0	0	0	0	0	0	0	0	0	0	0	0	1	0	0	17.755	2.1475	16.785	0	0	0	1	0	0	17.761	2.1499	16.789	0	0	0	0	0	0	0	0	0	0	0	0	0	-1	0	-2.0278	-17.891	16.968	0	0	0	1	0	0	17.47	2.0148	16.554	2
9304	93.04	0	0	0	0	0	0	0	0	0	0	0	0	0	0	0	0	0	0	0	0	0	0	0	0	10.989	-10.989	19.033	0	0	0	1	0	0	17.761	2.1499	16.789	0	0	0	0	0	0	0	0	0	0	0	0	0	0	0	0	0	0	0	0	0	0	0	0	0	0	0	2
9305	93.05	0	0	0	0	0	0	10.917	-10.917	18.908	0	0	0	0	0	0	0	0	0	0	0	0	1	0	0	17.755	2.1475	16.785	0	0	0	1	0	0	17.761	2.1499	16.789	0	0	0	0	0	0	0	0	0	0	0	0	0	0	0	10.994	-10.994	19.042	0	0	0	0	0	0	0	0	0	2
9306	93.06	0	0	0	0	0	0	0	0	0	0	0	0	0	0	0	0	0	0	0	0	0	1	0	0	17.755	2.1475	16.785	0	0	0	1	0	0	17.761	2.1499	16.789	0	0	0	0	0	0	0	0	0	0	0	0	0	0	0	0	0	0	0	0	0	1	0	0	30.423	8.5595	27.174	2
9307	93.07	0	0	0	0	0	0	0	0	0	0	0	0	0	0	0	0	0	0	0	0	0	1	0	0	17.755	2.1475	16.785	0	0	0	1	0	0	17.761	2.1499	16.789	0	0	0	0	0	0	0	0	0	0	0	0	0	-1	0	-2.0278	-17.891	16.968	0	0	0	0	0	0	0	0	0	2
9308	93.08	0	0	0	0	0	0	0	0	0	0	0	0	0	0	0	0	0	0	0	0	0	1	0	0	17.755	2.1475	16.785	0	0	0	1	0	0	17.761	2.1499	16.789	0	0	0	0	0	0	0	0	0	0	0	0	1	0	0	17.769	2.1543	16.796	0	0	0	0	0	0	0	0	0	2
9309	93.09	0	0	0	0	0	0	0	0	0	0	0	0	0	0	0	0	0	0	0	0	0	1	0	0	17.755	2.1475	16.785	0	0	0	1	0	0	17.761	2.1499	16.789	0	0	0	0	0	0	0	0	0	0	0	0	0	0	0	0	0	0	0	0	0	0	0	0	0	0	0	2
9310	93.1	0	0	0	0	0	0	10.917	-10.917	18.908	0	0	0	0	0	0	0	0	0	0	0	0	1	0	0	17.755	2.1475	16.785	0	0	0	1	0	0	17.761	2.1499	16.789	0	0	0	0	0	0	0	0	0	0	0	0	0	0	0	10.994	-10.994	19.042	0	0	0	1	0	0	17.47	2.0148	16.554	2
9311	93.11	0	0	0	0	0	0	0	0	0	0	0	0	0	0	0	0	0	0	0	0	0	1	0	0	17.755	2.1475	16.785	0	0	0	1	0	0	17.761	2.1499	16.789	0	0	0	0	0	0	0	0	0	0	0	0	0	0	0	10.994	-10.994	19.042	0	0	0	0	0	0	10.93	-10.93	18.931	2
9312	93.12	0	0	0	0	0	0	0	0	0	0	0	0	0	0	0	0	0	0	0	0	0	1	0	0	17.755	2.1475	16.785	0	0	0	1	0	0	17.761	2.1499	16.789	0	0	0	0	0	0	0	0	0	0	0	0	0	0	0	0	0	0	0	0	0	0	0	0	0	0	0	2
9313	93.13	0	0	0	0	0	0	0	0	0	0	0	0	0	0	0	0	0	0	0	0	0	1	0	0	17.755	2.1475	16.785	0	0	0	1	0	0	17.761	2.1499	16.789	0	0	0	1	0	0	17.883	2.027	16.961	0	0	0	0	0	0	10.994	-10.994	19.042	0	0	0	1	0	0	30.423	8.5595	27.174	0
9314	93.14	0	0	0	0	0	0	10.917	-10.917	18.908	0	0	0	0	0	0	0	0	0	0	0	0	1	0	0	17.755	2.1475	16.785	0	0	0	1	0	0	17.761	2.1499	16.789	0	0	0	0	0	0	0	0	0	0	0	0	0	0	0	10.994	-10.994	19.042	0	0	0	0	0	0	0	0	0	2
9315	93.15	0	0	0	0	0	0	0	0	0	0	0	0	0	0	0	0	0	0	0	0	0	0	0	0	10.989	-10.989	19.033	0	0	0	1	0	0	17.761	2.1499	16.789	0	0	0	0	0	0	0	0	0	0	0	0	0	0	0	10.994	-10.994	19.042	0	0	0	1	0	0	17.47	2.0148	16.554	2
9316	93.16	0	0	0	0	0	0	0	0	0	0	0	0	0	0	0	0	0	0	0	0	0	1	0	0	17.755	2.1475	16.785	0	0	0	1	0	0	17.761	2.1499	16.789	0	0	0	0	0	0	0	0	0	0	0	0	0	0	0	10.994	-10.994	19.042	0	0	0	1	0	0	17.47	2.0148	16.554	2
9317	93.17	0	0	0	0	0	0	0	0	0	0	0	0	0	0	0	0	0	0	0	0	0	0	0	0	10.989	-10.989	19.033	0	0	0	1	0	0	17.761	2.1499	16.789	0	0	0	0	0	0	0	0	0	0	0	0	0	0	0	0	0	0	0	0	0	0	0	0	0	0	0	0
9318	93.18	0	0	0	0	0	0	0	0	0	0	0	0	0	0	0	0	0	0	0	0	0	1	0	0	17.755	2.1475	16.785	0	0	0	1	0	0	17.761	2.1499	16.789	0	0	0	1	0	0	17.883	2.027	16.961	0	0	0	0	0	0	10.994	-10.994	19.042	0	0	0	0	0	0	0	0	0	2
9319	93.19	0	0	0	0	0	0	10.917	-10.917	18.908	0	0	0	0	0	0	0	0	0	0	0	0	1	0	0	17.755	2.1475	16.785	0	0	0	1	0	0	17.761	2.1499	16.789	0	0	0	0	0	0	0	0	0	0	0	0	0	0	0	10.994	-10.994	19.042	0	0	0	1	0	0	17.47	2.0148	16.554	2
9320	93.2	0	0	0	0	0	0	0	0	0	0	0	0	0	0	0	0	0	0	0	0	0	0	0	0	10.989	-10.989	19.033	0	0	0	1	0	0	17.761	2.1499	16.789	0	0	0	0	0	0	0	0	0	0	0	0	0	0	0	0	0	0	0	0	0	0	0	0	0	0	0	2
9321	93.21	0	0	0	0	0	0	0	0	0	0	0	0	0	0	0	0	0	0	0	0	0	1	0	0	17.755	2.1475	16.785	0	0	0	1	0	0	17.761	2.1499	16.789	0	0	0	0	0	0	0	0	0	0	0	0	0	0	0	10.994	-10.994	19.042	0	0	0	1	0	0	17.47	2.0148	16.554	0
9322	93.22	0	0	0	0	0	0	0	0	0	0	0	0	0	0	0	0	0	0	0	0	0	0	0	0	10.989	-10.989	19.033	0	0	0	1	0	0	17.761	2.1499	16.789	0	0	0	0	0	0	0	0	0	0	0	0	0	-1	0	-2.0278	-17.891	16.968	0	0	0	0	0	0	0	0	0	0
9323	93.23	0	0	0	0	0	0	0	0	0	0	0	0	0	0	0	0	0	0	0	0	0	1	0	0	17.755	2.1475	16.785	0	0	0	1	0	0	17.761	2.1499	16.789	0	0	0	1	0	0	17.883	2.027	16.961	0	0	0	0	0	0	0	0	0	0	0	0	0	0	0	0	0	0	2
9324	93.24	0	0	0	0	0	0	0	0	0	0	0	0	0	0	0	0	0	0	0	0	0	1	0	0	17.755	2.1475	16.785	0	0	0	1	0	0	17.761	2.1499	16.789	0	0	0	0	0	0	0	0	0	0	0	0	0	0	0	10.994	-10.994	19.042	0	0	0	1	0	0	17.47	2.0148	16.554	2
9325	93.25	0	0	0	0	0	0	0	0	0	0	0	0	0	0	0	0	0	0	0	0	0	0	0	0	10.989	-10.989	19.033	0	0	0	1	0	0	17.761	2.1499	16.789	0	0	0	0	0	0	0	0	0	0	0	0	0	0	0	0	0	0	0	0	0	0	0	0	0	0	0	2
9326	93.26	0	0	0	0	0	0	10.917	-10.917	18.908	0	0	0	0	0	0	0	0	0	0	0	0	1	0	0	17.755	2.1475	16.785	0	0	0	1	0	0	17.761	2.1499	16.789	0	0	0	1	0	0	17.883	2.027	16.961	0	0	0	0	-1	0	-2.0278	-17.891	16.968	0	0	0	1	0	0	17.47	2.0148	16.554	2
9327	93.27	0	0	0	0	0	0	0	0	0	0	0	0	0	0	0	0	0	0	0	0	0	0	0	0	10.989	-10.989	19.033	0	0	0	1	0	0	17.761	2.1499	16.789	0	0	0	0	0	0	0	0	0	0	0	0	0	0	0	0	0	0	0	0	0	0	0	0	0	0	0	2
9328	93.28	0	0	0	0	0	0	0	0	0	0	0	0	0	0	0	0	0	0	0	0	0	1	0	0	17.755	2.1475	16.785	0	0	0	1	0	0	17.761	2.1499	16.789	0	0	0	0	0	0	0	0	0	0	0	0	0	0	0	10.994	-10.994	19.042	0	0	0	1	0	0	17.47	2.0148	16.554	2
9329	93.29	0	0	0	0	0	0	0	0	0	0	0	0	0	0	0	0	0	0	0	0	0	1	0	0	17.755	2.1475	16.785	0	0	0	1	0	0	17.761	2.1499	16.789	0	0	0	0	0	0	0	0	0	0	0	0	0	0	0	0	0	0	0	0	0	0	0	0	0	0	0	2
9330	93.3	0	0	0	0	0	0	0	0	0	0	0	0	0	0	0	0	0	0	0	0	0	0	0	0	10.989	-10.989	19.033	0	0	0	1	0	0	17.761	2.1499	16.789	0	0	0	0	0	0	0	0	0	0	0	0	1	-1	0	7.5503	-27.469	31.921	0	0	0	1	0	0	17.47	2.0148	16.554	2
9331	93.31	0	0	0	0	0	0	10.917	-10.917	18.908	0	0	0	0	0	0	0	0	0	0	0	0	1	0	0	17.755	2.1475	16.785	0	0	0	1	0	0	17.761	2.1499	16.789	0	0	0	0	0	0	0	0	0	0	0	0	0	0	0	10.994	-10.994	19.042	0	0	0	0	0	0	0	0	0	2
9332	93.32	0	0	0	0	0	0	0	0	0	0	0	0	0	0	0	0	0	0	0	0	0	0	0	0	10.989	-10.989	19.033	0	0	0	1	0	0	17.761	2.1499	16.789	0	0	0	0	0	0	0	0	0	0	0	0	0	-1	0	-2.0278	-17.891	16.968	0	0	0	0	0	0	0	0	0	2
9333	93.33	0	0	0	0	0	0	0	0	0	0	0	0	0	0	0	0	0	0	0	0	0	1	0	0	17.755	2.1475	16.785	0	0	0	1	0	0	17.761	2.1499	16.789	0	0	0	0	0	0	0	0	0	0	0	0	0	0	0	0	0	0	0	0	0	1	0	0	17.47	2.0148	16.554	2
9334	93.34	0	0	0	0	0	0	0	0	0	0	0	0	0	0	0	0	0	0	0	0	0	0	0	0	10.989	-10.989	19.033	0	0	0	1	0	0	17.761	2.1499	16.789	0	0	0	0	0	0	0	0	0	0	0	0	1	-1	0	7.5503	-27.469	31.921	0	0	0	0	0	0	0	0	0	2
9335	93.35	0	0	0	0	0	0	10.917	-10.917	18.908	0	0	0	0	0	0	0	0	0	0	0	0	1	0	0	17.755	2.1475	16.785	0	0	0	1	0	0	17.761	2.1499	16.789	0	0	0	0	0	0	0	0	0	0	0	0	0	0	0	10.994	-10.994	19.042	0	0	0	0	0	0	0	0	0	2
9336	93.36	0	0	0	0	0	0	0	0	0	0	0	0	0	0	0	0	0	0	0	0	0	1	0	0	17.755	2.1475	16.785	0	0	0	1	0	0	17.761	2.1499	16.789	0	0	0	0	0	0	0	0	0	0	0	0	0	0	0	10.994	-10.994	19.042	0	0	0	0	0	0	0	0	0	2
9337	93.37	0	0	0	0	0	0	0	0	0	0	0	0	0	0	0	0	0	0	0	0	0	1	0	0	17.755	2.1475	16.785	0	0	0	1	0	0	17.761	2.1499	16.789	0	0	0	0	0	0	0	0	0	0	0	0	0	0	0	0	0	0	0	0	0	0	0	0	0	0	0	2
9338	93.38	0	0	0	0	0	0	0	0	0	0	0	0	0	0	0	0	0	0	0	0	0	1	0	0	17.755	2.1475	16.785	0	0	0	1	0	0	17.761	2.1499	16.789	0	0	0	0	0	0	0	0	0	0	0	0	1	-1	0	7.5503	-27.469	31.921	0	0	0	1	0	0	17.47	2.0148	16.554	2
9339	93.39	0	0	0	0	0	0	0	0	0	0	0	0	0	0	0	0	0	0	0	0	0	1	0	0	17.755	2.1475	16.785	0	0	0	1	0	0	17.761	2.1499	16.789	0	0	0	0	0	0	0	0	0	0	0	0	0	-1	0	-2.0278	-17.891	16.968	0	0	0	1	0	0	17.482	2.0162	16.566	2
9340	93.4	0	0	0	0	0	0	0	0	0	0	0	0	0	0	0	0	0	0	0	0	0	1	0	0	17.755	2.1475	16.785	0	0	0	1	0	0	17.761	2.1499	16.789	0	0	0	0	0	0	0	0	0	0	0	0	0	-1	0	-2.0278	-17.891	16.968	0	0	0	0	0	0	0	0	0	0
9341	93.41	0	0	0	0	0	0	10.917	-10.917	18.908	0	0	0	0	0	0	0	0	0	0	0	0	1	0	0	17.755	2.1475	16.785	0	0	0	1	0	0	17.761	2.1499	16.789	0	0	0	0	0	0	0	0	0	0	0	0	0	0	0	0	0	0	0	0	0	1	0	0	17.47	2.0148	16.554	2
9342	93.42	0	0	0	0	0	0	0	0	0	0	0	0	0	0	0	0	0	0	0	0	0	1	0	0	17.755	2.1475	16.785	0	0	0	1	0	0	17.761	2.1499	16.789	0	0	0	0	0	0	0	0	0	0	0	0	1	-1	0	7.5503	-27.469	31.921	0	0	0	0	0	0	0	0	0	2
9343	93.43	0	0	0	0	0	0	0	0	0	0	0	0	0	0	0	0	0	0	0	0	0	1	0	0	17.755	2.1475	16.785	0	0	0	1	0	0	17.761	2.1499	16.789	0	0	0	1	0	0	17.883	2.027	16.961	0	0	0	0	0	0	10.994	-10.994	19.042	0	0	0	0	0	0	0	0	0	2
9344	93.44	0	0	0	0	0	0	0	0	0	0	0	0	0	0	0	0	0	0	0	0	0	1	0	0	17.755	2.1475	16.785	0	0	0	1	0	0	17.761	2.1499	16.789	0	0	0	0	0	0	0	0	0	0	0	0	0	0	0	10.994	-10.994	19.042	0	0	0	1	0	0	17.47	2.0148	16.554	2
9345	93.45	0	0	0	0	0	0	10.917	-10.917	18.908	0	0	0	0	0	0	0	0	0	0	0	0	1	0	0	17.755	2.1475	16.785	0	0	0	1	0	0	17.761	2.1499	16.789	0	0	0	0	0	0	0	0	0	0	0	0	0	0	0	10.994	-10.994	19.042	0	0	0	0	0	0	0	0	0	2
9346	93.46	0	0	0	0	0	0	10.917	-10.917	18.908	0	0	0	0	0	0	0	0	0	0	0	0	1	0	0	17.755	2.1475	16.785	0	0	0	1	0	0	17.761	2.1499	16.789	0	0	0	0	0	0	0	0	0	0	0	0	0	0	0	10.994	-10.994	19.042	0	0	0	1	0	0	17.482	2.0162	16.566	2
9347	93.47	0	0	0	0	0	0	0	0	0	0	0	0	0	0	0	0	0	0	0	0	0	1	0	0	17.755	2.1475	16.785	0	0	0	1	0	0	17.761	2.1499	16.789	0	0	0	0	0	0	0	0	0	0	0	0	0	-1	0	-2.0278	-17.891	16.968	0	0	0	1	0	0	17.47	2.0148	16.554	2
9348	93.48	0	0	0	0	0	0	0	0	0	0	0	0	0	0	0	0	0	0	0	0	0	1	0	0	17.755	2.1475	16.785	0	0	0	1	0	0	17.761	2.1499	16.789	0	0	0	0	0	0	0	0	0	0	0	0	0	0	0	10.994	-10.994	19.042	0	0	0	0	0	0	0	0	0	2
9349	93.49	0	0	0	0	0	0	0	0	0	0	0	0	0	0	0	0	0	0	0	0	0	1	0	0	17.755	2.1475	16.785	0	0	0	1	0	0	17.761	2.1499	16.789	0	0	0	0	0	0	0	0	0	0	0	0	1	-1	0	7.5503	-27.469	31.921	0	0	0	0	0	0	0	0	0	2
9350	93.5	0	0	0	0	0	0	0	0	0	0	0	0	0	0	0	0	0	0	0	0	0	1	0	0	17.755	2.1475	16.785	0	0	0	1	0	0	17.761	2.1499	16.789	0	0	0	0	0	0	0	0	0	0	0	0	0	0	0	10.994	-10.994	19.042	0	0	0	0	0	0	0	0	0	2
9351	93.51	0	0	0	0	0	0	0	0	0	0	0	0	0	0	0	0	0	0	0	0	0	1	0	0	17.755	2.1475	16.785	0	0	0	1	0	0	17.761	2.1499	16.789	0	0	0	0	0	0	0	0	0	0	0	0	1	-1	0	7.5503	-27.469	31.921	0	0	0	0	0	0	0	0	0	2
9352	93.52	0	0	0	0	0	0	10.917	-10.917	18.908	0	0	0	0	0	0	0	0	0	0	0	0	1	0	0	17.755	2.1475	16.785	0	0	0	1	0	0	17.761	2.1499	16.789	0	0	0	0	0	0	0	0	0	0	0	0	0	-1	0	-2.0278	-17.891	16.968	0	0	0	1	0	0	17.47	2.0148	16.554	2
9353	93.53	0	0	0	0	0	0	0	0	0	0	0	0	0	0	0	0	0	0	0	0	0	1	0	0	17.755	2.1475	16.785	0	0	0	1	0	0	17.761	2.1499	16.789	0	0	0	1	0	0	17.883	2.027	16.961	0	0	0	0	-1	0	-2.0278	-17.891	16.968	0	0	0	1	0	0	17.47	2.0148	16.554	2
9354	93.54	0	0	0	0	0	0	10.917	-10.917	18.908	0	0	0	0	0	0	0	0	0	0	0	0	1	0	0	17.755	2.1475	16.785	0	0	0	1	0	0	17.761	2.1499	16.789	0	0	0	0	0	0	0	0	0	0	0	0	0	0	0	0	0	0	0	0	0	0	0	0	0	0	0	2
9355	93.55	0	0	0	0	0	0	0	0	0	0	0	0	0	0	0	0	0	0	0	0	0	1	0	0	17.755	2.1475	16.785	0	0	0	1	0	0	17.761	2.1499	16.789	0	0	0	0	0	0	0	0	0	0	0	0	0	0	0	10.994	-10.994	19.042	0	0	0	1	0	0	17.47	2.0148	16.554	2
9356	93.56	0	0	0	0	0	0	0	0	0	0	0	0	0	0	0	0	0	0	0	0	0	1	0	0	17.755	2.1475	16.785	0	0	0	1	0	0	17.761	2.1499	16.789	0	0	0	0	0	0	0	0	0	0	0	0	1	-1	0	7.5503	-27.469	31.921	0	0	0	1	0	0	17.47	2.0148	16.554	2
9357	93.57	0	0	0	0	0	0	0	0	0	0	0	0	0	0	0	0	0	0	0	0	0	1	0	0	17.755	2.1475	16.785	0	0	0	1	0	0	17.761	2.1499	16.789	0	0	0	0	0	0	0	0	0	0	0	0	0	-1	0	-2.0278	-17.891	16.968	0	0	0	0	0	0	0	0	0	2
9358	93.58	0	0	0	0	0	0	10.917	-10.917	18.908	0	0	0	0	0	0	0	0	0	0	0	0	1	0	0	17.755	2.1475	16.785	0	0	0	1	0	0	17.761	2.1499	16.789	0	0	0	0	0	0	0	0	0	0	0	0	0	-1	0	-2.0278	-17.891	16.968	0	0	0	1	0	0	17.47	2.0148	16.554	2
9359	93.59	0	0	0	0	0	0	0	0	0	0	0	0	0	0	0	0	0	0	0	0	0	1	0	0	17.755	2.1475	16.785	0	0	0	1	0	0	17.761	2.1499	16.789	0	0	0	0	0	0	0	0	0	0	0	0	0	-1	0	-2.0278	-17.891	16.968	0	0	0	0	0	0	0	0	0	2
9360	93.6	0	0	0	0	0	0	10.917	-10.917	18.908	0	0	0	0	0	0	0	0	0	0	0	0	1	0	0	17.755	2.1475	16.785	0	0	0	1	0	0	17.761	2.1499	16.789	0	0	0	0	0	0	0	0	0	0	0	0	1	-1	0	7.5503	-27.469	31.921	0	0	0	0	0	0	0	0	0	2
9361	93.61	0	0	0	0	0	0	10.917	-10.917	18.908	0	0	0	0	0	0	0	0	0	0	0	0	1	0	0	17.755	2.1475	16.785	0	0	0	1	0	0	17.761	2.1499	16.789	0	0	0	0	0	0	0	0	0	0	0	0	0	-1	0	-2.0278	-17.891	16.968	0	0	0	1	0	0	17.47	2.0148	16.554	2
9362	93.62	0	0	0	0	0	0	0	0	0	0	0	0	0	0	0	0	0	0	0	0	0	1	0	0	17.755	2.1475	16.785	0	0	0	1	0	0	17.761	2.1499	16.789	0	0	0	0	0	0	0	0	0	0	0	0	0	-1	0	-2.0278	-17.891	16.968	0	0	0	0	0	0	0	0	0	2
9363	93.63	0	0	0	0	0	0	10.917	-10.917	18.908	0	0	0	0	0	0	0	0	0	0	0	0	1	0	0	17.755	2.1475	16.785	0	0	0	1	0	0	17.761	2.1499	16.789	0	0	0	0	0	0	0	0	0	0	0	0	0	0	0	10.994	-10.994	19.042	0	0	0	1	0	0	17.47	2.0148	16.554	2
9364	93.64	0	0	0	0	0	0	0	0	0	0	0	0	0	0	0	0	0	0	0	0	0	0	0	0	10.989	-10.989	19.033	0	0	0	1	0	0	17.761	2.1499	16.789	0	0	0	0	0	0	0	0	0	0	0	0	0	0	0	0	0	0	0	0	0	1	0	0	17.47	2.0148	16.554	2
9365	93.65	0	0	0	0	0	0	0	0	0	0	0	0	0	0	0	0	0	0	0	0	0	1	0	0	17.755	2.1475	16.785	0	0	0	1	0	0	17.761	2.1499	16.789	0	0	0	0	0	0	0	0	0	0	0	0	1	-1	0	7.5503	-27.469	31.921	0	0	0	0	0	0	0	0	0	2
9366	93.66	0	0	0	0	0	0	0	0	0	0	0	0	0	0	0	0	0	0	0	0	0	1	0	0	17.755	2.1475	16.785	0	0	0	1	0	0	17.761	2.1499	16.789	0	0	0	0	0	0	0	0	0	0	0	0	0	-1	0	-2.0278	-17.891	16.968	0	0	0	1	0	0	17.47	2.0148	16.554	2
9367	93.67	0	0	0	0	0	0	0	0	0	0	0	0	0	0	0	0	0	0	0	0	0	1	0	0	17.755	2.1475	16.785	0	0	0	1	0	0	17.761	2.1499	16.789	0	0	0	0	0	0	0	0	0	0	0	0	0	-1	0	-2.0278	-17.891	16.968	0	0	0	0	0	0	0	0	0	2
9368	93.68	0	0	0	0	0	0	10.917	-10.917	18.908	0	0	0	0	0	0	0	0	0	0	0	0	1	0	0	17.755	2.1475	16.785	0	0	0	1	0	0	17.761	2.1499	16.789	0	0	0	0	0	0	0	0	0	0	0	0	0	0	0	10.994	-10.994	19.042	0	0	0	0	0	0	0	0	0	2
9369	93.69	0	0	0	0	0	0	0	0	0	0	0	0	0	0	0	0	0	0	0	0	0	1	0	0	17.755	2.1475	16.785	0	0	0	1	0	0	17.761	2.1499	16.789	0	0	0	0	0	0	0	0	0	0	0	0	0	0	0	10.994	-10.994	19.042	0	0	0	0	0	0	0	0	0	2
9370	93.7	0	0	0	0	0	0	0	0	0	0	0	0	0	0	0	0	0	0	0	0	0	0	0	0	10.989	-10.989	19.033	0	0	0	1	0	0	17.761	2.1499	16.789	0	0	0	0	0	0	0	0	0	0	0	0	0	0	0	0	0	0	0	0	0	1	0	0	17.47	2.0148	16.554	2
9371	93.71	0	0	0	0	0	0	10.917	-10.917	18.908	0	0	0	0	0	0	0	0	0	0	0	0	1	0	0	17.755	2.1475	16.785	0	0	0	1	0	0	17.761	2.1499	16.789	0	0	0	0	0	0	0	0	0	0	0	0	1	-1	0	7.5503	-27.469	31.921	0	0	0	1	0	0	17.47	2.0148	16.554	2
9372	93.72	0	0	0	0	0	0	0	0	0	0	0	0	0	0	0	0	0	0	0	0	0	0	0	0	10.989	-10.989	19.033	0	0	0	1	0	0	17.761	2.1499	16.789	0	0	0	0	0	0	0	0	0	0	0	0	0	0	0	0	0	0	0	0	0	0	0	0	0	0	0	2
9373	93.73	0	0	0	0	0	0	10.917	-10.917	18.908	0	0	0	0	0	0	0	0	0	0	0	0	1	0	0	17.755	2.1475	16.785	0	0	0	1	0	0	17.761	2.1499	16.789	0	0	0	1	0	0	17.883	2.027	16.961	0	0	0	0	0	0	0	0	0	0	0	0	0	0	0	0	0	0	2
9374	93.74	0	0	0	0	0	0	10.917	-10.917	18.908	0	0	0	0	0	0	0	0	0	0	0	0	1	0	0	17.755	2.1475	16.785	0	0	0	1	0	0	17.761	2.1499	16.789	0	0	0	0	0	0	0	0	0	0	0	0	0	-1	0	-2.0278	-17.891	16.968	0	0	0	0	0	0	0	0	0	2
9375	93.75	0	0	0	0	0	0	10.917	-10.917	18.908	0	0	0	0	0	0	0	0	0	0	0	0	1	0	0	17.755	2.1475	16.785	0	0	0	1	0	0	17.761	2.1499	16.789	0	0	0	0	0	0	0	0	0	0	0	0	0	-1	0	-2.0278	-17.891	16.968	0	0	0	0	0	0	0	0	0	2
9376	93.76	0	0	0	0	0	0	0	0	0	0	0	0	0	0	0	0	0	0	0	0	0	1	0	0	17.755	2.1475	16.785	0	0	0	1	0	0	17.761	2.1499	16.789	0	0	0	0	0	0	0	0	0	0	0	0	0	0	0	10.994	-10.994	19.042	0	0	0	1	0	0	17.47	2.0148	16.554	2
9377	93.77	0	0	0	0	0	0	0	0	0	0	0	0	0	0	0	0	0	0	0	0	0	0	0	0	10.989	-10.989	19.033	0	0	0	1	0	0	17.883	2.027	16.961	0	0	0	0	0	0	0	0	0	0	0	0	0	-1	0	-2.0278	-17.891	16.968	0	0	0	0	0	0	0	0	0	0
9378	93.78	0	0	0	0	0	0	10.917	-10.917	18.908	0	0	0	0	0	0	0	0	0	0	0	0	1	0	0	17.755	2.1475	16.785	0	0	0	1	0	0	17.761	2.1499	16.789	0	0	0	1	0	0	17.883	2.027	16.961	0	0	0	0	-1	0	-2.0278	-17.891	16.968	0	0	0	1	0	0	17.47	2.0148	16.554	2
9379	93.79	0	0	0	0	0	0	0	0	0	0	0	0	0	0	0	0	0	0	0	0	0	1	0	0	17.755	2.1475	16.785	0	0	0	1	0	0	17.761	2.1499	16.789	0	0	0	0	0	0	0	0	0	0	0	0	0	0	0	0	0	0	0	0	0	0	0	0	0	0	0	2
9380	93.8	0	0	0	0	0	0	10.917	-10.917	18.908	0	0	0	0	0	0	0	0	0	0	0	0	1	0	0	17.755	2.1475	16.785	0	0	0	1	0	0	17.761	2.1499	16.789	0	0	0	1	0	0	17.883	2.027	16.961	0	0	0	1	-1	0	7.5503	-27.469	31.921	0	0	0	0	0	0	0	0	0	2
9381	93.81	0	0	0	0	0	0	0	0	0	0	0	0	0	0	0	0	0	0	0	0	0	1	0	0	17.755	2.1475	16.785	0	0	0	1	0	0	17.761	2.1499	16.789	0	0	0	0	0	0	0	0	0	0	0	0	1	-1	0	7.5503	-27.469	31.921	0	0	0	0	0	0	0	0	0	2
9382	93.82	0	0	0	0	0	0	10.917	-10.917	18.908	0	0	0	0	0	0	0	0	0	0	0	0	0	0	0	10.989	-10.989	19.033	0	0	0	1	0	0	17.761	2.1499	16.789	0	0	0	0	0	0	0	0	0	0	0	0	0	0	0	0	0	0	0	0	0	0	0	0	0	0	0	2
9383	93.83	0	0	0	0	0	0	0	0	0	0	0	0	0	0	0	0	0	0	0	0	0	1	0	0	17.755	2.1475	16.785	0	0	0	1	0	0	17.761	2.1499	16.789	0	0	0	0	0	0	0	0	0	0	0	0	0	-1	0	-2.0278	-17.891	16.968	0	0	0	0	0	0	0	0	0	2
9384	93.84	0	0	0	0	0	0	10.917	-10.917	18.908	0	0	0	0	0	0	0	0	0	0	0	0	0	0	0	10.989	-10.989	19.033	0	0	0	1	0	0	17.761	2.1499	16.789	0	0	0	0	0	0	0	0	0	0	0	0	0	-1	0	-2.0278	-17.891	16.968	0	0	0	0	0	0	0	0	0	2
9385	93.85	0	0	0	0	0	0	10.917	-10.917	18.908	0	0	0	0	0	0	0	0	0	0	0	0	1	0	0	17.755	2.1475	16.785	0	0	0	1	0	0	17.883	2.027	16.961	0	0	0	0	0	0	0	0	0	0	0	0	0	-1	0	-2.0278	-17.891	16.968	0	0	0	1	0	0	17.47	2.0148	16.554	2
9386	93.86	0	0	0	0	0	0	10.917	-10.917	18.908	0	0	0	0	0	0	0	0	0	0	0	0	1	0	0	17.755	2.1475	16.785	0	0	0	1	0	0	17.761	2.1499	16.789	0	0	0	0	0	0	0	0	0	0	0	0	0	0	0	10.994	-10.994	19.042	0	0	0	0	0	0	0	0	0	2
9387	93.87	0	0	0	0	0	0	0	0	0	0	0	0	0	0	0	0	0	0	0	0	0	0	0	0	10.989	-10.989	19.033	0	0	0	1	0	0	17.761	2.1499	16.789	0	0	0	0	0	0	0	0	0	0	0	0	0	-1	0	-2.0278	-17.891	16.968	0	0	0	0	0	0	0	0	0	2
9388	93.88	0	0	0	0	0	0	10.917	-10.917	18.908	0	0	0	0	0	0	0	0	0	0	0	0	1	0	0	17.755	2.1475	16.785	0	0	0	1	0	0	17.761	2.1499	16.789	0	0	0	0	0	0	0	0	0	0	0	0	0	0	0	10.994	-10.994	19.042	0	0	0	0	0	0	0	0	0	2
9389	93.89	0	0	0	0	0	0	0	0	0	0	0	0	0	0	0	0	0	0	0	0	0	1	0	0	17.755	2.1475	16.785	0	0	0	1	0	0	17.761	2.1499	16.789	0	0	0	0	0	0	0	0	0	0	0	0	0	-1	0	-2.0278	-17.891	16.968	0	0	0	0	0	0	0	0	0	2
9390	93.9	0	0	0	0	0	0	0	0	0	0	0	0	0	0	0	0	0	0	0	0	0	1	0	0	17.755	2.1475	16.785	0	0	0	1	0	0	17.883	2.027	16.961	0	0	0	0	0	0	0	0	0	0	0	0	1	-1	0	7.5503	-27.469	31.921	0	0	0	0	0	0	0	0	0	2
9391	93.91	0	0	0	0	0	0	0	0	0	0	0	0	0	0	0	0	0	0	0	0	0	1	0	0	17.755	2.1475	16.785	0	0	0	1	0	0	17.761	2.1499	16.789	0	0	0	0	0	0	0	0	0	0	0	0	0	-1	0	-2.0278	-17.891	16.968	0	0	0	0	0	0	0	0	0	2
9392	93.92	0	0	0	0	0	0	0	0	0	0	0	0	0	0	0	0	0	0	0	0	0	0	0	0	10.989	-10.989	19.033	0	0	0	1	0	0	17.883	2.027	16.961	0	0	0	0	0	0	0	0	0	0	0	0	0	0	0	0	0	0	0	0	0	0	0	0	0	0	0	2
9393	93.93	0	0	0	0	0	0	10.917	-10.917	18.908	0	0	0	0	0	0	0	0	0	0	0	0	1	0	0	17.755	2.1475	16.785	0	0	0	1	0	0	17.761	2.1499	16.789	0	0	0	0	0	0	0	0	0	0	0	0	0	0	0	10.994	-10.994	19.042	0	0	0	1	0	0	17.47	2.0148	16.554	2
9394	93.94	0	0	0	0	0	0	0	0	0	0	0	0	0	0	0	0	0	0	0	0	0	0	0	0	10.989	-10.989	19.033	0	0	0	1	0	0	17.761	2.1499	16.789	0	0	0	0	0	0	0	0	0	0	0	0	0	0	0	0	0	0	0	0	0	0	0	0	0	0	0	2
9395	93.95	0	0	0	0	0	0	0	0	0	0	0	0	0	0	0	0	0	0	0	0	0	1	0	0	17.757	2.1494	16.786	0	0	0	1	0	0	17.761	2.1499	16.789	0	0	0	0	0	0	0	0	0	0	0	0	0	0	0	0	0	0	0	0	0	1	0	0	30.423	8.5595	27.174	2
9396	93.96	0	0	0	0	0	0	10.917	-10.917	18.908	0	0	0	0	0	0	0	0	0	0	0	0	1	0	0	17.755	2.1475	16.785	0	0	0	1	0	0	17.761	2.1499	16.789	0	0	0	0	0	0	0	0	0	0	0	0	0	0	0	10.994	-10.994	19.042	0	0	0	1	0	0	17.47	2.0148	16.554	3
9397	93.97	0	0	0	0	0	0	0	0	0	0	0	0	0	0	0	0	0	0	0	0	0	0	0	0	10.989	-10.989	19.033	0	0	0	1	0	0	17.761	2.1499	16.789	0	0	0	0	0	0	0	0	0	0	0	0	0	0	0	0	0	0	0	0	0	0	0	0	0	0	0	2
9398	93.98	0	0	0	0	0	0	0	0	0	0	0	0	0	0	0	0	0	0	0	0	0	1	0	0	17.755	2.1475	16.785	0	0	0	1	0	0	17.761	2.1499	16.789	0	0	0	0	0	0	0	0	0	0	0	0	0	-1	0	-2.0278	-17.891	16.968	0	0	0	1	0	0	17.47	2.0148	16.554	2
9399	93.99	0	0	0	0	0	0	10.917	-10.917	18.908	0	0	0	0	0	0	0	0	0	0	0	0	1	0	0	17.755	2.1475	16.785	0	0	0	1	0	0	17.761	2.1499	16.789	0	0	0	0	0	0	0	0	0	0	0	0	1	-1	0	7.5503	-27.469	31.921	0	0	0	1	0	0	17.482	2.0162	16.566	2
9400	94	0	0	0	0	0	0	0	0	0	0	0	0	0	0	0	0	0	0	0	0	0	1	0	0	17.755	2.1475	16.785	0	0	0	1	0	0	17.761	2.1499	16.789	0	0	0	0	0	0	0	0	0	0	0	0	0	0	0	0	0	0	0	0	0	1	0	0	17.47	2.0148	16.554	2
9401	94.01	0	0	0	0	0	0	0	0	0	0	0	0	0	0	0	0	0	0	0	0	0	1	0	0	17.755	2.1475	16.785	0	0	0	1	0	0	17.761	2.1499	16.789	0	0	0	0	0	0	0	0	0	0	0	0	0	-1	0	-2.0278	-17.891	16.968	0	0	0	0	0	0	0	0	0	2
9402	94.02	0	0	0	0	0	0	0	0	0	0	0	0	0	0	0	0	0	0	0	0	0	0	0	0	10.989	-10.989	19.033	0	0	0	1	0	0	17.761	2.1499	16.789	0	0	0	0	0	0	0	0	0	0	0	0	0	0	0	0	0	0	0	0	0	0	0	0	0	0	0	2
9403	94.03	0	0	0	0	0	0	0	0	0	0	0	0	0	0	0	0	0	0	0	0	0	1	0	0	17.755	2.1475	16.785	0	0	0	1	0	0	17.761	2.1499	16.789	0	0	0	0	0	0	0	0	0	0	0	0	0	0	0	0	0	0	0	0	0	1	0	0	17.47	2.0148	16.554	2
9404	94.04	0	0	0	0	0	0	10.917	-10.917	18.908	0	0	0	0	0	0	0	0	0	0	0	0	0	0	0	10.989	-10.989	19.033	0	0	0	1	0	0	17.761	2.1499	16.789	0	0	0	0	0	0	0	0	0	0	0	0	0	0	0	0	0	0	0	0	0	0	0	0	0	0	0	2
9405	94.05	0	0	0	0	0	0	10.917	-10.917	18.908	0	0	0	0	0	0	0	0	0	0	0	0	1	0	0	17.755	2.1475	16.785	0	0	0	1	0	0	17.761	2.1499	16.789	0	0	0	0	0	0	0	0	0	0	0	0	0	0	0	0	0	0	0	0	0	0	0	0	0	0	0	2
9406	94.06	0	0	0	0	0	0	10.917	-10.917	18.908	0	0	0	0	0	0	0	0	0	0	0	0	1	0	0	17.755	2.1475	16.785	0	0	0	1	0	0	17.761	2.1499	16.789	0	0	0	0	0	0	0	0	0	0	0	0	0	0	0	0	0	0	0	0	0	1	0	0	17.47	2.0148	16.554	2
9407	94.07	0	0	0	0	0	0	10.917	-10.917	18.908	0	0	0	0	0	0	0	0	0	0	0	0	0	0	0	20.079	19.73	19.907	0	0	0	1	0	0	17.761	2.1499	16.789	0	0	0	0	0	0	0	0	0	0	0	0	0	-1	0	-2.0278	-17.891	16.968	0	0	0	0	0	0	0	0	0	2
9408	94.08	0	0	0	0	0	0	0	0	0	0	0	0	0	0	0	0	0	0	0	0	0	1	0	0	17.755	2.1475	16.785	0	0	0	1	0	0	17.761	2.1499	16.789	0	0	0	0	0	0	0	0	0	0	0	0	0	0	0	0	0	0	0	0	0	0	0	0	0	0	0	2
9409	94.09	0	0	0	0	0	0	0	0	0	0	0	0	0	0	0	0	0	0	0	0	0	1	0	0	17.755	2.1475	16.785	0	0	0	1	0	0	17.761	2.1499	16.789	0	0	0	0	0	0	0	0	0	0	0	0	0	-1	0	-2.0278	-17.891	16.968	0	0	0	0	0	0	0	0	0	2
9410	94.1	0	0	0	0	0	0	10.917	-10.917	18.908	0	0	0	0	0	0	0	0	0	0	0	0	1	0	0	17.755	2.1475	16.785	0	0	0	1	0	0	17.761	2.1499	16.789	0	0	0	0	0	0	0	0	0	0	0	0	1	-1	0	7.5503	-27.469	31.921	0	0	0	0	0	0	0	0	0	2
9411	94.11	0	0	0	0	0	0	10.917	-10.917	18.908	0	0	0	0	0	0	0	0	0	0	0	0	1	0	0	17.755	2.1475	16.785	0	0	0	1	0	0	17.761	2.1499	16.789	0	0	0	0	0	0	0	0	0	0	0	0	0	0	0	0	0	0	0	0	0	1	0	0	17.47	2.0148	16.554	2
9412	94.12	0	0	0	0	0	0	10.917	-10.917	18.908	0	0	0	0	0	0	0	0	0	0	0	0	0	0	0	10.989	-10.989	19.033	0	0	0	1	0	0	17.761	2.1499	16.789	0	0	0	0	0	0	0	0	0	0	0	0	0	0	0	0	0	0	0	0	0	0	0	0	0	0	0	2
9413	94.13	0	0	0	0	0	0	0	0	0	0	0	0	0	0	0	0	0	0	0	0	0	1	0	0	17.755	2.1475	16.785	0	0	0	1	0	0	17.761	2.1499	16.789	0	0	0	1	0	0	17.883	2.027	16.961	0	0	0	1	-1	0	7.5503	-27.469	31.921	0	0	0	1	0	0	17.47	2.0148	16.554	2
9414	94.14	0	0	0	0	0	0	0	0	0	0	0	0	0	0	0	0	0	0	0	0	0	1	0	0	17.755	2.1475	16.785	0	0	0	1	0	0	17.761	2.1499	16.789	0	0	0	0	0	0	0	0	0	0	0	0	0	0	0	0	0	0	0	0	0	0	0	0	0	0	0	2
9415	94.15	0	0	0	0	0	0	10.917	-10.917	18.908	0	0	0	0	0	0	0	0	0	0	0	0	0	0	0	10.989	-10.989	19.033	0	0	0	1	0	0	17.761	2.1499	16.789	0	0	0	0	0	0	0	0	0	0	0	0	0	0	0	0	0	0	0	0	0	0	0	0	0	0	0	2
9416	94.16	0	0	0	0	0	0	0	0	0	0	0	0	0	0	0	0	0	0	0	0	0	1	0	0	17.755	2.1475	16.785	0	0	0	1	0	0	17.761	2.1499	16.789	0	0	0	0	0	0	0	0	0	0	0	0	0	0	0	0	0	0	0	0	0	0	0	0	0	0	0	2
9417	94.17	0	0	0	0	0	0	0	0	0	0	0	0	0	0	0	0	0	0	0	0	0	0	0	0	10.989	-10.989	19.033	0	0	0	1	0	0	17.761	2.1499	16.789	0	0	0	0	0	0	0	0	0	0	0	0	0	-1	0	-2.0278	-17.891	16.968	0	0	0	0	0	0	0	0	0	2
9418	94.18	0	0	0	0	0	0	0	0	0	0	0	0	0	0	0	0	0	0	0	0	0	1	0	0	17.755	2.1475	16.785	0	0	0	1	0	0	17.761	2.1499	16.789	0	0	0	0	0	0	0	0	0	0	0	0	0	0	0	0	0	0	0	0	0	0	0	0	0	0	0	2
9419	94.19	0	0	0	0	0	0	0	0	0	0	0	0	0	0	0	0	0	0	0	0	0	1	0	0	17.755	2.1475	16.785	0	0	0	1	0	0	17.761	2.1499	16.789	0	0	0	0	0	0	0	0	0	0	0	0	0	0	0	10.994	-10.994	19.042	0	0	0	0	0	0	0	0	0	2
9420	94.2	0	0	0	0	0	0	10.917	-10.917	18.908	0	0	0	0	0	0	0	0	0	0	0	0	0	0	0	10.989	-10.989	19.033	0	0	0	1	0	0	17.761	2.1499	16.789	0	0	0	0	0	0	0	0	0	0	0	0	0	-1	0	-2.0278	-17.891	16.968	0	0	0	0	0	0	0	0	0	2
9421	94.21	0	0	0	0	0	0	0	0	0	0	0	0	0	0	0	0	0	0	0	0	0	1	0	0	17.755	2.1475	16.785	0	0	0	1	0	0	17.761	2.1499	16.789	0	0	0	0	0	0	0	0	0	0	0	0	0	0	0	10.994	-10.994	19.042	0	0	0	1	0	0	17.47	2.0148	16.554	2
9422	94.22	0	0	0	0	0	0	0	0	0	0	0	0	0	0	0	0	0	0	0	0	0	0	0	0	10.989	-10.989	19.033	0	0	0	1	0	0	17.761	2.1499	16.789	0	0	0	0	0	0	0	0	0	0	0	0	0	0	0	0	0	0	0	0	0	0	0	0	0	0	0	2
9423	94.23	0	0	0	0	0	0	0	0	0	0	0	0	0	0	0	0	0	0	0	0	0	1	0	0	17.755	2.1475	16.785	0	0	0	1	0	0	17.761	2.1499	16.789	0	0	0	0	0	0	0	0	0	0	0	0	0	0	0	10.994	-10.994	19.042	0	0	0	0	0	0	0	0	0	2
9424	94.24	0	0	0	0	0	0	0	0	0	0	0	0	0	0	0	0	0	0	0	0	0	0	0	0	10.989	-10.989	19.033	0	0	0	1	0	0	17.761	2.1499	16.789	0	0	0	0	0	0	0	0	0	0	0	0	0	0	0	0	0	0	0	0	0	0	0	0	0	0	0	2
9425	94.25	0	0	0	0	0	0	0	0	0	0	0	0	0	0	0	0	0	0	0	0	0	0	0	0	10.989	-10.989	19.033	0	0	0	1	0	0	17.761	2.1499	16.789	0	0	0	0	0	0	0	0	0	0	0	0	0	0	0	10.994	-10.994	19.042	0	0	0	0	0	0	0	0	0	2
9426	94.26	0	0	0	0	0	0	0	0	0	0	0	0	0	0	0	0	0	0	0	0	0	1	0	0	17.755	2.1475	16.785	0	0	0	1	0	0	17.761	2.1499	16.789	0	0	0	0	0	0	0	0	0	0	0	0	0	-1	0	-2.0278	-17.891	16.968	0	0	0	0	0	0	0	0	0	2
9427	94.27	0	0	0	0	0	0	0	0	0	0	0	0	0	0	0	0	0	0	0	0	0	1	0	0	17.755	2.1475	16.785	0	0	0	1	0	0	17.761	2.1499	16.789	0	0	0	0	0	0	0	0	0	0	0	0	0	0	0	0	0	0	0	0	0	0	0	0	0	0	0	2
9428	94.28	0	0	0	0	0	0	10.917	-10.917	18.908	0	0	0	0	0	0	0	0	0	0	0	0	1	0	0	17.755	2.1475	16.785	0	0	0	1	0	0	17.761	2.1499	16.789	0	0	0	0	0	0	0	0	0	0	0	0	0	0	0	0	0	0	0	0	0	0	0	0	0	0	0	2
9429	94.29	0	0	0	0	0	0	0	0	0	0	0	0	0	0	0	0	0	0	0	0	0	0	0	0	10.989	-10.989	19.033	0	0	0	1	0	0	17.761	2.1499	16.789	0	0	0	0	0	0	0	0	0	0	0	0	0	-1	0	-2.0278	-17.891	16.968	0	0	0	0	0	0	0	0	0	2
9430	94.3	0	0	0	0	0	0	10.917	-10.917	18.908	0	0	0	0	0	0	0	0	0	0	0	0	0	0	0	10.989	-10.989	19.033	0	0	0	1	0	0	17.761	2.1499	16.789	0	0	0	0	0	0	0	0	0	0	0	0	0	0	0	0	0	0	0	0	0	0	0	0	0	0	0	2
9431	94.31	0	0	0	0	0	0	0	0	0	0	0	0	0	0	0	0	0	0	0	0	0	0	0	0	20.079	19.73	19.907	0	0	0	1	0	0	17.761	2.1499	16.789	0	0	0	0	0	0	0	0	0	0	0	0	0	-1	0	-2.0278	-17.891	16.968	0	0	0	0	0	0	0	0	0	2
9432	94.32	0	0	0	0	0	0	0	0	0	0	0	0	0	0	0	0	0	0	0	0	0	0	0	0	10.989	-10.989	19.033	0	0	0	1	0	0	17.761	2.1499	16.789	0	0	0	0	0	0	0	0	0	0	0	0	0	-1	0	-2.0278	-17.891	16.968	0	0	0	0	0	0	0	0	0	2
9433	94.33	0	0	0	0	0	0	0	0	0	0	0	0	0	0	0	0	0	0	0	0	0	1	0	0	17.755	2.1475	16.785	0	0	0	1	0	0	17.761	2.1499	16.789	0	0	0	1	0	0	17.883	2.027	16.961	0	0	0	0	0	0	10.994	-10.994	19.042	0	0	0	1	0	0	17.47	2.0148	16.554	2
9434	94.34	0	0	0	0	0	0	0	0	0	0	0	0	0	0	0	0	0	0	0	0	0	1	0	0	17.755	2.1475	16.785	0	0	0	1	0	0	17.761	2.1499	16.789	0	0	0	0	0	0	0	0	0	0	0	0	0	0	0	10.994	-10.994	19.042	0	0	0	0	0	0	0	0	0	2
9435	94.35	0	0	0	0	0	0	0	0	0	0	0	0	0	0	0	0	0	0	0	0	0	1	0	0	17.755	2.1475	16.785	0	0	0	1	0	0	17.761	2.1499	16.789	0	0	0	0	0	0	0	0	0	0	0	0	0	0	0	0	0	0	0	0	0	0	0	0	0	0	0	2
9436	94.36	0	0	0	0	0	0	10.917	-10.917	18.908	0	0	0	0	0	0	0	0	0	0	0	0	1	0	0	17.755	2.1475	16.785	0	0	0	1	0	0	17.761	2.1499	16.789	0	0	0	1	0	0	17.883	2.027	16.961	0	0	0	0	-1	0	-2.0278	-17.891	16.968	0	0	0	0	0	0	0	0	0	2
9437	94.37	0	0	0	0	0	0	0	0	0	0	0	0	0	0	0	0	0	0	0	0	0	0	0	0	10.989	-10.989	19.033	0	0	0	1	0	0	17.761	2.1499	16.789	0	0	0	0	0	0	0	0	0	0	0	0	0	0	0	0	0	0	0	0	0	0	0	0	0	0	0	2
9438	94.38	0	0	0	0	0	0	10.917	-10.917	18.908	0	0	0	0	0	0	0	0	0	0	0	0	1	0	0	17.755	2.1475	16.785	0	0	0	1	0	0	17.761	2.1499	16.789	0	0	0	0	0	0	0	0	0	0	0	0	0	0	0	10.994	-10.994	19.042	0	0	0	1	0	0	17.47	2.0148	16.554	2
9439	94.39	0	0	0	0	0	0	10.917	-10.917	18.908	0	0	0	0	0	0	0	0	0	0	0	0	0	0	0	10.989	-10.989	19.033	0	0	0	1	0	0	17.761	2.1499	16.789	0	0	0	0	0	0	0	0	0	0	0	0	1	-1	0	7.5503	-27.469	31.921	0	0	0	0	0	0	0	0	0	2
9440	94.4	0	0	0	0	0	0	10.917	-10.917	18.908	0	0	0	0	0	0	0	0	0	0	0	0	0	0	0	10.989	-10.989	19.033	0	0	0	1	0	0	17.761	2.1499	16.789	0	0	0	0	0	0	0	0	0	0	0	0	0	-1	0	-2.0278	-17.891	16.968	0	0	0	1	0	0	17.47	2.0148	16.554	2
9441	94.41	0	0	0	0	0	0	0	0	0	0	0	0	0	0	0	0	0	0	0	0	0	1	0	0	17.755	2.1475	16.785	0	0	0	1	0	0	17.761	2.1499	16.789	0	0	0	1	0	0	17.883	2.027	16.961	0	0	0	0	-1	0	-2.0278	-17.891	16.968	0	0	0	0	0	0	0	0	0	2
9442	94.42	0	0	0	0	0	0	10.917	-10.917	18.908	0	0	0	0	0	0	0	0	0	0	0	0	0	0	0	10.989	-10.989	19.033	0	0	0	1	0	0	17.761	2.1499	16.789	0	0	0	0	0	0	0	0	0	0	0	0	0	-1	0	-2.0278	-17.891	16.968	0	0	0	1	0	0	17.47	2.0148	16.554	2
9443	94.43	0	0	0	0	0	0	0	0	0	0	0	0	0	0	0	0	0	0	0	0	0	1	0	0	17.755	2.1475	16.785	0	0	0	1	0	0	17.761	2.1499	16.789	0	0	0	0	0	0	0	0	0	0	0	0	0	-1	0	-2.0278	-17.891	16.968	0	0	0	0	0	0	0	0	0	2
9444	94.44	0	0	0	0	0	0	0	0	0	0	0	0	0	0	0	0	0	0	0	0	0	0	0	0	10.989	-10.989	19.033	0	0	0	1	0	0	17.761	2.1499	16.789	0	0	0	0	0	0	0	0	0	0	0	0	0	-1	0	-2.0278	-17.891	16.968	0	0	0	0	0	0	0	0	0	3
9445	94.45	0	0	0	0	0	0	10.917	-10.917	18.908	0	0	0	0	0	0	0	0	0	0	0	0	1	0	0	17.755	2.1475	16.785	0	0	0	1	0	0	17.761	2.1499	16.789	0	0	0	0	0	0	0	0	0	0	0	0	0	0	0	0	0	0	0	0	0	1	0	0	17.47	2.0148	16.554	2
9446	94.46	0	0	0	0	0	0	0	0	0	0	0	0	0	0	0	0	0	0	0	0	0	1	0	0	17.755	2.1475	16.785	0	0	0	1	0	0	17.761	2.1499	16.789	0	0	0	0	0	0	0	0	0	0	0	0	0	0	0	0	0	0	0	0	0	0	0	0	0	0	0	2
9447	94.47	0	0	0	0	0	0	10.917	-10.917	18.908	0	0	0	0	0	0	0	0	0	0	0	0	1	0	0	17.755	2.1475	16.785	0	0	0	1	0	0	17.761	2.1499	16.789	0	0	0	0	0	0	0	0	0	0	0	0	0	-1	0	-2.0278	-17.891	16.968	0	0	0	0	0	0	0	0	0	2
9448	94.48	0	0	0	0	0	0	0	0	0	0	0	0	0	0	0	0	0	0	0	0	0	1	0	0	17.755	2.1475	16.785	0	0	0	1	0	0	17.761	2.1499	16.789	0	0	0	1	0	0	17.883	2.027	16.961	0	0	0	0	0	0	0	0	0	0	0	0	0	0	0	0	0	0	2
9449	94.49	0	0	0	0	0	0	0	0	0	0	0	0	0	0	0	0	0	0	0	0	0	0	0	0	10.989	-10.989	19.033	0	0	0	1	0	0	17.761	2.1499	16.789	0	0	0	0	0	0	0	0	0	0	0	0	0	0	0	0	0	0	0	0	0	0	0	0	0	0	0	2
9450	94.5	0	0	0	0	0	0	0	0	0	0	0	0	0	0	0	0	0	0	0	0	0	1	0	0	17.755	2.1475	16.785	0	0	0	1	0	0	17.761	2.1499	16.789	0	0	0	0	0	0	0	0	0	0	0	0	1	-1	0	7.5503	-27.469	31.921	0	0	0	0	0	0	0	0	0	3
9451	94.51	0	0	0	0	0	0	10.917	-10.917	18.908	0	0	0	0	0	0	0	0	0	0	0	0	1	0	0	17.755	2.1475	16.785	0	0	0	1	0	0	17.761	2.1499	16.789	0	0	0	0	0	0	0	0	0	0	0	0	0	0	0	0	0	0	0	0	0	1	0	0	17.47	2.0148	16.554	2
9452	94.52	0	0	0	0	0	0	10.917	-10.917	18.908	0	0	0	0	0	0	0	0	0	0	0	0	0	0	0	10.989	-10.989	19.033	0	0	0	1	0	0	17.761	2.1499	16.789	0	0	0	0	0	0	0	0	0	0	0	0	1	-1	0	7.5503	-27.469	31.921	0	0	0	1	0	0	17.47	2.0148	16.554	2
9453	94.53	0	0	0	0	0	0	0	0	0	0	0	0	0	0	0	0	0	0	0	0	0	1	0	0	17.755	2.1475	16.785	0	0	0	1	0	0	17.761	2.1499	16.789	0	0	0	0	0	0	0	0	0	0	0	0	1	-1	0	7.5503	-27.469	31.921	0	0	0	1	0	0	17.47	2.0148	16.554	2
9454	94.54	0	0	0	0	0	0	10.917	-10.917	18.908	0	0	0	0	0	0	0	0	0	0	0	0	0	0	0	10.989	-10.989	19.033	0	0	0	1	0	0	17.761	2.1499	16.789	0	0	0	0	0	0	0	0	0	0	0	0	0	-1	0	-2.0278	-17.891	16.968	0	0	0	0	0	0	0	0	0	2
9455	94.55	0	0	0	0	0	0	0	0	0	0	0	0	0	0	0	0	0	0	0	0	0	1	0	0	17.755	2.1475	16.785	0	0	0	1	0	0	17.761	2.1499	16.789	0	0	0	1	0	0	17.883	2.027	16.961	0	0	0	1	-1	0	7.5503	-27.469	31.921	0	0	0	0	0	0	0	0	0	2
9456	94.56	0	0	0	0	0	0	0	0	0	0	0	0	0	0	0	0	0	0	0	0	0	0	0	0	10.989	-10.989	19.033	0	0	0	1	0	0	17.761	2.1499	16.789	0	0	0	0	0	0	0	0	0	0	0	0	0	-1	0	-2.0278	-17.891	16.968	0	0	0	0	0	0	0	0	0	2
9457	94.57	0	0	0	0	0	0	0	0	0	0	0	0	0	0	0	0	0	0	0	0	0	0	0	0	10.989	-10.989	19.033	0	0	0	1	0	0	17.883	2.027	16.961	0	0	0	0	0	0	0	0	0	0	0	0	0	-1	0	-2.0278	-17.891	16.968	0	0	0	0	0	0	0	0	0	2
9458	94.58	0	0	0	0	0	0	0	0	0	0	0	0	0	0	0	0	0	0	0	0	0	0	0	0	10.989	-10.989	19.033	0	0	0	1	0	0	17.761	2.1499	16.789	0	0	0	0	0	0	0	0	0	0	0	0	0	0	0	10.994	-10.994	19.042	0	0	0	1	0	0	17.47	2.0148	16.554	2
9459	94.59	0	0	0	0	0	0	0	0	0	0	0	0	0	0	0	0	0	0	0	0	0	0	0	0	10.989	-10.989	19.033	0	0	0	1	0	0	17.761	2.1499	16.789	0	0	0	0	0	0	0	0	0	0	0	0	0	-1	0	-2.0278	-17.891	16.968	0	0	0	1	0	0	17.482	2.0162	16.566	2
9460	94.6	0	0	0	0	0	0	0	0	0	0	0	0	0	0	0	0	0	0	0	0	0	1	0	0	17.755	2.1475	16.785	0	0	0	1	0	0	17.761	2.1499	16.789	0	0	0	0	0	0	0	0	0	0	0	0	0	0	0	0	0	0	0	0	0	0	0	0	0	0	0	2
9461	94.61	0	0	0	0	0	0	0	0	0	0	0	0	0	0	0	0	0	0	0	0	0	1	0	0	17.755	2.1475	16.785	0	0	0	1	0	0	17.761	2.1499	16.789	0	0	0	0	0	0	0	0	0	0	0	0	0	-1	0	-2.0278	-17.891	16.968	0	0	0	1	0	0	17.47	2.0148	16.554	2
9462	94.62	0	0	0	0	0	0	10.917	-10.917	18.908	0	0	0	0	0	0	0	0	0	0	0	0	0	0	0	10.989	-10.989	19.033	0	0	0	1	0	0	17.761	2.1499	16.789	0	0	0	0	0	0	0	0	0	0	0	0	0	-1	0	-2.0278	-17.891	16.968	0	0	0	0	0	0	0	0	0	2
9463	94.63	0	0	0	0	0	0	0	0	0	0	0	0	0	0	0	0	0	0	0	0	0	1	0	0	17.755	2.1475	16.785	0	0	0	1	0	0	17.761	2.1499	16.789	0	0	0	0	0	0	0	0	0	0	0	0	0	-1	0	-2.0278	-17.891	16.968	0	0	0	1	0	0	17.47	2.0148	16.554	2
9464	94.64	0	0	0	0	0	0	0	0	0	0	0	0	0	0	0	0	0	0	0	0	0	1	0	0	17.755	2.1475	16.785	0	0	0	1	0	0	17.761	2.1499	16.789	0	0	0	0	0	0	0	0	0	0	0	0	0	-1	0	-2.0278	-17.891	16.968	0	0	0	0	0	0	0	0	0	2
9465	94.65	0	0	0	0	0	0	0	0	0	0	0	0	0	0	0	0	0	0	0	0	0	0	0	0	10.989	-10.989	19.033	0	0	0	1	0	0	17.761	2.1499	16.789	0	0	0	0	0	0	0	0	0	0	0	0	0	0	0	0	0	0	0	0	0	0	0	0	0	0	0	2
9466	94.66	0	0	0	0	0	0	10.917	-10.917	18.908	0	0	0	0	0	0	0	0	0	0	0	0	1	0	0	17.755	2.1475	16.785	0	0	0	1	0	0	17.761	2.1499	16.789	0	0	0	1	0	0	17.883	2.027	16.961	0	0	0	0	-1	0	-2.0278	-17.891	16.968	0	0	0	1	0	0	17.47	2.0148	16.554	2
9467	94.67	0	0	0	0	0	0	0	0	0	0	0	0	0	0	0	0	0	0	0	0	0	0	0	0	10.989	-10.989	19.033	0	0	0	1	0	0	17.761	2.1499	16.789	0	0	0	0	0	0	0	0	0	0	0	0	0	-1	0	-2.0278	-17.891	16.968	0	0	0	0	0	0	0	0	0	2
9468	94.68	0	0	0	0	0	0	10.917	-10.917	18.908	0	0	0	0	0	0	0	0	0	0	0	0	0	0	0	10.989	-10.989	19.033	0	0	0	1	0	0	17.761	2.1499	16.789	0	0	0	0	0	0	0	0	0	0	0	0	0	0	0	0	0	0	0	0	0	1	0	0	17.47	2.0148	16.554	2
9469	94.69	0	0	0	0	0	0	0	0	0	0	0	0	0	0	0	0	0	0	0	0	0	0	0	0	10.989	-10.989	19.033	0	0	0	1	0	0	17.761	2.1499	16.789	0	0	0	0	0	0	0	0	0	0	0	0	0	0	0	0	0	0	0	0	0	1	0	0	17.47	2.0148	16.554	2
9470	94.7	0	0	0	0	0	0	10.917	-10.917	18.908	0	0	0	0	0	0	0	0	0	0	0	0	0	0	0	10.989	-10.989	19.033	0	0	0	1	0	0	17.761	2.1499	16.789	0	0	0	0	0	0	0	0	0	0	0	0	0	-1	0	-2.0278	-17.891	16.968	0	0	0	0	0	0	0	0	0	2
9471	94.71	0	0	0	0	0	0	10.917	-10.917	18.908	0	0	0	0	0	0	0	0	0	0	0	0	1	0	0	17.755	2.1475	16.785	0	0	0	1	0	0	17.761	2.1499	16.789	0	0	0	1	0	0	17.883	2.027	16.961	0	0	0	1	-1	0	7.5503	-27.469	31.921	0	0	0	0	0	0	0	0	0	2
9472	94.72	0	0	0	0	0	0	0	0	0	0	0	0	0	0	0	0	0	0	0	0	0	0	0	0	10.989	-10.989	19.033	0	0	0	1	0	0	17.761	2.1499	16.789	0	0	0	0	0	0	0	0	0	0	0	0	0	0	0	0	0	0	0	0	0	0	0	0	0	0	0	2
9473	94.73	0	0	0	0	0	0	0	0	0	0	0	0	0	0	0	0	0	0	0	0	0	1	0	0	17.755	2.1475	16.785	0	0	0	1	0	0	17.761	2.1499	16.789	0	0	0	0	0	0	0	0	0	0	0	0	1	-1	0	7.5503	-27.469	31.921	0	0	0	1	0	0	17.47	2.0148	16.554	2
9474	94.74	0	0	0	0	0	0	10.917	-10.917	18.908	0	0	0	0	0	0	0	0	0	0	0	0	1	0	0	17.755	2.1475	16.785	0	0	0	1	0	0	17.761	2.1499	16.789	0	0	0	0	0	0	0	0	0	0	0	0	0	-1	0	-2.0278	-17.891	16.968	0	0	0	0	0	0	0	0	0	2
9475	94.75	0	0	0	0	0	0	10.917	-10.917	18.908	0	0	0	0	0	0	0	0	0	0	0	0	1	0	0	17.755	2.1475	16.785	0	0	0	1	0	0	17.761	2.1499	16.789	0	0	0	0	0	0	0	0	0	0	0	0	0	0	0	0	0	0	0	0	0	1	0	0	17.47	2.0148	16.554	2
9476	94.76	0	0	0	0	0	0	10.917	-10.917	18.908	0	0	0	0	0	0	0	0	0	0	0	0	1	0	0	17.755	2.1475	16.785	0	0	0	1	0	0	17.761	2.1499	16.789	0	0	0	0	0	0	0	0	0	0	0	0	0	-1	0	-2.0278	-17.891	16.968	0	0	0	1	0	0	17.47	2.0148	16.554	2
9477	94.77	0	0	0	0	0	0	10.917	-10.917	18.908	0	0	0	0	0	0	0	0	0	0	0	0	1	0	0	17.755	2.1475	16.785	0	0	0	1	0	0	17.761	2.1499	16.789	0	0	0	0	0	0	0	0	0	0	0	0	0	-1	0	-2.0278	-17.891	16.968	0	0	0	0	0	0	0	0	0	2
9478	94.78	0	0	0	0	0	0	10.917	-10.917	18.908	0	0	0	0	0	0	0	0	0	0	0	0	1	0	0	17.755	2.1475	16.785	0	0	0	1	0	0	17.761	2.1499	16.789	0	0	0	0	0	0	0	0	0	0	0	0	0	0	0	0	0	0	0	0	0	0	0	0	0	0	0	2
9479	94.79	0	0	0	0	0	0	0	0	0	0	0	0	0	0	0	0	0	0	0	0	0	1	0	0	17.755	2.1475	16.785	0	0	0	1	0	0	17.761	2.1499	16.789	0	0	0	0	0	0	0	0	0	0	0	0	0	-1	0	-2.0278	-17.891	16.968	0	0	0	0	0	0	0	0	0	2
9480	94.8	0	0	0	0	0	0	0	0	0	0	0	0	0	0	0	0	0	0	0	0	0	1	0	0	17.755	2.1475	16.785	0	0	0	1	0	0	17.761	2.1499	16.789	0	0	0	0	0	0	0	0	0	0	0	0	0	0	0	0	0	0	0	0	0	0	0	0	0	0	0	2
9481	94.81	0	0	0	0	0	0	0	0	0	0	0	0	0	0	0	0	0	0	0	0	0	1	0	0	17.755	2.1475	16.785	0	0	0	1	0	0	17.761	2.1499	16.789	0	0	0	0	0	0	0	0	0	0	0	0	0	-1	0	-2.0278	-17.891	16.968	0	0	0	0	0	0	0	0	0	2
9482	94.82	0	0	0	0	0	0	0	0	0	0	0	0	0	0	0	0	0	0	0	0	0	1	0	0	17.755	2.1475	16.785	0	0	0	1	0	0	17.761	2.1499	16.789	0	0	0	0	0	0	0	0	0	0	0	0	0	-1	0	-2.0278	-17.891	16.968	0	0	0	0	0	0	0	0	0	2
9483	94.83	0	0	0	0	0	0	10.917	-10.917	18.908	0	0	0	0	0	0	0	0	0	0	0	0	1	0	0	17.755	2.1475	16.785	0	0	0	1	0	0	17.761	2.1499	16.789	0	0	0	0	0	0	0	0	0	0	0	0	0	0	0	0	0	0	0	0	0	1	0	0	17.47	2.0148	16.554	2
9484	94.84	0	0	0	0	0	0	0	0	0	0	0	0	0	0	0	0	0	0	0	0	0	1	0	0	17.755	2.1475	16.785	0	0	0	1	0	0	17.761	2.1499	16.789	0	0	0	0	0	0	0	0	0	0	0	0	1	-1	0	7.5503	-27.469	31.921	0	0	0	0	0	0	0	0	0	2
9485	94.85	0	0	0	0	0	0	0	0	0	0	0	0	0	0	0	0	0	0	0	0	0	1	0	0	17.755	2.1475	16.785	0	0	0	1	0	0	17.761	2.1499	16.789	0	0	0	0	0	0	0	0	0	0	0	0	0	-1	0	-2.0278	-17.891	16.968	0	0	0	1	0	0	17.47	2.0148	16.554	2
9486	94.86	0	0	0	0	0	0	10.917	-10.917	18.908	0	0	0	0	0	0	0	0	0	0	0	0	1	0	0	17.755	2.1475	16.785	0	0	0	1	0	0	17.761	2.1499	16.789	0	0	0	1	0	0	17.883	2.027	16.961	0	0	0	0	-1	0	-2.0278	-17.891	16.968	0	0	0	0	0	0	0	0	0	2
9487	94.87	0	0	0	0	0	0	0	0	0	0	0	0	0	0	0	0	0	0	0	0	0	0	0	0	10.989	-10.989	19.033	0	0	0	1	0	0	17.761	2.1499	16.789	0	0	0	0	0	0	0	0	0	0	0	0	0	-1	0	-2.0278	-17.891	16.968	0	0	0	0	0	0	0	0	0	2
9488	94.88	0	0	0	0	0	0	10.917	-10.917	18.908	0	0	0	0	0	0	0	0	0	0	0	0	1	0	0	17.755	2.1475	16.785	0	0	0	1	0	0	17.761	2.1499	16.789	0	0	0	0	0	0	0	0	0	0	0	0	0	-1	0	-2.0278	-17.891	16.968	0	0	0	0	0	0	0	0	0	2
9489	94.89	0	0	0	0	0	0	0	0	0	0	0	0	0	0	0	0	0	0	0	0	0	0	0	0	10.989	-10.989	19.033	0	0	0	1	0	0	17.761	2.1499	16.789	0	0	0	0	0	0	0	0	0	0	0	0	1	-1	0	7.5503	-27.469	31.921	0	0	0	0	0	0	0	0	0	2
9490	94.9	0	0	0	0	0	0	0	0	0	0	0	0	0	0	0	0	0	0	0	0	0	0	0	0	10.989	-10.989	19.033	0	0	0	1	0	0	17.761	2.1499	16.789	0	0	0	0	0	0	0	0	0	0	0	0	0	-1	0	-2.0278	-17.891	16.968	0	0	0	1	0	0	17.47	2.0148	16.554	2
9491	94.91	0	0	0	0	0	0	10.917	-10.917	18.908	0	0	0	0	0	0	0	0	0	0	0	0	1	0	0	17.755	2.1475	16.785	0	0	0	1	0	0	17.761	2.1499	16.789	0	0	0	0	0	0	0	0	0	0	0	0	0	0	0	10.994	-10.994	19.042	0	0	0	0	0	0	0	0	0	2
9492	94.92	0	0	0	0	0	0	0	0	0	0	0	0	0	0	0	0	0	0	0	0	0	0	0	0	10.989	-10.989	19.033	0	0	0	1	0	0	17.761	2.1499	16.789	0	0	0	0	0	0	0	0	0	0	0	0	1	-1	0	7.5503	-27.469	31.921	0	0	0	0	0	0	0	0	0	2
9493	94.93	0	0	0	0	0	0	0	0	0	0	0	0	0	0	0	0	0	0	0	0	0	1	0	0	17.755	2.1475	16.785	0	0	0	1	0	0	17.761	2.1499	16.789	0	0	0	0	0	0	0	0	0	0	0	0	0	0	0	0	0	0	0	0	0	1	0	0	17.47	2.0148	16.554	3
9494	94.94	0	0	0	0	0	0	10.917	-10.917	18.908	0	0	0	0	0	0	0	0	0	0	0	0	1	0	0	17.755	2.1475	16.785	0	0	0	1	0	0	17.761	2.1499	16.789	0	0	0	0	0	0	0	0	0	0	0	0	0	-1	0	-2.0278	-17.891	16.968	0	0	0	0	0	0	0	0	0	2
9495	94.95	0	0	0	0	0	0	10.917	-10.917	18.908	0	0	0	0	0	0	0	0	0	0	0	0	1	0	0	17.755	2.1475	16.785	0	0	0	1	0	0	17.761	2.1499	16.789	0	0	0	0	0	0	0	0	0	0	0	0	1	-1	0	7.5503	-27.469	31.921	0	0	0	0	0	0	0	0	0	0
9496	94.96	0	0	0	0	0	0	0	0	0	0	0	0	0	0	0	0	0	0	0	0	0	1	0	0	17.755	2.1475	16.785	0	0	0	1	0	0	17.761	2.1499	16.789	0	0	0	1	0	0	17.883	2.027	16.961	0	0	0	0	-1	0	-2.0278	-17.891	16.968	0	0	0	1	0	0	17.47	2.0148	16.554	2
9497	94.97	0	0	0	0	0	0	0	0	0	0	0	0	0	0	0	0	0	0	0	0	0	0	0	0	10.989	-10.989	19.033	0	0	0	1	0	0	17.761	2.1499	16.789	0	0	0	0	0	0	0	0	0	0	0	0	0	0	0	10.994	-10.994	19.042	0	0	0	0	0	0	0	0	0	2
9498	94.98	0	0	0	0	0	0	0	0	0	0	0	0	0	0	0	0	0	0	0	0	0	1	0	0	17.755	2.1475	16.785	0	0	0	1	0	0	17.761	2.1499	16.789	0	0	0	1	0	0	17.883	2.027	16.961	0	0	0	1	-1	0	7.5503	-27.469	31.921	0	0	0	1	0	0	17.471	2.0135	16.556	2
9499	94.99	0	0	0	0	0	0	0	0	0	0	0	0	0	0	0	0	0	0	0	0	0	1	0	0	17.755	2.1475	16.785	0	0	0	1	0	0	17.761	2.1499	16.789	0	0	0	1	0	0	17.883	2.027	16.961	0	0	0	0	-1	0	-2.0278	-17.891	16.968	0	0	0	0	0	0	0	0	0	2
9500	95	0	0	0	0	0	0	0	0	0	0	0	0	0	0	0	0	0	0	0	0	0	0	0	0	10.989	-10.989	19.033	0	0	0	1	0	0	17.761	2.1499	16.789	0	0	0	0	0	0	0	0	0	0	0	0	0	0	0	10.994	-10.994	19.042	0	0	0	0	0	0	0	0	0	2
9501	95.01	0	0	0	0	0	0	0	0	0	0	0	0	0	0	0	0	0	0	0	0	0	1	0	0	17.755	2.1475	16.785	0	0	0	1	0	0	17.761	2.1499	16.789	0	0	0	0	0	0	0	0	0	0	0	0	0	0	0	0	0	0	0	0	0	1	0	0	17.47	2.0148	16.554	2
9502	95.02	0	0	0	0	0	0	0	0	0	0	0	0	0	0	0	0	0	0	0	0	0	0	0	0	10.989	-10.989	19.033	0	0	0	1	0	0	17.761	2.1499	16.789	0	0	0	0	0	0	0	0	0	0	0	0	0	-1	0	-2.0278	-17.891	16.968	0	0	0	0	0	0	0	0	0	2
9503	95.03	0	0	0	0	0	0	0	0	0	0	0	0	0	0	0	0	0	0	0	0	0	1	0	0	17.755	2.1475	16.785	0	0	0	1	0	0	17.761	2.1499	16.789	0	0	0	0	0	0	0	0	0	0	0	0	1	-1	0	7.5503	-27.469	31.921	0	0	0	1	0	0	17.47	2.0148	16.554	2
9504	95.04	0	0	0	0	0	0	10.917	-10.917	18.908	0	0	0	0	0	0	0	0	0	0	0	0	1	0	0	17.755	2.1475	16.785	0	0	0	1	0	0	17.761	2.1499	16.789	0	0	0	0	0	0	0	0	0	0	0	0	0	0	0	0	0	0	0	0	0	0	0	0	0	0	0	2
9505	95.05	0	0	0	0	0	0	0	0	0	0	0	0	0	0	0	0	0	0	0	0	0	1	0	0	17.755	2.1475	16.785	0	0	0	1	0	0	17.761	2.1499	16.789	0	0	0	0	0	0	0	0	0	0	0	0	0	0	0	0	0	0	0	0	0	0	0	0	0	0	0	0
9506	95.06	0	0	0	0	0	0	10.917	-10.917	18.908	0	0	0	0	0	0	0	0	0	0	0	0	1	0	0	17.755	2.1475	16.785	0	0	0	1	0	0	17.761	2.1499	16.789	0	0	0	1	0	0	17.883	2.027	16.961	0	0	0	0	0	0	0	0	0	0	0	0	0	0	0	0	0	0	2
9507	95.07	0	0	0	0	0	0	0	0	0	0	0	0	0	0	0	0	0	0	0	0	0	1	0	0	17.755	2.1475	16.785	0	0	0	1	0	0	17.761	2.1499	16.789	0	0	0	0	0	0	0	0	0	0	0	0	1	-1	0	7.5503	-27.469	31.921	0	0	0	0	0	0	0	0	0	2
9508	95.08	0	0	0	0	0	0	0	0	0	0	0	0	0	0	0	0	0	0	0	0	0	1	0	0	17.755	2.1475	16.785	0	0	0	1	0	0	17.761	2.1499	16.789	0	0	0	0	0	0	0	0	0	0	0	0	0	0	0	10.994	-10.994	19.042	0	0	0	0	0	0	0	0	0	2
9509	95.09	0	0	0	0	0	0	0	0	0	0	0	0	0	0	0	0	0	0	0	0	0	0	0	0	10.989	-10.989	19.033	0	0	0	1	0	0	17.761	2.1499	16.789	0	0	0	0	0	0	0	0	0	0	0	0	0	0	0	10.994	-10.994	19.042	0	0	0	0	0	0	0	0	0	2
9510	95.1	0	0	0	0	0	0	0	0	0	0	0	0	0	0	0	0	0	0	0	0	0	0	0	0	10.989	-10.989	19.033	0	0	0	1	0	0	17.761	2.1499	16.789	0	0	0	0	0	0	0	0	0	0	0	0	0	-1	0	-2.0278	-17.891	16.968	0	0	0	1	0	0	17.47	2.0148	16.554	2
9511	95.11	0	0	0	0	0	0	0	0	0	0	0	0	0	0	0	0	0	0	0	0	0	1	0	0	17.755	2.1475	16.785	0	0	0	1	0	0	17.761	2.1499	16.789	0	0	0	0	0	0	0	0	0	0	0	0	0	-1	0	-2.0278	-17.891	16.968	0	0	0	0	0	0	0	0	0	2
9512	95.12	0	0	0	0	0	0	0	0	0	0	0	0	0	0	0	0	0	0	0	0	0	0	0	0	10.989	-10.989	19.033	0	0	0	1	0	0	17.761	2.1499	16.789	0	0	0	0	0	0	0	0	0	0	0	0	0	0	0	10.994	-10.994	19.042	0	0	0	0	0	0	0	0	0	2
9513	95.13	0	0	0	0	0	0	0	0	0	0	0	0	0	0	0	0	0	0	0	0	0	0	0	0	10.989	-10.989	19.033	0	0	0	1	0	0	17.761	2.1499	16.789	0	0	0	0	0	0	0	0	0	0	0	0	0	-1	0	-2.0278	-17.891	16.968	0	0	0	0	0	0	0	0	0	2
9514	95.14	0	0	0	0	0	0	10.917	-10.917	18.908	0	0	0	0	0	0	0	0	0	0	0	0	1	0	0	17.755	2.1475	16.785	0	0	0	1	0	0	17.761	2.1499	16.789	0	0	0	0	0	0	0	0	0	0	0	0	0	-1	0	-2.0278	-17.891	16.968	0	0	0	0	0	0	0	0	0	2
9515	95.15	0	0	0	0	0	0	0	0	0	0	0	0	0	0	0	0	0	0	0	0	0	0	0	0	10.989	-10.989	19.033	0	0	0	1	0	0	17.761	2.1499	16.789	0	0	0	0	0	0	0	0	0	0	0	0	0	0	0	10.994	-10.994	19.042	0	0	0	0	0	0	0	0	0	2
9516	95.16	0	0	0	0	0	0	0	0	0	0	0	0	0	0	0	0	0	0	0	0	0	1	0	0	17.755	2.1475	16.785	0	0	0	1	0	0	17.761	2.1499	16.789	0	0	0	1	0	0	17.883	2.027	16.961	0	0	0	0	0	0	0	0	0	0	0	0	0	0	0	0	0	0	2
9517	95.17	0	0	0	0	0	0	0	0	0	0	0	0	0	0	0	0	0	0	0	0	0	0	0	0	10.989	-10.989	19.033	0	0	0	1	0	0	17.761	2.1499	16.789	0	0	0	0	0	0	0	0	0	0	0	0	0	0	0	0	0	0	0	0	0	0	0	0	0	0	0	2
9518	95.18	0	0	0	0	0	0	10.917	-10.917	18.908	0	0	0	0	0	0	0	0	0	0	0	0	1	0	0	17.755	2.1475	16.785	0	0	0	1	0	0	17.761	2.1499	16.789	0	0	0	0	0	0	0	0	0	0	0	0	0	0	0	0	0	0	0	0	0	1	0	0	17.47	2.0148	16.554	2
9519	95.19	0	0	0	0	0	0	0	0	0	0	0	0	0	0	0	0	0	0	0	0	0	0	0	0	10.989	-10.989	19.033	0	0	0	1	0	0	17.761	2.1499	16.789	0	0	0	0	0	0	0	0	0	0	0	0	0	0	0	10.994	-10.994	19.042	0	0	0	0	0	0	0	0	0	2
9520	95.2	0	0	0	0	0	0	0	0	0	0	0	0	0	0	0	0	0	0	0	0	0	1	0	0	17.755	2.1475	16.785	0	0	0	1	0	0	17.761	2.1499	16.789	0	0	0	0	0	0	0	0	0	0	0	0	0	-1	0	-2.0278	-17.891	16.968	0	0	0	0	0	0	0	0	0	2
9521	95.21	0	0	0	0	0	0	0	0	0	0	0	0	0	0	0	0	0	0	0	0	0	1	0	0	17.755	2.1475	16.785	0	0	0	1	0	0	17.761	2.1499	16.789	0	0	0	0	0	0	0	0	0	0	0	0	0	-1	0	-2.0278	-17.891	16.968	0	0	0	1	0	0	17.47	2.0148	16.554	2
9522	95.22	0	0	0	0	0	0	0	0	0	0	0	0	0	0	0	0	0	0	0	0	0	0	0	0	10.989	-10.989	19.033	0	0	0	1	0	0	17.761	2.1499	16.789	0	0	0	0	0	0	0	0	0	0	0	0	0	-1	0	-2.0278	-17.891	16.968	0	0	0	0	0	0	0	0	0	2
9523	95.23	0	0	0	0	0	0	0	0	0	0	0	0	0	0	0	0	0	0	0	0	0	1	0	0	17.755	2.1475	16.785	0	0	0	1	0	0	17.761	2.1499	16.789	0	0	0	0	0	0	0	0	0	0	0	0	0	-1	0	-2.0278	-17.891	16.968	0	0	0	0	0	0	0	0	0	2
9524	95.24	0	0	0	0	0	0	10.917	-10.917	18.908	0	0	0	0	0	0	0	0	0	0	0	0	0	0	0	10.989	-10.989	19.033	0	0	0	1	0	0	17.761	2.1499	16.789	0	0	0	0	0	0	0	0	0	0	0	0	0	0	0	0	0	0	0	0	0	1	0	0	17.47	2.0148	16.554	2
9525	95.25	0	0	0	0	0	0	10.917	-10.917	18.908	0	0	0	0	0	0	0	0	0	0	0	0	1	0	0	17.755	2.1475	16.785	0	0	0	1	0	0	17.761	2.1499	16.789	0	0	0	0	0	0	0	0	0	0	0	0	0	-1	0	-2.0278	-17.891	16.968	0	0	0	0	0	0	0	0	0	2
9526	95.26	0	0	0	0	0	0	0	0	0	0	0	0	0	0	0	0	0	0	0	0	0	1	0	0	17.755	2.1475	16.785	0	0	0	1	0	0	17.761	2.1499	16.789	0	0	0	1	0	0	17.883	2.027	16.961	0	0	0	0	0	0	0	0	0	0	0	0	0	0	0	0	0	0	2
9527	95.27	0	0	0	0	0	0	10.917	-10.917	18.908	0	0	0	0	0	0	0	0	0	0	0	0	0	0	0	10.989	-10.989	19.033	0	0	0	1	0	0	17.761	2.1499	16.789	0	0	0	0	0	0	0	0	0	0	0	0	0	-1	0	-2.0278	-17.891	16.968	0	0	0	0	0	0	0	0	0	2
9528	95.28	0	0	0	0	0	0	10.917	-10.917	18.908	0	0	0	0	0	0	0	0	0	0	0	0	1	0	0	17.755	2.1475	16.785	0	0	0	1	0	0	17.761	2.1499	16.789	0	0	0	0	0	0	0	0	0	0	0	0	0	0	0	0	0	0	0	0	0	1	0	0	17.47	2.0148	16.554	2
9529	95.29	0	0	0	0	0	0	0	0	0	0	0	0	0	0	0	0	0	0	0	0	0	0	0	0	10.989	-10.989	19.033	0	0	0	1	0	0	17.761	2.1499	16.789	0	0	0	0	0	0	0	0	0	0	0	0	0	0	0	0	0	0	0	0	0	0	0	0	0	0	0	3
9530	95.3	0	0	0	0	0	0	10.917	-10.917	18.908	0	0	0	0	0	0	0	0	0	0	0	0	1	0	0	17.755	2.1475	16.785	0	0	0	1	0	0	17.761	2.1499	16.789	0	0	0	0	0	0	0	0	0	0	0	0	0	0	0	10.994	-10.994	19.042	0	0	0	0	0	0	0	0	0	2
9531	95.31	0	0	0	0	0	0	0	0	0	0	0	0	0	0	0	0	0	0	0	0	0	1	0	0	17.755	2.1475	16.785	0	0	0	1	0	0	17.761	2.1499	16.789	0	0	0	0	0	0	0	0	0	0	0	0	0	-1	0	-2.0278	-17.891	16.968	0	0	0	0	0	0	0	0	0	2
9532	95.32	0	0	0	0	0	0	0	0	0	0	0	0	0	0	0	0	0	0	0	0	0	0	0	0	10.989	-10.989	19.033	0	0	0	1	0	0	17.761	2.1499	16.789	0	0	0	0	0	0	0	0	0	0	0	0	0	0	0	0	0	0	0	0	0	0	0	0	0	0	0	2
9533	95.33	0	0	0	0	0	0	0	0	0	0	0	0	0	0	0	0	0	0	0	0	0	1	0	0	17.755	2.1475	16.785	0	0	0	1	0	0	17.761	2.1499	16.789	0	0	0	1	0	0	17.883	2.027	16.961	0	0	0	0	0	0	0	0	0	0	0	0	0	0	0	0	0	0	2
9534	95.34	0	0	0	0	0	0	0	0	0	0	0	0	0	0	0	0	0	0	0	0	0	1	0	0	17.755	2.1475	16.785	0	0	0	1	0	0	17.761	2.1499	16.789	0	0	0	0	0	0	0	0	0	0	0	0	0	0	0	10.994	-10.994	19.042	0	0	0	0	0	0	0	0	0	2
9535	95.35	0	0	0	0	0	0	0	0	0	0	0	0	0	0	0	0	0	0	0	0	0	1	0	0	17.755	2.1475	16.785	0	0	0	1	0	0	17.761	2.1499	16.789	0	0	0	0	0	0	0	0	0	0	0	0	0	0	0	0	0	0	0	0	0	0	0	0	0	0	0	2
9536	95.36	0	0	0	0	0	0	0	0	0	0	0	0	0	0	0	0	0	0	0	0	0	1	0	0	17.755	2.1475	16.785	0	0	0	1	0	0	17.761	2.1499	16.789	0	0	0	0	0	0	0	0	0	0	0	0	0	0	0	0	0	0	0	0	0	1	0	0	17.47	2.0148	16.554	2
9537	95.37	0	0	0	0	0	0	0	0	0	0	0	0	0	0	0	0	0	0	0	0	0	1	0	0	17.755	2.1475	16.785	0	0	0	1	0	0	17.761	2.1499	16.789	0	0	0	0	0	0	0	0	0	0	0	0	0	-1	0	-2.0278	-17.891	16.968	0	0	0	0	0	0	0	0	0	2
9538	95.38	0	0	0	0	0	0	0	0	0	0	0	0	0	0	0	0	0	0	0	0	0	1	0	0	17.755	2.1475	16.785	0	0	0	1	0	0	17.761	2.1499	16.789	0	0	0	0	0	0	0	0	0	0	0	0	1	-1	0	7.5503	-27.469	31.921	0	0	0	0	0	0	0	0	0	2
9539	95.39	0	0	0	0	0	0	10.917	-10.917	18.908	0	0	0	0	0	0	0	0	0	0	0	0	1	0	0	17.755	2.1475	16.785	0	0	0	1	0	0	17.761	2.1499	16.789	0	0	0	0	0	0	0	0	0	0	0	0	0	-1	0	-2.0278	-17.891	16.968	0	0	0	0	0	0	0	0	0	2
9540	95.4	0	0	0	0	0	0	0	0	0	0	0	0	0	0	0	0	0	0	0	0	0	1	0	0	17.755	2.1475	16.785	0	0	0	1	0	0	17.761	2.1499	16.789	0	0	0	0	0	0	0	0	0	0	0	0	0	-1	0	-2.0278	-17.891	16.968	0	0	0	0	0	0	0	0	0	2
9541	95.41	0	0	0	0	0	0	0	0	0	0	0	0	0	0	0	0	0	0	0	0	0	1	0	0	17.755	2.1475	16.785	0	0	0	1	0	0	17.761	2.1499	16.789	0	0	0	0	0	0	0	0	0	0	0	0	0	-1	0	-2.0278	-17.891	16.968	0	0	0	1	0	0	17.47	2.0148	16.554	2
9542	95.42	0	0	0	0	0	0	0	0	0	0	0	0	0	0	0	0	0	0	0	0	0	0	0	0	10.989	-10.989	19.033	0	0	0	1	0	0	17.761	2.1499	16.789	0	0	0	0	0	0	0	0	0	0	0	0	0	-1	0	-2.0278	-17.891	16.968	0	0	0	1	0	0	17.47	2.0148	16.554	2
9543	95.43	0	0	0	0	0	0	0	0	0	0	0	0	0	0	0	0	0	0	0	0	0	1	0	0	17.755	2.1475	16.785	0	0	0	1	0	0	17.761	2.1499	16.789	0	0	0	0	0	0	0	0	0	0	0	0	0	0	0	0	0	0	0	0	0	1	0	0	17.47	2.0148	16.554	2
9544	95.44	0	0	0	0	0	0	0	0	0	0	0	0	0	0	0	0	0	0	0	0	0	0	0	0	10.989	-10.989	19.033	0	0	0	1	0	0	17.761	2.1499	16.789	0	0	0	0	0	0	0	0	0	0	0	0	0	-1	0	-2.0278	-17.891	16.968	0	0	0	0	0	0	0	0	0	2
9545	95.45	0	0	0	0	0	0	0	0	0	0	0	0	0	0	0	0	0	0	0	0	0	1	0	0	17.755	2.1475	16.785	0	0	0	1	0	0	17.761	2.1499	16.789	0	0	0	0	0	0	0	0	0	0	0	0	0	0	0	10.994	-10.994	19.042	0	0	0	0	0	0	0	0	0	2
9546	95.46	0	0	0	0	0	0	10.917	-10.917	18.908	0	0	0	0	0	0	0	0	0	0	0	0	1	0	0	17.755	2.1475	16.785	0	0	0	1	0	0	17.761	2.1499	16.789	0	0	0	0	0	0	0	0	0	0	0	0	0	-1	0	-2.0278	-17.891	16.968	0	0	0	1	0	0	17.47	2.0148	16.554	2
9547	95.47	0	0	0	0	0	0	0	0	0	0	0	0	0	0	0	0	0	0	0	0	0	1	0	0	17.755	2.1475	16.785	0	0	0	1	0	0	17.761	2.1499	16.789	0	0	0	0	0	0	0	0	0	0	0	0	0	-1	0	-2.0278	-17.891	16.968	0	0	0	0	0	0	0	0	0	2
9548	95.48	0	0	0	0	0	0	10.917	-10.917	18.908	0	0	0	0	0	0	0	0	0	0	0	0	1	0	0	17.755	2.1475	16.785	0	0	0	1	0	0	17.761	2.1499	16.789	0	0	0	0	0	0	0	0	0	0	0	0	0	-1	0	-2.0278	-17.891	16.968	0	0	0	0	0	0	0	0	0	2
9549	95.49	0	0	0	0	0	0	0	0	0	0	0	0	0	0	0	0	0	0	0	0	0	0	0	0	10.989	-10.989	19.033	0	0	0	1	0	0	17.761	2.1499	16.789	0	0	0	0	0	0	0	0	0	0	0	0	0	-1	0	-2.0278	-17.891	16.968	0	0	0	0	0	0	0	0	0	2
9550	95.5	0	0	0	0	0	0	0	0	0	0	0	0	0	0	0	0	0	0	0	0	0	1	0	0	17.755	2.1475	16.785	0	0	0	1	0	0	17.761	2.1499	16.789	0	0	0	0	0	0	0	0	0	0	0	0	0	-1	0	-2.0278	-17.891	16.968	0	0	0	0	0	0	0	0	0	2
9551	95.51	0	0	0	0	0	0	0	0	0	0	0	0	0	0	0	0	0	0	0	0	0	1	0	0	17.755	2.1475	16.785	0	0	0	1	0	0	17.761	2.1499	16.789	0	0	0	0	0	0	0	0	0	0	0	0	0	0	0	0	0	0	0	0	0	1	0	0	17.47	2.0148	16.554	2
9552	95.52	0	0	0	0	0	0	0	0	0	0	0	0	0	0	0	0	0	0	0	0	0	1	0	0	17.755	2.1475	16.785	0	0	0	1	0	0	17.761	2.1499	16.789	0	0	0	0	0	0	0	0	0	0	0	0	0	0	0	0	0	0	0	0	0	0	0	0	0	0	0	2
9553	95.53	0	0	0	0	0	0	0	0	0	0	0	0	0	0	0	0	0	0	0	0	0	1	0	0	17.755	2.1475	16.785	0	0	0	1	0	0	17.761	2.1499	16.789	0	0	0	0	0	0	0	0	0	0	0	0	0	0	0	0	0	0	0	0	0	0	0	0	0	0	0	2
9554	95.54	0	0	0	0	0	0	0	0	0	0	0	0	0	0	0	0	0	0	0	0	0	1	0	0	17.755	2.1475	16.785	0	0	0	1	0	0	17.761	2.1499	16.789	0	0	0	0	0	0	0	0	0	0	0	0	0	-1	0	-2.0278	-17.891	16.968	0	0	0	0	0	0	0	0	0	2
9555	95.55	0	0	0	0	0	0	0	0	0	0	0	0	0	0	0	0	0	0	0	0	0	1	0	0	17.755	2.1475	16.785	0	0	0	1	0	0	17.761	2.1499	16.789	0	0	0	0	0	0	0	0	0	0	0	0	1	-1	0	7.5503	-27.469	31.921	0	0	0	0	0	0	0	0	0	2
9556	95.56	0	0	0	0	0	0	10.917	-10.917	18.908	0	0	0	0	0	0	0	0	0	0	0	0	1	0	0	17.755	2.1475	16.785	0	0	0	1	0	0	17.761	2.1499	16.789	0	0	0	1	0	0	17.883	2.027	16.961	0	0	0	1	-1	0	7.5503	-27.469	31.921	0	0	0	1	0	0	17.47	2.0148	16.554	2
9557	95.57	0	0	0	0	0	0	0	0	0	0	0	0	0	0	0	0	0	0	0	0	0	0	0	0	10.989	-10.989	19.033	0	0	0	1	0	0	17.761	2.1499	16.789	0	0	0	0	0	0	0	0	0	0	0	0	0	-1	0	-2.0278	-17.891	16.968	0	0	0	0	0	0	0	0	0	2
9558	95.58	0	0	0	0	0	0	0	0	0	0	0	0	0	0	0	0	0	0	0	0	0	1	0	0	17.755	2.1475	16.785	0	0	0	1	0	0	17.761	2.1499	16.789	0	0	0	0	0	0	0	0	0	0	0	0	1	-1	0	7.5503	-27.469	31.921	0	0	0	0	0	0	0	0	0	2
9559	95.59	0	0	0	0	0	0	10.917	-10.917	18.908	0	0	0	0	0	0	0	0	0	0	0	0	0	0	0	10.989	-10.989	19.033	0	0	0	1	0	0	17.761	2.1499	16.789	0	0	0	0	0	0	0	0	0	0	0	0	0	-1	0	-2.0278	-17.891	16.968	0	0	0	0	0	0	0	0	0	2
9560	95.6	0	0	0	0	0	0	0	0	0	0	0	0	0	0	0	0	0	0	0	0	0	1	0	0	17.755	2.1475	16.785	0	0	0	1	0	0	17.761	2.1499	16.789	0	0	0	0	0	0	0	0	0	0	0	0	0	0	0	10.994	-10.994	19.042	0	0	0	0	0	0	0	0	0	2
9561	95.61	0	0	0	0	0	0	0	0	0	0	0	0	0	0	0	0	0	0	0	0	0	1	0	0	17.755	2.1475	16.785	0	0	0	1	0	0	17.761	2.1499	16.789	0	0	0	0	0	0	0	0	0	0	0	0	0	0	0	10.994	-10.994	19.042	0	0	0	0	0	0	0	0	0	2
9562	95.62	0	0	0	0	0	0	10.917	-10.917	18.908	0	0	0	0	0	0	0	0	0	0	0	0	0	0	0	10.989	-10.989	19.033	0	0	0	1	0	0	17.761	2.1499	16.789	0	0	0	0	0	0	0	0	0	0	0	0	0	0	0	0	0	0	0	0	0	0	0	0	0	0	0	2
9563	95.63	0	0	0	0	0	0	0	0	0	0	0	0	0	0	0	0	0	0	0	0	0	1	0	0	17.755	2.1475	16.785	0	0	0	1	0	0	17.883	2.027	16.961	0	0	0	0	0	0	0	0	0	0	0	0	0	0	0	10.994	-10.994	19.042	0	0	0	1	0	0	17.47	2.0148	16.554	2
9564	95.64	0	0	0	0	0	0	0	0	0	0	0	0	0	0	0	0	0	0	0	0	0	1	0	0	17.755	2.1475	16.785	0	0	0	1	0	0	17.761	2.1499	16.789	0	0	0	0	0	0	0	0	0	0	0	0	0	0	0	0	0	0	0	0	0	0	0	0	0	0	0	2
9565	95.65	0	0	0	0	0	0	0	0	0	0	0	0	0	0	0	0	0	0	0	0	0	1	0	0	17.755	2.1475	16.785	0	0	0	1	0	0	17.761	2.1499	16.789	0	0	0	0	0	0	0	0	0	0	0	0	0	-1	0	-2.0278	-17.891	16.968	0	0	0	0	0	0	0	0	0	2
9566	95.66	0	0	0	0	0	0	10.917	-10.917	18.908	0	0	0	0	0	0	0	0	0	0	0	0	1	0	0	17.755	2.1475	16.785	0	0	0	1	0	0	17.761	2.1499	16.789	0	0	0	0	0	0	0	0	0	0	0	0	0	0	0	0	0	0	0	0	0	1	0	0	17.47	2.0148	16.554	2
9567	95.67	0	0	0	0	0	0	0	0	0	0	0	0	0	0	0	0	0	0	0	0	0	1	0	0	17.755	2.1475	16.785	0	0	0	1	0	0	17.761	2.1499	16.789	0	0	0	0	0	0	0	0	0	0	0	0	0	0	0	0	0	0	0	0	0	0	0	0	0	0	0	2
9568	95.68	0	0	0	0	0	0	10.917	-10.917	18.908	0	0	0	0	0	0	0	0	0	0	0	0	1	0	0	17.755	2.1475	16.785	0	0	0	1	0	0	17.761	2.1499	16.789	0	0	0	0	0	0	0	0	0	0	0	0	0	0	0	10.994	-10.994	19.042	0	0	0	0	0	0	0	0	0	2
9569	95.69	0	0	0	0	0	0	0	0	0	0	0	0	0	0	0	0	0	0	0	0	0	1	0	0	17.755	2.1475	16.785	0	0	0	1	0	0	17.761	2.1499	16.789	0	0	0	0	0	0	0	0	0	0	0	0	0	0	0	0	0	0	0	0	0	1	0	0	17.47	2.0148	16.554	2
9570	95.7	0	0	0	0	0	0	10.917	-10.917	18.908	0	0	0	0	0	0	0	0	0	0	0	0	1	0	0	17.755	2.1475	16.785	0	0	0	1	0	0	17.761	2.1499	16.789	0	0	0	0	0	0	0	0	0	0	0	0	0	0	0	0	0	0	0	0	0	0	0	0	0	0	0	2
9571	95.71	0	0	0	0	0	0	0	0	0	0	0	0	0	0	0	0	0	0	0	0	0	1	0	0	17.755	2.1475	16.785	0	0	0	1	0	0	17.761	2.1499	16.789	0	0	0	0	0	0	0	0	0	0	0	0	0	0	0	0	0	0	0	0	0	0	0	0	0	0	0	2
9572	95.72	0	0	0	0	0	0	0	0	0	0	0	0	0	0	0	0	0	0	0	0	0	1	0	0	17.755	2.1475	16.785	0	0	0	1	0	0	17.761	2.1499	16.789	0	0	0	0	0	0	0	0	0	0	0	0	0	-1	0	-2.0278	-17.891	16.968	0	0	0	0	0	0	0	0	0	2
9573	95.73	0	0	0	0	0	0	0	0	0	0	0	0	0	0	0	0	0	0	0	0	0	1	0	0	17.755	2.1475	16.785	0	0	0	1	0	0	17.761	2.1499	16.789	0	0	0	0	0	0	0	0	0	0	0	0	0	0	0	0	0	0	0	0	0	0	0	0	0	0	0	2
9574	95.74	0	0	0	0	0	0	10.917	-10.917	18.908	0	0	0	0	0	0	0	0	0	0	0	0	0	0	0	10.989	-10.989	19.033	0	0	0	1	0	0	17.883	2.027	16.961	0	0	0	0	0	0	0	0	0	0	0	0	0	-1	0	-2.0278	-17.891	16.968	0	0	0	0	0	0	0	0	0	2
9575	95.75	0	0	0	0	0	0	0	0	0	0	0	0	0	0	0	0	0	0	0	0	0	1	0	0	17.755	2.1475	16.785	0	0	0	1	0	0	17.761	2.1499	16.789	0	0	0	0	0	0	0	0	0	0	0	0	1	-1	0	7.5503	-27.469	31.921	0	0	0	0	0	0	0	0	0	2
9576	95.76	0	0	0	0	0	0	10.917	-10.917	18.908	0	0	0	0	0	0	0	0	0	0	0	0	1	0	0	17.755	2.1475	16.785	0	0	0	1	0	0	17.761	2.1499	16.789	0	0	0	1	0	0	17.883	2.027	16.961	0	0	0	0	0	0	0	0	0	0	0	0	1	0	0	17.47	2.0148	16.554	2
9577	95.77	0	0	0	0	0	0	0	0	0	0	0	0	0	0	0	0	0	0	0	0	0	0	0	0	10.989	-10.989	19.033	0	0	0	1	0	0	17.761	2.1499	16.789	0	0	0	0	0	0	0	0	0	0	0	0	0	-1	0	-2.0278	-17.891	16.968	0	0	0	0	0	0	0	0	0	2
9578	95.78	0	0	0	0	0	0	0	0	0	0	0	0	0	0	0	0	0	0	0	0	0	1	0	0	17.755	2.1475	16.785	0	0	0	1	0	0	17.761	2.1499	16.789	0	0	0	1	0	0	17.883	2.027	16.961	0	0	0	0	0	0	0	0	0	0	0	0	1	0	0	17.47	2.0148	16.554	2
9579	95.79	0	0	0	0	0	0	10.917	-10.917	18.908	0	0	0	0	0	0	0	0	0	0	0	0	1	0	0	17.755	2.1475	16.785	0	0	0	1	0	0	17.761	2.1499	16.789	0	0	0	0	0	0	0	0	0	0	0	0	0	0	0	0	0	0	0	0	0	1	0	0	17.47	2.0148	16.554	2
9580	95.8	0	0	0	0	0	0	0	0	0	0	0	0	0	0	0	0	0	0	0	0	0	1	0	0	17.755	2.1475	16.785	0	0	0	1	0	0	17.761	2.1499	16.789	0	0	0	0	0	0	0	0	0	0	0	0	0	-1	0	-2.0278	-17.891	16.968	0	0	0	0	0	0	0	0	0	2
9581	95.81	0	0	0	0	0	0	10.917	-10.917	18.908	0	0	0	0	0	0	0	0	0	0	0	0	1	0	0	17.755	2.1475	16.785	0	0	0	1	0	0	17.761	2.1499	16.789	0	0	0	0	0	0	0	0	0	0	0	0	0	0	0	0	0	0	0	0	0	1	0	0	17.47	2.0148	16.554	2
9582	95.82	0	0	0	0	0	0	10.917	-10.917	18.908	0	0	0	0	0	0	0	0	0	0	0	0	0	0	0	10.989	-10.989	19.033	0	0	0	1	0	0	17.761	2.1499	16.789	0	0	0	0	0	0	0	0	0	0	0	0	0	0	0	0	0	0	0	0	0	0	0	0	0	0	0	2
9583	95.83	0	0	0	0	0	0	0	0	0	0	0	0	0	0	0	0	0	0	0	0	0	1	0	0	17.755	2.1475	16.785	0	0	0	1	0	0	17.761	2.1499	16.789	0	0	0	0	0	0	0	0	0	0	0	0	0	0	0	0	0	0	0	0	0	1	0	0	17.47	2.0148	16.554	2
9584	95.84	0	0	0	0	0	0	0	0	0	0	0	0	0	0	0	0	0	0	0	0	0	1	0	0	17.755	2.1475	16.785	0	0	0	1	0	0	17.761	2.1499	16.789	0	0	0	0	0	0	0	0	0	0	0	0	0	0	0	0	0	0	0	0	0	0	0	0	0	0	0	2
9585	95.85	0	0	0	0	0	0	0	0	0	0	0	0	0	0	0	0	0	0	0	0	0	1	0	0	17.755	2.1475	16.785	0	0	0	1	0	0	17.761	2.1499	16.789	0	0	0	0	0	0	0	0	0	0	0	0	0	0	0	0	0	0	0	0	0	0	0	0	0	0	0	2
9586	95.86	0	0	0	0	0	0	10.917	-10.917	18.908	0	0	0	0	0	0	0	0	0	0	0	0	1	0	0	17.755	2.1475	16.785	0	0	0	1	0	0	17.761	2.1499	16.789	0	0	0	0	0	0	0	0	0	0	0	0	1	-1	0	7.5503	-27.469	31.921	0	0	0	0	0	0	0	0	0	2
9587	95.87	0	0	0	0	0	0	0	0	0	0	0	0	0	0	0	0	0	0	0	0	0	1	0	0	17.755	2.1475	16.785	0	0	0	1	0	0	17.761	2.1499	16.789	0	0	0	0	0	0	0	0	0	0	0	0	0	0	0	0	0	0	0	0	0	0	0	0	0	0	0	2
9588	95.88	0	0	0	0	0	0	10.917	-10.917	18.908	0	0	0	0	0	0	0	0	0	0	0	0	1	0	0	17.755	2.1475	16.785	0	0	0	1	0	0	17.761	2.1499	16.789	0	0	0	1	0	0	17.883	2.027	16.961	0	0	0	0	0	0	10.994	-10.994	19.042	0	0	0	0	0	0	0	0	0	2
9589	95.89	0	0	0	0	0	0	0	0	0	0	0	0	0	0	0	0	0	0	0	0	0	1	0	0	17.755	2.1475	16.785	0	0	0	1	0	0	17.761	2.1499	16.789	0	0	0	0	0	0	0	0	0	0	0	0	0	-1	0	-2.0278	-17.891	16.968	0	0	0	0	0	0	0	0	0	2
9590	95.9	0	0	0	0	0	0	0	0	0	0	0	0	0	0	0	0	0	0	0	0	0	1	0	0	17.755	2.1475	16.785	0	0	0	1	0	0	17.761	2.1499	16.789	0	0	0	0	0	0	0	0	0	0	0	0	0	-1	0	-2.0278	-17.891	16.968	0	0	0	0	0	0	0	0	0	2
9591	95.91	0	0	0	0	0	0	10.917	-10.917	18.908	0	0	0	0	0	0	0	0	0	0	0	0	1	0	0	17.755	2.1475	16.785	0	0	0	1	0	0	17.761	2.1499	16.789	0	0	0	0	0	0	0	0	0	0	0	0	0	-1	0	-2.0278	-17.891	16.968	0	0	0	1	0	0	17.47	2.0148	16.554	2
9592	95.92	0	0	0	0	0	0	10.917	-10.917	18.908	0	0	0	0	0	0	0	0	0	0	0	0	1	0	0	17.755	2.1475	16.785	0	0	0	1	0	0	17.761	2.1499	16.789	0	0	0	0	0	0	0	0	0	0	0	0	0	-1	0	-2.0278	-17.891	16.968	0	0	0	1	0	0	17.47	2.0148	16.554	2
9593	95.93	0	0	0	0	0	0	10.917	-10.917	18.908	0	0	0	0	0	0	0	0	0	0	0	0	1	0	0	17.755	2.1475	16.785	0	0	0	1	0	0	17.761	2.1499	16.789	0	0	0	0	0	0	0	0	0	0	0	0	0	0	0	0	0	0	0	0	0	0	0	0	0	0	0	2
9594	95.94	0	0	0	0	0	0	10.917	-10.917	18.908	0	0	0	0	0	0	0	0	0	0	0	0	1	0	0	17.755	2.1475	16.785	0	0	0	1	0	0	17.761	2.1499	16.789	0	0	0	0	0	0	0	0	0	0	0	0	0	-1	0	-2.0278	-17.891	16.968	0	0	0	0	0	0	0	0	0	2
9595	95.95	0	0	0	0	0	0	10.917	-10.917	18.908	0	0	0	0	0	0	0	0	0	0	0	0	1	0	0	17.755	2.1475	16.785	0	0	0	1	0	0	17.761	2.1499	16.789	0	0	0	0	0	0	0	0	0	0	0	0	0	0	0	0	0	0	0	0	0	1	0	0	17.47	2.0148	16.554	2
9596	95.96	0	0	0	0	0	0	10.917	-10.917	18.908	0	0	0	0	0	0	0	0	0	0	0	0	1	0	0	17.755	2.1475	16.785	0	0	0	1	0	0	17.761	2.1499	16.789	0	0	0	0	0	0	0	0	0	0	0	0	1	-1	0	7.5503	-27.469	31.921	0	0	0	0	0	0	0	0	0	2
9597	95.97	0	0	0	0	0	0	10.917	-10.917	18.908	0	0	0	0	0	0	0	0	0	0	0	0	0	0	0	10.989	-10.989	19.033	0	0	0	1	0	0	17.761	2.1499	16.789	0	0	0	0	0	0	0	0	0	0	0	0	0	0	0	0	0	0	0	0	0	0	0	0	0	0	0	2
9598	95.98	0	0	0	0	0	0	10.917	-10.917	18.908	0	0	0	0	0	0	0	0	0	0	0	0	1	0	0	17.755	2.1475	16.785	0	0	0	1	0	0	17.761	2.1499	16.789	0	0	0	0	0	0	0	0	0	0	0	0	0	-1	0	-2.0278	-17.891	16.968	0	0	0	1	0	0	17.47	2.0148	16.554	2
9599	95.99	0	0	0	0	0	0	0	0	0	0	0	0	0	0	0	0	0	0	0	0	0	0	0	0	10.989	-10.989	19.033	0	0	0	1	0	0	17.761	2.1499	16.789	0	0	0	0	0	0	0	0	0	0	0	0	0	0	0	0	0	0	0	0	0	0	0	0	0	0	0	2
9600	96	0	0	0	0	0	0	0	0	0	0	0	0	0	0	0	0	0	0	0	0	0	1	0	0	17.755	2.1475	16.785	0	0	0	1	0	0	17.761	2.1499	16.789	0	0	0	0	0	0	0	0	0	0	0	0	0	-1	0	-2.0278	-17.891	16.968	0	0	0	0	0	0	0	0	0	2
9601	96.01	0	0	0	0	0	0	10.917	-10.917	18.908	0	0	0	0	0	0	0	0	0	0	0	0	1	0	0	17.755	2.1475	16.785	0	0	0	1	0	0	17.761	2.1499	16.789	0	0	0	0	0	0	0	0	0	0	0	0	0	0	0	0	0	0	0	0	0	1	0	0	17.47	2.0148	16.554	2
9602	96.02	0	0	0	0	0	0	0	0	0	0	0	0	0	0	0	0	0	0	0	0	0	1	0	0	17.755	2.1475	16.785	0	0	0	1	0	0	17.761	2.1499	16.789	0	0	0	0	0	0	0	0	0	0	0	0	0	0	0	0	0	0	0	0	0	0	0	0	0	0	0	2
9603	96.03	0	0	0	0	0	0	10.917	-10.917	18.908	0	0	0	0	0	0	0	0	0	0	0	0	1	0	0	17.755	2.1475	16.785	0	0	0	1	0	0	17.761	2.1499	16.789	0	0	0	0	0	0	0	0	0	0	0	0	0	-1	0	-2.0278	-17.891	16.968	0	0	0	0	0	0	0	0	0	2
9604	96.04	0	0	0	0	0	0	10.917	-10.917	18.908	0	0	0	0	0	0	0	0	0	0	0	0	0	0	0	10.989	-10.989	19.033	0	0	0	1	0	0	17.761	2.1499	16.789	0	0	0	0	0	0	0	0	0	0	0	0	0	-1	0	-2.0278	-17.891	16.968	0	0	0	0	0	0	0	0	0	2
9605	96.05	0	0	0	0	0	0	0	0	0	0	0	0	0	0	0	0	0	0	0	0	0	1	0	0	17.755	2.1475	16.785	0	0	0	1	0	0	17.761	2.1499	16.789	0	0	0	0	0	0	0	0	0	0	0	0	0	0	0	10.994	-10.994	19.042	0	0	0	0	0	0	0	0	0	2
9606	96.06	0	0	0	0	0	0	0	0	0	0	0	0	0	0	0	0	0	0	0	0	0	1	0	0	17.755	2.1475	16.785	0	0	0	1	0	0	17.761	2.1499	16.789	0	0	0	0	0	0	0	0	0	0	0	0	0	0	0	0	0	0	0	0	0	0	0	0	0	0	0	2
9607	96.07	0	0	0	0	0	0	0	0	0	0	0	0	0	0	0	0	0	0	0	0	0	0	0	0	10.989	-10.989	19.033	0	0	0	1	0	0	17.761	2.1499	16.789	0	0	0	0	0	0	0	0	0	0	0	0	0	0	0	0	0	0	0	0	0	0	0	0	0	0	0	2
9608	96.08	0	0	0	0	0	0	0	0	0	0	0	0	0	0	0	0	0	0	0	0	0	1	0	0	17.755	2.1475	16.785	0	0	0	1	0	0	17.761	2.1499	16.789	0	0	0	0	0	0	0	0	0	0	0	0	0	-1	0	-2.0278	-17.891	16.968	0	0	0	1	0	0	17.482	2.0162	16.566	2
9609	96.09	0	0	0	0	0	0	0	0	0	0	0	0	0	0	0	0	0	0	0	0	0	1	0	0	17.755	2.1475	16.785	0	0	0	1	0	0	17.761	2.1499	16.789	0	0	0	0	0	0	0	0	0	0	0	0	1	-1	0	7.5503	-27.469	31.921	0	0	0	1	0	0	17.47	2.0148	16.554	2
9610	96.1	0	0	0	0	0	0	0	0	0	0	0	0	0	0	0	0	0	0	0	0	0	0	0	0	10.989	-10.989	19.033	0	0	0	1	0	0	17.761	2.1499	16.789	0	0	0	0	0	0	0	0	0	0	0	0	0	0	0	0	0	0	0	0	0	1	0	0	17.47	2.0148	16.554	2
9611	96.11	0	0	0	0	0	0	0	0	0	0	0	0	0	0	0	0	0	0	0	0	0	1	0	0	17.755	2.1475	16.785	0	0	0	1	0	0	17.761	2.1499	16.789	0	0	0	1	0	0	17.883	2.027	16.961	0	0	0	0	0	0	0	0	0	0	0	0	0	0	0	0	0	0	2
9612	96.12	0	0	0	0	0	0	10.917	-10.917	18.908	0	0	0	0	0	0	0	0	0	0	0	0	0	0	0	10.989	-10.989	19.033	0	0	0	1	0	0	17.761	2.1499	16.789	0	0	0	0	0	0	0	0	0	0	0	0	0	-1	0	-2.0278	-17.891	16.968	0	0	0	0	0	0	0	0	0	2
9613	96.13	0	0	0	0	0	0	10.917	-10.917	18.908	0	0	0	0	0	0	0	0	0	0	0	0	1	0	0	17.755	2.1475	16.785	0	0	0	1	0	0	17.761	2.1499	16.789	0	0	0	0	0	0	0	0	0	0	0	0	0	0	0	0	0	0	0	0	0	1	0	0	17.47	2.0148	16.554	2
9614	96.14	0	0	0	0	0	0	0	0	0	0	0	0	0	0	0	0	0	0	0	0	0	1	0	0	17.755	2.1475	16.785	0	0	0	1	0	0	17.761	2.1499	16.789	0	0	0	0	0	0	0	0	0	0	0	0	0	-1	0	-2.0278	-17.891	16.968	0	0	0	0	0	0	0	0	0	2
9615	96.15	0	0	0	0	0	0	0	0	0	0	0	0	0	0	0	0	0	0	0	0	0	0	0	0	10.989	-10.989	19.033	0	0	0	1	0	0	17.761	2.1499	16.789	0	0	0	0	0	0	0	0	0	0	0	0	0	0	0	0	0	0	0	0	0	0	0	0	0	0	0	2
9616	96.16	0	0	0	0	0	0	0	0	0	0	0	0	0	0	0	0	0	0	0	0	0	1	0	0	17.755	2.1475	16.785	0	0	0	1	0	0	17.761	2.1499	16.789	0	0	0	0	0	0	0	0	0	0	0	0	0	-1	0	-2.0278	-17.891	16.968	0	0	0	1	0	0	17.47	2.0148	16.554	2
9617	96.17	0	0	0	0	0	0	0	0	0	0	0	0	0	0	0	0	0	0	0	0	0	0	0	0	10.989	-10.989	19.033	0	0	0	1	0	0	17.761	2.1499	16.789	0	0	0	0	0	0	0	0	0	0	0	0	0	-1	0	-2.0278	-17.891	16.968	0	0	0	0	0	0	0	0	0	2
9618	96.18	0	0	0	0	0	0	0	0	0	0	0	0	0	0	0	0	0	0	0	0	0	1	0	0	17.755	2.1475	16.785	0	0	0	1	0	0	17.761	2.1499	16.789	0	0	0	0	0	0	0	0	0	0	0	0	1	-1	0	7.5503	-27.469	31.921	0	0	0	0	0	0	0	0	0	2
9619	96.19	0	0	0	0	0	0	10.917	-10.917	18.908	0	0	0	0	0	0	0	0	0	0	0	0	1	0	0	17.755	2.1475	16.785	0	0	0	1	0	0	17.761	2.1499	16.789	0	0	0	0	0	0	0	0	0	0	0	0	0	-1	0	-2.0278	-17.891	16.968	0	0	0	0	0	0	0	0	0	2
9620	96.2	0	0	0	0	0	0	0	0	0	0	0	0	0	0	0	0	0	0	0	0	0	1	0	0	17.755	2.1475	16.785	0	0	0	1	0	0	17.761	2.1499	16.789	0	0	0	0	0	0	0	0	0	0	0	0	0	0	0	0	0	0	0	0	0	1	0	0	17.47	2.0148	16.554	2
9621	96.21	0	0	0	0	0	0	0	0	0	0	0	0	0	0	0	0	0	0	0	0	0	1	0	0	17.755	2.1475	16.785	0	0	0	1	0	0	17.761	2.1499	16.789	0	0	0	0	0	0	0	0	0	0	0	0	0	0	0	10.994	-10.994	19.042	0	0	0	1	0	0	17.47	2.0148	16.554	2
9622	96.22	0	0	0	0	0	0	0	0	0	0	0	0	0	0	0	0	0	0	0	0	0	0	0	0	10.989	-10.989	19.033	0	0	0	1	0	0	17.761	2.1499	16.789	0	0	0	0	0	0	0	0	0	0	0	0	0	-1	0	-2.0278	-17.891	16.968	0	0	0	0	0	0	0	0	0	2
9623	96.23	0	0	0	0	0	0	0	0	0	0	0	0	0	0	0	0	0	0	0	0	0	1	0	0	17.755	2.1475	16.785	0	0	0	1	0	0	17.761	2.1499	16.789	0	0	0	0	0	0	0	0	0	0	0	0	0	0	0	0	0	0	0	0	0	1	0	0	17.47	2.0148	16.554	2
9624	96.24	0	0	0	0	0	0	0	0	0	0	0	0	0	0	0	0	0	0	0	0	0	0	0	0	10.989	-10.989	19.033	0	0	0	1	0	0	17.883	2.027	16.961	0	0	0	0	0	0	0	0	0	0	0	0	0	0	0	10.994	-10.994	19.042	0	0	0	0	0	0	0	0	0	2
9625	96.25	0	0	0	0	0	0	0	0	0	0	0	0	0	0	0	0	0	0	0	0	0	1	0	0	17.755	2.1475	16.785	0	0	0	1	0	0	17.761	2.1499	16.789	0	0	0	1	0	0	17.883	2.027	16.961	0	0	0	0	0	0	10.994	-10.994	19.042	0	0	0	0	0	0	0	0	0	2
9626	96.26	0	0	0	0	0	0	0	0	0	0	0	0	0	0	0	0	0	0	0	0	0	1	0	0	17.755	2.1475	16.785	0	0	0	1	0	0	17.761	2.1499	16.789	0	0	0	0	0	0	0	0	0	0	0	0	0	0	0	10.994	-10.994	19.042	0	0	0	0	0	0	0	0	0	2
9627	96.27	0	0	0	0	0	0	0	0	0	0	0	0	0	0	0	0	0	0	0	0	0	0	0	0	10.989	-10.989	19.033	0	0	0	1	0	0	17.761	2.1499	16.789	0	0	0	0	0	0	0	0	0	0	0	0	0	-1	0	-2.0278	-17.891	16.968	0	0	0	1	0	0	17.47	2.0148	16.554	2
9628	96.28	0	0	0	0	0	0	0	0	0	0	0	0	0	0	0	0	0	0	0	0	0	1	0	0	17.755	2.1475	16.785	0	0	0	1	0	0	17.761	2.1499	16.789	0	0	0	1	0	0	17.883	2.027	16.961	0	0	0	0	0	0	0	0	0	0	0	0	1	0	0	17.47	2.0148	16.554	2
9629	96.29	0	0	0	0	0	0	0	0	0	0	0	0	0	0	0	0	0	0	0	0	0	0	0	0	10.989	-10.989	19.033	0	0	0	1	0	0	17.761	2.1499	16.789	0	0	0	0	0	0	0	0	0	0	0	0	1	-1	0	7.5503	-27.469	31.921	0	0	0	0	0	0	0	0	0	2
9630	96.3	0	0	0	0	0	0	10.917	-10.917	18.908	0	0	0	0	0	0	0	0	0	0	0	0	1	0	0	17.755	2.1475	16.785	0	0	0	1	0	0	17.761	2.1499	16.789	0	0	0	0	0	0	0	0	0	0	0	0	0	-1	0	-2.0278	-17.891	16.968	0	0	0	1	0	0	17.47	2.0148	16.554	2
9631	96.31	0	0	0	0	0	0	0	0	0	0	0	0	0	0	0	0	0	0	0	0	0	1	0	0	17.755	2.1475	16.785	0	0	0	1	0	0	17.761	2.1499	16.789	0	0	0	0	0	0	0	0	0	0	0	0	0	0	0	10.994	-10.994	19.042	0	0	0	1	0	0	17.47	2.0148	16.554	2
9632	96.32	0	0	0	0	0	0	0	0	0	0	0	0	0	0	0	0	0	0	0	0	0	0	0	0	10.989	-10.989	19.033	0	0	0	1	0	0	17.883	2.027	16.961	0	0	0	0	0	0	0	0	0	0	0	0	1	-1	0	7.5503	-27.469	31.921	0	0	0	0	0	0	0	0	0	2
9633	96.33	0	0	0	0	0	0	10.917	-10.917	18.908	0	0	0	0	0	0	0	0	0	0	0	0	1	0	0	17.755	2.1475	16.785	0	0	0	1	0	0	17.761	2.1499	16.789	0	0	0	0	0	0	0	0	0	0	0	0	0	0	0	10.994	-10.994	19.042	0	0	0	1	0	0	17.47	2.0148	16.554	0
9634	96.34	0	0	0	0	0	0	10.917	-10.917	18.908	0	0	0	0	0	0	0	0	0	0	0	0	1	0	0	17.755	2.1475	16.785	0	0	0	1	0	0	17.761	2.1499	16.789	0	0	0	1	0	0	17.883	2.027	16.961	0	0	0	0	0	0	0	0	0	0	0	0	0	0	0	0	0	0	2
9635	96.35	0	0	0	0	0	0	10.917	-10.917	18.908	0	0	0	0	0	0	0	0	0	0	0	0	1	0	0	17.755	2.1475	16.785	0	0	0	1	0	0	17.761	2.1499	16.789	0	0	0	0	0	0	0	0	0	0	0	0	0	-1	0	-2.0278	-17.891	16.968	0	0	0	1	0	0	17.47	2.0148	16.554	2
9636	96.36	0	0	0	0	0	0	0	0	0	0	0	0	0	0	0	0	0	0	0	0	0	1	0	0	17.755	2.1475	16.785	0	0	0	1	0	0	17.761	2.1499	16.789	0	0	0	1	0	0	17.883	2.027	16.961	0	0	0	0	0	0	10.994	-10.994	19.042	0	0	0	1	0	0	17.47	2.0148	16.554	2
9637	96.37	0	0	0	0	0	0	10.917	-10.917	18.908	0	0	0	0	0	0	0	0	0	0	0	0	0	0	0	10.989	-10.989	19.033	0	0	0	1	0	0	17.761	2.1499	16.789	0	0	0	0	0	0	0	0	0	0	0	0	0	-1	0	-2.0278	-17.891	16.968	0	0	0	0	0	0	0	0	0	2
9638	96.38	0	0	0	0	0	0	0	0	0	0	0	0	0	0	0	0	0	0	0	0	0	1	0	0	17.755	2.1475	16.785	0	0	0	1	0	0	17.761	2.1499	16.789	0	0	0	1	0	0	17.883	2.027	16.961	0	0	0	0	0	0	0	0	0	0	0	0	0	0	0	0	0	0	2
9639	96.39	0	0	0	0	0	0	0	0	0	0	0	0	0	0	0	0	0	0	0	0	0	1	0	0	17.755	2.1475	16.785	0	0	0	1	0	0	17.761	2.1499	16.789	0	0	0	0	0	0	0	0	0	0	0	0	1	-1	0	7.5503	-27.469	31.921	0	0	0	0	0	0	0	0	0	2
9640	96.4	0	0	0	0	0	0	0	0	0	0	0	0	0	0	0	0	0	0	0	0	0	1	0	0	17.755	2.1475	16.785	0	0	0	1	0	0	17.761	2.1499	16.789	0	0	0	0	0	0	0	0	0	0	0	0	0	0	0	10.994	-10.994	19.042	0	0	0	0	0	0	0	0	0	2
9641	96.41	0	0	0	0	0	0	0	0	0	0	0	0	0	0	0	0	0	0	0	0	0	1	0	0	17.755	2.1475	16.785	0	0	0	1	0	0	17.761	2.1499	16.789	0	0	0	1	0	0	17.883	2.027	16.961	0	0	0	0	0	0	0	0	0	0	0	0	1	0	0	17.47	2.0148	16.554	2
9642	96.42	0	0	0	0	0	0	0	0	0	0	0	0	0	0	0	0	0	0	0	0	0	1	0	0	17.755	2.1475	16.785	0	0	0	1	0	0	17.761	2.1499	16.789	0	0	0	0	0	0	0	0	0	0	0	0	0	-1	0	-2.0278	-17.891	16.968	0	0	0	0	0	0	0	0	0	2
9643	96.43	0	0	0	0	0	0	10.917	-10.917	18.908	0	0	0	0	0	0	0	0	0	0	0	0	1	0	0	17.755	2.1475	16.785	0	0	0	1	0	0	17.761	2.1499	16.789	0	0	0	0	0	0	0	0	0	0	0	0	0	0	0	10.994	-10.994	19.042	0	0	0	0	0	0	0	0	0	2
9644	96.44	0	0	0	0	0	0	0	0	0	0	0	0	0	0	0	0	0	0	0	0	0	1	0	0	17.755	2.1475	16.785	0	0	0	1	0	0	17.761	2.1499	16.789	0	0	0	0	0	0	0	0	0	0	0	0	1	-1	0	7.5503	-27.469	31.921	0	0	0	0	0	0	0	0	0	2
9645	96.45	0	0	0	0	0	0	10.917	-10.917	18.908	0	0	0	0	0	0	0	0	0	0	0	0	1	0	0	17.755	2.1475	16.785	0	0	0	1	0	0	17.761	2.1499	16.789	0	0	0	0	0	0	0	0	0	0	0	0	1	-1	0	7.5503	-27.469	31.921	0	0	0	1	0	0	17.47	2.0148	16.554	2
9646	96.46	0	0	0	0	0	0	10.917	-10.917	18.908	0	0	0	0	0	0	0	0	0	0	0	0	1	0	0	17.755	2.1475	16.785	0	0	0	1	0	0	17.761	2.1499	16.789	0	0	0	1	0	0	17.883	2.027	16.961	0	0	0	0	-1	0	-2.0278	-17.891	16.968	0	0	0	1	0	0	17.47	2.0148	16.554	2
9647	96.47	0	0	0	0	0	0	0	0	0	0	0	0	0	0	0	0	0	0	0	0	0	0	0	0	10.989	-10.989	19.033	0	0	0	1	0	0	17.761	2.1499	16.789	0	0	0	0	0	0	0	0	0	0	0	0	0	-1	0	-2.0278	-17.891	16.968	0	0	0	0	0	0	0	0	0	2
9648	96.48	0	0	0	0	0	0	0	0	0	0	0	0	0	0	0	0	0	0	0	0	0	1	0	0	17.755	2.1475	16.785	0	0	0	1	0	0	17.761	2.1499	16.789	0	0	0	1	0	0	17.883	2.027	16.961	0	0	0	0	0	0	10.994	-10.994	19.042	0	0	0	1	0	0	17.47	2.0148	16.554	2
9649	96.49	0	0	0	0	0	0	0	0	0	0	0	0	0	0	0	0	0	0	0	0	0	1	0	0	17.755	2.1475	16.785	0	0	0	1	0	0	17.761	2.1499	16.789	0	0	0	0	0	0	0	0	0	0	0	0	0	0	0	0	0	0	0	0	0	0	0	0	0	0	0	2
9650	96.5	0	0	0	0	0	0	0	0	0	0	0	0	0	0	0	0	0	0	0	0	0	0	0	0	10.989	-10.989	19.033	0	0	0	1	0	0	17.761	2.1499	16.789	0	0	0	1	0	0	17.883	2.027	16.961	0	0	0	1	-1	0	7.5503	-27.469	31.921	0	0	0	1	0	0	17.47	2.0148	16.554	2
9651	96.51	0	0	0	0	0	0	0	0	0	0	0	0	0	0	0	0	0	0	0	0	0	1	0	0	17.755	2.1475	16.785	0	0	0	1	0	0	17.761	2.1499	16.789	0	0	0	0	0	0	0	0	0	0	0	0	0	-1	0	-2.0278	-17.891	16.968	0	0	0	0	0	0	0	0	0	2
9652	96.52	0	0	0	0	0	0	0	0	0	0	0	0	0	0	0	0	0	0	0	0	0	1	0	0	17.755	2.1475	16.785	0	0	0	1	0	0	17.761	2.1499	16.789	0	0	0	0	0	0	0	0	0	0	0	0	1	-1	0	7.5503	-27.469	31.921	0	0	0	0	0	0	0	0	0	2
9653	96.53	0	0	0	0	0	0	0	0	0	0	0	0	0	0	0	0	0	0	0	0	0	1	0	0	17.755	2.1475	16.785	0	0	0	1	0	0	17.761	2.1499	16.789	0	0	0	1	0	0	17.883	2.027	16.961	0	0	0	0	0	0	10.994	-10.994	19.042	0	0	0	1	0	0	17.47	2.0148	16.554	2
9654	96.54	0	0	0	0	0	0	0	0	0	0	0	0	0	0	0	0	0	0	0	0	0	1	0	0	17.755	2.1475	16.785	0	0	0	1	0	0	17.883	2.027	16.961	0	0	0	0	0	0	0	0	0	0	0	0	1	-1	0	7.5503	-27.469	31.921	0	0	0	0	0	0	0	0	0	2
9655	96.55	0	0	0	0	0	0	10.917	-10.917	18.908	0	0	0	0	0	0	0	0	0	0	0	0	1	0	0	17.755	2.1475	16.785	0	0	0	1	0	0	17.761	2.1499	16.789	0	0	0	0	0	0	0	0	0	0	0	0	0	0	0	0	0	0	0	0	0	0	0	0	0	0	0	2
9656	96.56	0	0	0	0	0	0	0	0	0	0	0	0	0	0	0	0	0	0	0	0	0	1	0	0	17.755	2.1475	16.785	0	0	0	1	0	0	17.761	2.1499	16.789	0	0	0	0	0	0	0	0	0	0	0	0	0	0	0	10.994	-10.994	19.042	0	0	0	0	0	0	0	0	0	2
9657	96.57	0	0	0	0	0	0	0	0	0	0	0	0	0	0	0	0	0	0	0	0	0	1	0	0	17.755	2.1475	16.785	0	0	0	1	0	0	17.761	2.1499	16.789	0	0	0	0	0	0	0	0	0	0	0	0	0	0	0	10.994	-10.994	19.042	0	0	0	0	0	0	0	0	0	2
9658	96.58	0	0	0	0	0	0	0	0	0	0	0	0	0	0	0	0	0	0	0	0	0	1	0	0	17.755	2.1475	16.785	0	0	0	1	0	0	17.761	2.1499	16.789	0	0	0	1	0	0	17.883	2.027	16.961	0	0	0	0	0	0	10.994	-10.994	19.042	0	0	0	1	0	0	17.47	2.0148	16.554	2
9659	96.59	0	0	0	0	0	0	0	0	0	0	0	0	0	0	0	0	0	0	0	0	0	1	0	0	17.755	2.1475	16.785	0	0	0	1	0	0	17.761	2.1499	16.789	0	0	0	0	0	0	0	0	0	0	0	0	0	0	0	10.994	-10.994	19.042	0	0	0	1	0	0	17.47	2.0148	16.554	2
9660	96.6	0	0	0	0	0	0	0	0	0	0	0	0	0	0	0	0	0	0	0	0	0	1	0	0	17.755	2.1475	16.785	0	0	0	1	0	0	17.761	2.1499	16.789	0	0	0	0	0	0	0	0	0	0	0	0	0	0	0	0	0	0	0	0	0	0	0	0	0	0	0	2
9661	96.61	0	0	0	0	0	0	10.917	-10.917	18.908	0	0	0	0	0	0	0	0	0	0	0	0	1	0	0	17.755	2.1475	16.785	0	0	0	1	0	0	17.761	2.1499	16.789	0	0	0	0	0	0	0	0	0	0	0	0	0	0	0	10.994	-10.994	19.042	0	0	0	1	0	0	17.47	2.0148	16.554	2
9662	96.62	0	0	0	0	0	0	0	0	0	0	0	0	0	0	0	0	0	0	0	0	0	1	0	0	17.755	2.1475	16.785	0	0	0	1	0	0	17.761	2.1499	16.789	0	0	0	0	0	0	0	0	0	0	0	0	1	-1	0	7.5503	-27.469	31.921	0	0	0	0	0	0	0	0	0	2
9663	96.63	0	0	0	0	0	0	0	0	0	0	0	0	0	0	0	0	0	0	0	0	0	1	0	0	17.755	2.1475	16.785	0	0	0	1	0	0	17.761	2.1499	16.789	0	0	0	1	0	0	17.883	2.027	16.961	0	0	0	0	0	0	10.994	-10.994	19.042	0	0	0	1	0	0	17.47	2.0148	16.554	2
9664	96.64	0	0	0	0	0	0	0	0	0	0	0	0	0	0	0	0	0	0	0	0	0	1	0	0	17.755	2.1475	16.785	0	0	0	1	0	0	17.761	2.1499	16.789	0	0	0	0	0	0	0	0	0	0	0	0	0	0	0	10.994	-10.994	19.042	0	0	0	0	0	0	0	0	0	2
9665	96.65	0	0	0	0	0	0	0	0	0	0	0	0	0	0	0	0	0	0	0	0	0	1	0	0	17.755	2.1475	16.785	0	0	0	1	0	0	17.761	2.1499	16.789	0	0	0	0	0	0	0	0	0	0	0	0	1	-1	0	7.5503	-27.469	31.921	0	0	0	1	0	0	17.47	2.0148	16.554	2
9666	96.66	0	0	0	0	0	0	0	0	0	0	0	0	0	0	0	0	0	0	0	0	0	1	0	0	17.755	2.1475	16.785	0	0	0	1	0	0	17.761	2.1499	16.789	0	0	0	1	0	0	17.883	2.027	16.961	0	0	0	0	0	0	10.994	-10.994	19.042	0	0	0	1	0	0	17.47	2.0148	16.554	2
9667	96.67	0	0	0	0	0	0	0	0	0	0	0	0	0	0	0	0	0	0	0	0	0	0	0	0	10.989	-10.989	19.033	0	0	0	1	0	0	17.761	2.1499	16.789	0	0	0	0	0	0	0	0	0	0	0	0	1	-1	0	7.5503	-27.469	31.921	0	0	0	1	0	0	17.482	2.0162	16.566	2
9668	96.68	0	0	0	0	0	0	10.917	-10.917	18.908	0	0	0	0	0	0	0	0	0	0	0	0	1	0	0	17.755	2.1475	16.785	0	0	0	1	0	0	17.761	2.1499	16.789	0	0	0	0	0	0	0	0	0	0	0	0	0	0	0	0	0	0	0	0	0	1	0	0	17.47	2.0148	16.554	2
9669	96.69	0	0	0	0	0	0	0	0	0	0	0	0	0	0	0	0	0	0	0	0	0	0	0	0	10.989	-10.989	19.033	0	0	0	1	0	0	17.761	2.1499	16.789	0	0	0	0	0	0	0	0	0	0	0	0	0	0	0	0	0	0	0	0	0	0	0	0	0	0	0	2
9670	96.7	0	0	0	0	0	0	10.917	-10.917	18.908	0	0	0	0	0	0	0	0	0	0	0	0	1	0	0	17.755	2.1475	16.785	0	0	0	1	0	0	17.761	2.1499	16.789	0	0	0	0	0	0	0	0	0	0	0	0	1	-1	0	7.5503	-27.469	31.921	0	0	0	0	0	0	0	0	0	2
9671	96.71	0	0	0	0	0	0	10.917	-10.917	18.908	0	0	0	0	0	0	0	0	0	0	0	0	1	0	0	17.755	2.1475	16.785	0	0	0	1	0	0	17.761	2.1499	16.789	0	0	0	1	0	0	17.883	2.027	16.961	0	0	0	0	0	0	10.994	-10.994	19.042	0	0	0	1	0	0	17.47	2.0148	16.554	2
9672	96.72	0	0	0	0	0	0	0	0	0	0	0	0	0	0	0	0	0	0	0	0	0	1	0	0	17.755	2.1475	16.785	0	0	0	1	0	0	17.761	2.1499	16.789	0	0	0	0	0	0	0	0	0	0	0	0	1	-1	0	7.5503	-27.469	31.921	0	0	0	0	0	0	0	0	0	2
9673	96.73	0	0	0	0	0	0	10.917	-10.917	18.908	0	0	0	0	0	0	0	0	0	0	0	0	1	0	0	17.755	2.1475	16.785	0	0	0	1	0	0	17.761	2.1499	16.789	0	0	0	0	0	0	0	0	0	0	0	0	0	0	0	0	0	0	0	0	0	1	0	0	17.47	2.0148	16.554	2
9674	96.74	0	0	0	0	0	0	10.917	-10.917	18.908	0	0	0	0	0	0	0	0	0	0	0	0	1	0	0	17.755	2.1475	16.785	0	0	0	1	0	0	17.761	2.1499	16.789	0	0	0	0	0	0	0	0	0	0	0	0	0	-1	0	-2.0278	-17.891	16.968	0	0	0	0	0	0	0	0	0	2
9675	96.75	0	0	0	0	0	0	0	0	0	0	0	0	0	0	0	0	0	0	0	0	0	1	0	0	17.755	2.1475	16.785	0	0	0	1	0	0	17.761	2.1499	16.789	0	0	0	0	0	0	0	0	0	0	0	0	0	0	0	10.994	-10.994	19.042	0	0	0	1	0	0	17.47	2.0148	16.554	2
9676	96.76	0	0	0	0	0	0	0	0	0	0	0	0	0	0	0	0	0	0	0	0	0	1	0	0	17.755	2.1475	16.785	0	0	0	1	0	0	17.761	2.1499	16.789	0	0	0	0	0	0	0	0	0	0	0	0	0	0	0	0	0	0	0	0	0	1	0	0	17.47	2.0148	16.554	2
9677	96.77	0	0	0	0	0	0	0	0	0	0	0	0	0	0	0	0	0	0	0	0	0	1	0	0	17.755	2.1475	16.785	0	0	0	1	0	0	17.761	2.1499	16.789	0	0	0	0	0	0	0	0	0	0	0	0	0	0	0	0	0	0	0	0	0	0	0	0	0	0	0	2
9678	96.78	0	0	0	0	0	0	0	0	0	0	0	0	0	0	0	0	0	0	0	0	0	1	0	0	17.755	2.1475	16.785	0	0	0	1	0	0	17.761	2.1499	16.789	0	0	0	0	0	0	0	0	0	0	0	0	0	0	0	0	0	0	0	0	0	1	0	0	17.47	2.0148	16.554	2
9679	96.79	0	0	0	0	0	0	0	0	0	0	0	0	0	0	0	0	0	0	0	0	0	1	0	0	17.755	2.1475	16.785	0	0	0	1	0	0	17.761	2.1499	16.789	0	0	0	0	0	0	0	0	0	0	0	0	0	-1	0	-2.0278	-17.891	16.968	0	0	0	0	0	0	0	0	0	2
9680	96.8	0	0	0	0	0	0	0	0	0	0	0	0	0	0	0	0	0	0	0	0	0	1	0	0	17.755	2.1475	16.785	0	0	0	1	0	0	17.761	2.1499	16.789	0	0	0	0	0	0	0	0	0	0	0	0	0	0	0	0	0	0	0	0	0	0	0	0	0	0	0	2
9681	96.81	0	0	0	0	0	0	0	0	0	0	0	0	0	0	0	0	0	0	0	0	0	1	0	0	17.755	2.1475	16.785	0	0	0	1	0	0	17.761	2.1499	16.789	0	0	0	0	0	0	0	0	0	0	0	0	0	-1	0	-2.0278	-17.891	16.968	0	0	0	0	0	0	0	0	0	2
9682	96.82	0	0	0	0	0	0	0	0	0	0	0	0	0	0	0	0	0	0	0	0	0	1	0	0	17.755	2.1475	16.785	0	0	0	1	0	0	17.761	2.1499	16.789	0	0	0	0	0	0	0	0	0	0	0	0	0	0	0	0	0	0	0	0	0	0	0	0	0	0	0	2
9683	96.83	0	0	0	0	0	0	10.917	-10.917	18.908	0	0	0	0	0	0	0	0	0	0	0	0	1	0	0	17.755	2.1475	16.785	0	0	0	1	0	0	17.761	2.1499	16.789	0	0	0	0	0	0	0	0	0	0	0	0	0	-1	0	-2.0278	-17.891	16.968	0	0	0	0	0	0	0	0	0	2
9684	96.84	0	0	0	0	0	0	0	0	0	0	0	0	0	0	0	0	0	0	0	0	0	1	0	0	17.755	2.1475	16.785	0	0	0	1	0	0	17.761	2.1499	16.789	0	0	0	0	0	0	0	0	0	0	0	0	0	0	0	10.994	-10.994	19.042	0	0	0	0	0	0	0	0	0	2
9685	96.85	0	0	0	0	0	0	10.917	-10.917	18.908	0	0	0	0	0	0	0	0	0	0	0	0	1	0	0	17.755	2.1475	16.785	0	0	0	1	0	0	17.761	2.1499	16.789	0	0	0	0	0	0	0	0	0	0	0	0	0	0	0	10.994	-10.994	19.042	0	0	0	0	0	0	0	0	0	0
9686	96.86	0	0	0	0	0	0	10.917	-10.917	18.908	0	0	0	0	0	0	0	0	0	0	0	0	1	0	0	17.755	2.1475	16.785	0	0	0	1	0	0	17.761	2.1499	16.789	0	0	0	0	0	0	0	0	0	0	0	0	0	0	0	10.994	-10.994	19.042	0	0	0	0	0	0	0	0	0	2
9687	96.87	0	0	0	0	0	0	0	0	0	0	0	0	0	0	0	0	0	0	0	0	0	1	0	0	17.755	2.1475	16.785	0	0	0	1	0	0	17.761	2.1499	16.789	0	0	0	0	0	0	0	0	0	0	0	0	0	0	0	0	0	0	0	0	0	0	0	0	0	0	0	2
9688	96.88	0	0	0	0	0	0	0	0	0	0	0	0	0	0	0	0	0	0	0	0	0	1	0	0	17.755	2.1475	16.785	0	0	0	1	0	0	17.761	2.1499	16.789	0	0	0	0	0	0	0	0	0	0	0	0	0	0	0	10.994	-10.994	19.042	0	0	0	1	0	0	17.47	2.0148	16.554	2
9689	96.89	0	0	0	0	0	0	0	0	0	0	0	0	0	0	0	0	0	0	0	0	0	1	0	0	17.755	2.1475	16.785	0	0	0	1	0	0	17.761	2.1499	16.789	0	0	0	0	0	0	0	0	0	0	0	0	1	-1	0	7.5503	-27.469	31.921	0	0	0	0	0	0	0	0	0	2
9690	96.9	0	0	0	0	0	0	0	0	0	0	0	0	0	0	0	0	0	0	0	0	0	1	0	0	17.755	2.1475	16.785	0	0	0	1	0	0	17.761	2.1499	16.789	0	0	0	0	0	0	0	0	0	0	0	0	0	0	0	10.994	-10.994	19.042	0	0	0	1	0	0	17.47	2.0148	16.554	2
9691	96.91	0	0	0	0	0	0	0	0	0	0	0	0	0	0	0	0	0	0	0	0	0	1	0	0	17.755	2.1475	16.785	0	0	0	1	0	0	17.761	2.1499	16.789	0	0	0	0	0	0	0	0	0	0	0	0	0	0	0	10.994	-10.994	19.042	0	0	0	0	0	0	0	0	0	2
9692	96.92	0	0	0	0	0	0	0	0	0	0	0	0	0	0	0	0	0	0	0	0	0	0	0	0	10.989	-10.989	19.033	0	0	0	1	0	0	17.761	2.1499	16.789	0	0	0	0	0	0	0	0	0	0	0	0	0	0	0	0	0	0	0	0	0	1	0	0	17.47	2.0148	16.554	2
9693	96.93	0	0	0	0	0	0	0	0	0	0	0	0	0	0	0	0	0	0	0	0	0	1	0	0	17.755	2.1475	16.785	0	0	0	1	0	0	17.761	2.1499	16.789	0	0	0	0	0	0	0	0	0	0	0	0	0	0	0	0	0	0	0	0	0	1	0	0	17.47	2.0148	16.554	2
9694	96.94	0	0	0	0	0	0	0	0	0	0	0	0	0	0	0	0	0	0	0	0	0	1	0	0	17.755	2.1475	16.785	0	0	0	1	0	0	17.761	2.1499	16.789	0	0	0	0	0	0	0	0	0	0	0	0	0	0	0	0	0	0	0	0	0	1	0	0	17.47	2.0148	16.554	2
9695	96.95	0	0	0	0	0	0	0	0	0	0	0	0	0	0	0	0	0	0	0	0	0	1	0	0	17.755	2.1475	16.785	0	0	0	1	0	0	17.761	2.1499	16.789	0	0	0	0	0	0	0	0	0	0	0	0	0	0	0	0	0	0	0	0	0	0	0	0	0	0	0	2
9696	96.96	0	0	0	0	0	0	0	0	0	0	0	0	0	0	0	0	0	0	0	0	0	1	0	0	17.755	2.1475	16.785	0	0	0	1	0	0	17.761	2.1499	16.789	0	0	0	1	0	0	17.883	2.027	16.961	0	0	0	0	0	0	0	0	0	0	0	0	1	0	0	17.47	2.0148	16.554	2
9697	96.97	0	0	0	0	0	0	0	0	0	0	0	0	0	0	0	0	0	0	0	0	0	1	0	0	17.755	2.1475	16.785	0	0	0	1	0	0	17.761	2.1499	16.789	0	0	0	0	0	0	0	0	0	0	0	0	1	-1	0	7.5503	-27.469	31.921	0	0	0	0	0	0	0	0	0	0
9698	96.98	0	0	0	0	0	0	0	0	0	0	0	0	0	0	0	0	0	0	0	0	0	1	0	0	17.755	2.1475	16.785	0	0	0	1	0	0	17.761	2.1499	16.789	0	0	0	0	0	0	0	0	0	0	0	0	0	0	0	10.994	-10.994	19.042	0	0	0	0	0	0	0	0	0	2
9699	96.99	0	0	0	0	0	0	10.917	-10.917	18.908	0	0	0	0	0	0	0	0	0	0	0	0	1	0	0	17.755	2.1475	16.785	0	0	0	1	0	0	17.761	2.1499	16.789	0	0	0	0	0	0	0	0	0	0	0	0	0	0	0	10.994	-10.994	19.042	0	0	0	0	0	0	0	0	0	2
9700	97	0	0	0	0	0	0	0	0	0	0	0	0	0	0	0	0	0	0	0	0	0	1	0	0	17.755	2.1475	16.785	0	0	0	1	0	0	17.761	2.1499	16.789	0	0	0	0	0	0	0	0	0	0	0	0	0	0	0	0	0	0	0	0	0	0	0	0	0	0	0	2
9701	97.01	0	0	0	0	0	0	0	0	0	0	0	0	0	0	0	0	0	0	0	0	0	1	0	0	17.755	2.1475	16.785	0	0	0	1	0	0	17.761	2.1499	16.789	0	0	0	0	0	0	0	0	0	0	0	0	0	0	0	10.994	-10.994	19.042	0	0	0	0	0	0	0	0	0	2
9702	97.02	0	0	0	0	0	0	0	0	0	0	0	0	0	0	0	0	0	0	0	0	0	1	0	0	17.755	2.1475	16.785	0	0	0	1	0	0	17.761	2.1499	16.789	0	0	0	0	0	0	0	0	0	0	0	0	0	0	0	0	0	0	0	0	0	0	0	0	0	0	0	2
9703	97.03	0	0	0	0	0	0	10.917	-10.917	18.908	0	0	0	0	0	0	0	0	0	0	0	0	1	0	0	17.755	2.1475	16.785	0	0	0	1	0	0	17.761	2.1499	16.789	0	0	0	1	0	0	17.883	2.027	16.961	0	0	0	0	0	0	10.994	-10.994	19.042	0	0	0	1	0	0	17.47	2.0148	16.554	2
9704	97.04	0	0	0	0	0	0	0	0	0	0	0	0	0	0	0	0	0	0	0	0	0	1	0	0	17.755	2.1475	16.785	0	0	0	1	0	0	17.761	2.1499	16.789	0	0	0	0	0	0	0	0	0	0	0	0	0	-1	0	-2.0278	-17.891	16.968	0	0	0	1	0	0	17.47	2.0148	16.554	2
9705	97.05	0	0	0	0	0	0	0	0	0	0	0	0	0	0	0	0	0	0	0	0	0	1	0	0	17.755	2.1475	16.785	0	0	0	1	0	0	17.761	2.1499	16.789	0	0	0	0	0	0	0	0	0	0	0	0	0	0	0	0	0	0	0	0	0	0	0	0	0	0	0	2
9706	97.06	0	0	0	0	0	0	0	0	0	0	0	0	0	0	0	0	0	0	0	0	0	1	0	0	17.755	2.1475	16.785	0	0	0	1	0	0	17.761	2.1499	16.789	0	0	0	0	0	0	0	0	0	0	0	0	0	0	0	0	0	0	0	0	0	1	0	0	17.482	2.0162	16.566	2
9707	97.07	0	0	0	0	0	0	0	0	0	0	0	0	0	0	0	0	0	0	0	0	0	0	0	0	10.989	-10.989	19.033	0	0	0	1	0	0	17.761	2.1499	16.789	0	0	0	0	0	0	0	0	0	0	0	0	1	-1	0	7.5503	-27.469	31.921	0	0	0	0	0	0	0	0	0	2
9708	97.08	0	0	0	0	0	0	0	0	0	0	0	0	0	0	0	0	0	0	0	0	0	0	0	0	20.079	19.73	19.907	0	0	0	1	0	0	17.761	2.1499	16.789	0	0	0	0	0	0	0	0	0	0	0	0	0	0	0	10.994	-10.994	19.042	0	0	0	1	0	0	17.47	2.0148	16.554	2
9709	97.09	0	0	0	0	0	0	0	0	0	0	0	0	0	0	0	0	0	0	0	0	0	1	0	0	17.755	2.1475	16.785	0	0	0	1	0	0	17.761	2.1499	16.789	0	0	0	0	0	0	0	0	0	0	0	0	0	0	0	0	0	0	0	0	0	0	0	0	0	0	0	2
9710	97.1	0	0	0	0	0	0	0	0	0	0	0	0	0	0	0	0	0	0	0	0	0	1	0	0	17.755	2.1475	16.785	0	0	0	1	0	0	17.761	2.1499	16.789	0	0	0	0	0	0	0	0	0	0	0	0	0	0	0	10.994	-10.994	19.042	0	0	0	0	0	0	0	0	0	2
9711	97.11	0	0	0	0	0	0	0	0	0	0	0	0	0	0	0	0	0	0	0	0	0	1	0	0	17.755	2.1475	16.785	0	0	0	1	0	0	17.761	2.1499	16.789	0	0	0	0	0	0	0	0	0	0	0	0	0	0	0	10.994	-10.994	19.042	0	0	0	1	0	0	17.47	2.0148	16.554	2
9712	97.12	0	0	0	0	0	0	0	0	0	0	0	0	0	0	0	0	0	0	0	0	0	0	0	0	10.989	-10.989	19.033	0	0	0	1	0	0	17.761	2.1499	16.789	0	0	0	0	0	0	0	0	0	0	0	0	0	0	0	0	0	0	0	0	0	1	0	0	17.47	2.0148	16.554	2
9713	97.13	0	0	0	0	0	0	0	0	0	0	0	0	0	0	0	0	0	0	0	0	0	1	0	0	17.755	2.1475	16.785	0	0	0	1	0	0	17.761	2.1499	16.789	0	0	0	0	0	0	0	0	0	0	0	0	0	0	0	10.994	-10.994	19.042	0	0	0	0	0	0	0	0	0	2
9714	97.14	0	0	0	0	0	0	0	0	0	0	0	0	0	0	0	0	0	0	0	0	0	1	0	0	17.755	2.1475	16.785	0	0	0	1	0	0	17.761	2.1499	16.789	0	0	0	0	0	0	0	0	0	0	0	0	0	-1	0	-2.0278	-17.891	16.968	0	0	0	1	0	0	17.47	2.0148	16.554	2
9715	97.15	0	0	0	0	0	0	0	0	0	0	0	0	0	0	0	0	0	0	0	0	0	1	0	0	17.755	2.1475	16.785	0	0	0	1	0	0	17.761	2.1499	16.789	0	0	0	0	0	0	0	0	0	0	0	0	0	0	0	0	0	0	0	0	0	1	0	0	17.47	2.0148	16.554	2
9716	97.16	0	0	0	0	0	0	10.917	-10.917	18.908	0	0	0	0	0	0	0	0	0	0	0	0	1	0	0	17.755	2.1475	16.785	0	0	0	1	0	0	17.761	2.1499	16.789	0	0	0	0	0	0	0	0	0	0	0	0	0	0	0	10.994	-10.994	19.042	0	0	0	0	0	0	0	0	0	2
9717	97.17	0	0	0	0	0	0	0	0	0	0	0	0	0	0	0	0	0	0	0	0	0	0	0	0	10.989	-10.989	19.033	0	0	0	1	0	0	17.761	2.1499	16.789	0	0	0	0	0	0	0	0	0	0	0	0	0	-1	0	-2.0278	-17.891	16.968	0	0	0	1	0	0	17.47	2.0148	16.554	2
9718	97.18	0	0	0	0	0	0	0	0	0	0	0	0	0	0	0	0	0	0	0	0	0	1	0	0	17.755	2.1475	16.785	0	0	0	1	0	0	17.761	2.1499	16.789	0	0	0	0	0	0	0	0	0	0	0	0	0	-1	0	-2.0278	-17.891	16.968	0	0	0	0	0	0	0	0	0	2
9719	97.19	0	0	0	0	0	0	0	0	0	0	0	0	0	0	0	0	0	0	0	0	0	0	0	0	10.989	-10.989	19.033	0	0	0	1	0	0	17.761	2.1499	16.789	0	0	0	0	0	0	0	0	0	0	0	0	0	0	0	10.994	-10.994	19.042	0	0	0	0	0	0	0	0	0	2
9720	97.2	0	0	0	0	0	0	10.917	-10.917	18.908	0	0	0	0	0	0	0	0	0	0	0	0	1	0	0	17.755	2.1475	16.785	0	0	0	1	0	0	17.761	2.1499	16.789	0	0	0	0	0	0	0	0	0	0	0	0	0	0	0	0	0	0	0	0	0	0	0	0	0	0	0	2
9721	97.21	0	0	0	0	0	0	0	0	0	0	0	0	0	0	0	0	0	0	0	0	0	1	0	0	17.755	2.1475	16.785	0	0	0	1	0	0	17.761	2.1499	16.789	0	0	0	1	0	0	17.883	2.027	16.961	0	0	0	0	-1	0	-2.0278	-17.891	16.968	0	0	0	0	0	0	0	0	0	2
9722	97.22	0	0	0	0	0	0	0	0	0	0	0	0	0	0	0	0	0	0	0	0	0	0	0	0	10.989	-10.989	19.033	0	0	0	1	0	0	17.883	2.027	16.961	0	0	0	0	0	0	0	0	0	0	0	0	1	-1	0	7.5503	-27.469	31.921	0	0	0	0	0	0	0	0	0	2
9723	97.23	0	0	0	0	0	0	10.917	-10.917	18.908	0	0	0	0	0	0	0	0	0	0	0	0	1	0	0	17.755	2.1475	16.785	0	0	0	1	0	0	17.761	2.1499	16.789	0	0	0	0	0	0	0	0	0	0	0	0	1	-1	0	7.5503	-27.469	31.921	0	0	0	1	0	0	17.47	2.0148	16.554	2
9724	97.24	0	0	0	0	0	0	0	0	0	0	0	0	0	0	0	0	0	0	0	0	0	0	0	0	10.989	-10.989	19.033	0	0	0	1	0	0	17.761	2.1499	16.789	0	0	0	0	0	0	0	0	0	0	0	0	1	-1	0	7.5503	-27.469	31.921	0	0	0	0	0	0	0	0	0	2
9725	97.25	0	0	0	0	0	0	0	0	0	0	0	0	0	0	0	0	0	0	0	0	0	1	0	0	17.755	2.1475	16.785	0	0	0	1	0	0	17.761	2.1499	16.789	0	0	0	0	0	0	0	0	0	0	0	0	0	0	0	10.994	-10.994	19.042	0	0	0	0	0	0	0	0	0	2
9726	97.26	0	0	0	0	0	0	0	0	0	0	0	0	0	0	0	0	0	0	0	0	0	1	0	0	17.755	2.1475	16.785	0	0	0	1	0	0	17.761	2.1499	16.789	0	0	0	0	0	0	0	0	0	0	0	0	0	0	0	0	0	0	0	0	0	1	0	0	17.47	2.0148	16.554	2
9727	97.27	0	0	0	0	0	0	0	0	0	0	0	0	0	0	0	0	0	0	0	0	0	0	0	0	10.989	-10.989	19.033	0	0	0	1	0	0	17.761	2.1499	16.789	0	0	0	0	0	0	0	0	0	0	0	0	0	-1	0	-2.0278	-17.891	16.968	0	0	0	0	0	0	0	0	0	2
9728	97.28	0	0	0	0	0	0	0	0	0	0	0	0	0	0	0	0	0	0	0	0	0	1	0	0	17.755	2.1475	16.785	0	0	0	1	0	0	17.761	2.1499	16.789	0	0	0	1	0	0	17.883	2.027	16.961	0	0	0	0	0	0	0	0	0	0	0	0	1	0	0	17.47	2.0148	16.554	2
9729	97.29	0	0	0	0	0	0	0	0	0	0	0	0	0	0	0	0	0	0	0	0	0	0	0	0	10.989	-10.989	19.033	0	0	0	1	0	0	17.761	2.1499	16.789	0	0	0	0	0	0	0	0	0	0	0	0	1	-1	0	7.5503	-27.469	31.921	0	0	0	0	0	0	0	0	0	2
9730	97.3	0	0	0	0	0	0	10.917	-10.917	18.908	0	0	0	0	0	0	0	0	0	0	0	0	1	0	0	17.755	2.1475	16.785	0	0	0	1	0	0	17.761	2.1499	16.789	0	0	0	0	0	0	0	0	0	0	0	0	0	-1	0	-2.0278	-17.891	16.968	0	0	0	0	0	0	0	0	0	2
9731	97.31	0	0	0	0	0	0	0	0	0	0	0	0	0	0	0	0	0	0	0	0	0	1	0	0	17.755	2.1475	16.785	0	0	0	1	0	0	17.761	2.1499	16.789	0	0	0	0	0	0	0	0	0	0	0	0	0	-1	0	-2.0278	-17.891	16.968	0	0	0	1	0	0	17.47	2.0148	16.554	2
9732	97.32	0	0	0	0	0	0	0	0	0	0	0	0	0	0	0	0	0	0	0	0	0	0	0	0	10.989	-10.989	19.033	0	0	0	1	0	0	17.761	2.1499	16.789	0	0	0	0	0	0	0	0	0	0	0	0	1	-1	0	7.5503	-27.469	31.921	0	0	0	0	0	0	0	0	0	2
9733	97.33	0	0	0	0	0	0	10.917	-10.917	18.908	0	0	0	0	0	0	0	0	0	0	0	0	1	0	0	17.755	2.1475	16.785	0	0	0	1	0	0	17.761	2.1499	16.789	0	0	0	0	0	0	0	0	0	0	0	0	1	-1	0	7.5503	-27.469	31.921	0	0	0	0	0	0	0	0	0	2
9734	97.34	0	0	0	0	0	0	10.917	-10.917	18.908	0	0	0	0	0	0	0	0	0	0	0	0	1	0	0	17.755	2.1475	16.785	0	0	0	1	0	0	17.761	2.1499	16.789	0	0	0	0	0	0	0	0	0	0	0	0	1	-1	0	7.5503	-27.469	31.921	0	0	0	0	0	0	0	0	0	2
9735	97.35	0	0	0	0	0	0	10.917	-10.917	18.908	0	0	0	0	0	0	0	0	0	0	0	0	1	0	0	17.755	2.1475	16.785	0	0	0	1	0	0	17.761	2.1499	16.789	0	0	0	0	0	0	0	0	0	0	0	0	0	0	0	0	0	0	0	0	0	0	0	0	0	0	0	2
9736	97.36	0	0	0	0	0	0	10.917	-10.917	18.908	0	0	0	0	0	0	0	0	0	0	0	0	1	0	0	17.755	2.1475	16.785	0	0	0	1	0	0	17.761	2.1499	16.789	0	0	0	0	0	0	0	0	0	0	0	0	1	-1	0	7.5503	-27.469	31.921	0	0	0	1	0	0	17.47	2.0148	16.554	2
9737	97.37	0	0	0	0	0	0	10.917	-10.917	18.908	0	0	0	0	0	0	0	0	0	0	0	0	1	0	0	17.755	2.1475	16.785	0	0	0	1	0	0	17.761	2.1499	16.789	0	0	0	0	0	0	0	0	0	0	0	0	1	-1	0	7.5503	-27.469	31.921	0	0	0	0	0	0	0	0	0	2
9738	97.38	0	0	0	0	0	0	0	0	0	0	0	0	0	0	0	0	0	0	0	0	0	1	0	0	17.755	2.1475	16.785	0	0	0	1	0	0	17.761	2.1499	16.789	0	0	0	0	0	0	0	0	0	0	0	0	0	0	0	10.994	-10.994	19.042	0	0	0	0	0	0	0	0	0	2
9739	97.39	0	0	0	0	0	0	0	0	0	0	0	0	0	0	0	0	0	0	0	0	0	0	0	0	10.989	-10.989	19.033	0	0	0	1	0	0	17.761	2.1499	16.789	0	0	0	0	0	0	0	0	0	0	0	0	0	-1	0	-2.0278	-17.891	16.968	0	0	0	0	0	0	0	0	0	2
9740	97.4	0	0	0	0	0	0	10.917	-10.917	18.908	0	0	0	0	0	0	0	0	0	0	0	0	1	0	0	17.755	2.1475	16.785	0	0	0	1	0	0	17.761	2.1499	16.789	0	0	0	0	0	0	0	0	0	0	0	0	1	-1	0	7.5503	-27.469	31.921	0	0	0	0	0	0	0	0	0	2
9741	97.41	0	0	0	0	0	0	0	0	0	0	0	0	0	0	0	0	0	0	0	0	0	1	0	0	17.755	2.1475	16.785	0	0	0	1	0	0	17.761	2.1499	16.789	0	0	0	0	0	0	0	0	0	0	0	0	1	-1	0	7.5503	-27.469	31.921	0	0	0	0	0	0	0	0	0	2
9742	97.42	0	0	0	0	0	0	0	0	0	0	0	0	0	0	0	0	0	0	0	0	0	1	0	0	17.755	2.1475	16.785	0	0	0	1	0	0	17.761	2.1499	16.789	0	0	0	0	0	0	0	0	0	0	0	0	0	0	0	0	0	0	0	0	0	0	0	0	0	0	0	2
9743	97.43	0	0	0	0	0	0	10.917	-10.917	18.908	0	0	0	0	0	0	0	0	0	0	0	0	1	0	0	17.755	2.1475	16.785	0	0	0	1	0	0	17.761	2.1499	16.789	0	0	0	0	0	0	0	0	0	0	0	0	0	0	0	10.994	-10.994	19.042	0	0	0	1	0	0	17.47	2.0148	16.554	2
9744	97.44	0	0	0	0	0	0	0	0	0	0	0	0	0	0	0	0	0	0	0	0	0	0	0	0	10.989	-10.989	19.033	0	0	0	1	0	0	17.761	2.1499	16.789	0	0	0	0	0	0	0	0	0	0	0	0	1	-1	0	7.5503	-27.469	31.921	0	0	0	0	0	0	0	0	0	2
9745	97.45	0	0	0	0	0	0	0	0	0	0	0	0	0	0	0	0	0	0	0	0	0	1	0	0	17.755	2.1475	16.785	0	0	0	1	0	0	17.761	2.1499	16.789	0	0	0	0	0	0	0	0	0	0	0	0	0	-1	0	-2.0278	-17.891	16.968	0	0	0	0	0	0	0	0	0	2
9746	97.46	0	0	0	0	0	0	0	0	0	0	0	0	0	0	0	0	0	0	0	0	0	1	0	0	17.755	2.1475	16.785	0	0	0	1	0	0	17.761	2.1499	16.789	0	0	0	0	0	0	0	0	0	0	0	0	0	0	0	0	0	0	0	0	0	0	0	0	0	0	0	2
9747	97.47	0	0	0	0	0	0	0	0	0	0	0	0	0	0	0	0	0	0	0	0	0	1	0	0	17.755	2.1475	16.785	0	0	0	1	0	0	17.761	2.1499	16.789	0	0	0	0	0	0	0	0	0	0	0	0	0	0	0	10.994	-10.994	19.042	0	0	0	0	0	0	0	0	0	2
9748	97.48	0	0	0	0	0	0	0	0	0	0	0	0	0	0	0	0	0	0	0	0	0	1	0	0	17.755	2.1475	16.785	0	0	0	1	0	0	17.761	2.1499	16.789	0	0	0	0	0	0	0	0	0	0	0	0	1	-1	0	7.5503	-27.469	31.921	0	0	0	1	0	0	17.482	2.0162	16.566	2
9749	97.49	0	0	0	0	0	0	0	0	0	0	0	0	0	0	0	0	0	0	0	0	0	0	0	0	10.989	-10.989	19.033	0	0	0	1	0	0	17.761	2.1499	16.789	0	0	0	0	0	0	0	0	0	0	0	0	1	-1	0	7.5503	-27.469	31.921	0	0	0	0	0	0	0	0	0	2
9750	97.5	0	0	0	0	0	0	0	0	0	0	0	0	0	0	0	0	0	0	0	0	0	0	0	0	10.989	-10.989	19.033	0	0	0	1	0	0	17.761	2.1499	16.789	0	0	0	0	0	0	0	0	0	0	0	0	0	-1	0	-2.0278	-17.891	16.968	0	0	0	0	0	0	0	0	0	2
9751	97.51	0	0	0	0	0	0	10.917	-10.917	18.908	0	0	0	0	0	0	0	0	0	0	0	0	1	0	0	17.755	2.1475	16.785	0	0	0	1	0	0	17.761	2.1499	16.789	0	0	0	0	0	0	0	0	0	0	0	0	0	0	0	10.994	-10.994	19.042	0	0	0	1	0	0	17.47	2.0148	16.554	2
9752	97.52	0	0	0	0	0	0	0	0	0	0	0	0	0	0	0	0	0	0	0	0	0	0	0	0	10.989	-10.989	19.033	0	0	0	1	0	0	17.883	2.027	16.961	0	0	0	0	0	0	0	0	0	0	0	0	0	0	0	0	0	0	0	0	0	0	0	0	0	0	0	2
9753	97.53	0	0	0	0	0	0	0	0	0	0	0	0	0	0	0	0	0	0	0	0	0	1	0	0	17.755	2.1475	16.785	0	0	0	1	0	0	17.761	2.1499	16.789	0	0	0	0	0	0	0	0	0	0	0	0	0	0	0	0	0	0	0	0	0	1	0	0	17.47	2.0148	16.554	3
9754	97.54	0	0	0	0	0	0	0	0	0	0	0	0	0	0	0	0	0	0	0	0	0	1	0	0	17.755	2.1475	16.785	0	0	0	1	0	0	17.761	2.1499	16.789	0	0	0	0	0	0	0	0	0	0	0	0	0	0	0	0	0	0	0	0	0	0	0	0	0	0	0	2
9755	97.55	0	0	0	0	0	0	0	0	0	0	0	0	0	0	0	0	0	0	0	0	0	1	0	0	17.755	2.1475	16.785	0	0	0	1	0	0	17.761	2.1499	16.789	0	0	0	0	0	0	0	0	0	0	0	0	0	-1	0	-2.0278	-17.891	16.968	0	0	0	1	0	0	30.423	8.5595	27.174	2
9756	97.56	0	0	0	0	0	0	0	0	0	0	0	0	0	0	0	0	0	0	0	0	0	1	0	0	17.755	2.1475	16.785	0	0	0	1	0	0	17.761	2.1499	16.789	0	0	0	0	0	0	0	0	0	0	0	0	0	0	0	10.994	-10.994	19.042	0	0	0	1	0	0	17.47	2.0148	16.554	2
9757	97.57	0	0	0	0	0	0	0	0	0	0	0	0	0	0	0	0	0	0	0	0	0	1	0	0	17.755	2.1475	16.785	0	0	0	1	0	0	17.761	2.1499	16.789	0	0	0	0	0	0	0	0	0	0	0	0	0	0	0	0	0	0	0	0	0	0	0	0	0	0	0	2
9758	97.58	0	0	0	0	0	0	10.917	-10.917	18.908	0	0	0	0	0	0	0	0	0	0	0	0	1	0	0	17.755	2.1475	16.785	0	0	0	1	0	0	17.761	2.1499	16.789	0	0	0	0	0	0	0	0	0	0	0	0	0	0	0	0	0	0	0	0	0	0	0	0	0	0	0	2
9759	97.59	0	0	0	0	0	0	0	0	0	0	0	0	0	0	0	0	0	0	0	0	0	1	0	0	17.755	2.1475	16.785	0	0	0	1	0	0	17.761	2.1499	16.789	0	0	0	0	0	0	0	0	0	0	0	0	1	-1	0	7.5503	-27.469	31.921	0	0	0	0	0	0	0	0	0	2
9760	97.6	0	0	0	0	0	0	0	0	0	0	0	0	0	0	0	0	0	0	0	0	0	1	0	0	17.755	2.1475	16.785	0	0	0	1	0	0	17.761	2.1499	16.789	0	0	0	0	0	0	0	0	0	0	0	0	0	0	0	0	0	0	0	0	0	1	0	0	17.47	2.0148	16.554	2
9761	97.61	0	0	0	0	0	0	0	0	0	0	0	0	0	0	0	0	0	0	0	0	0	1	0	0	17.755	2.1475	16.785	0	0	0	1	0	0	17.761	2.1499	16.789	0	0	0	0	0	0	0	0	0	0	0	0	1	-1	0	7.5503	-27.469	31.921	0	0	0	0	0	0	0	0	0	2
9762	97.62	0	0	0	0	0	0	10.917	-10.917	18.908	0	0	0	0	0	0	0	0	0	0	0	0	1	0	0	17.755	2.1475	16.785	0	0	0	1	0	0	17.761	2.1499	16.789	0	0	0	0	0	0	0	0	0	0	0	0	0	0	0	0	0	0	0	0	0	1	0	0	17.47	2.0148	16.554	2
9763	97.63	0	0	0	0	0	0	0	0	0	0	0	0	0	0	0	0	0	0	0	0	0	1	0	0	17.755	2.1475	16.785	0	0	0	1	0	0	17.761	2.1499	16.789	0	0	0	0	0	0	0	0	0	0	0	0	1	-1	0	7.5503	-27.469	31.921	0	0	0	1	0	0	17.47	2.0148	16.554	2
9764	97.64	0	0	0	0	0	0	0	0	0	0	0	0	0	0	0	0	0	0	0	0	0	1	0	0	17.755	2.1475	16.785	0	0	0	1	0	0	17.761	2.1499	16.789	0	0	0	0	0	0	0	0	0	0	0	0	0	-1	0	-2.0278	-17.891	16.968	0	0	0	1	0	0	17.47	2.0148	16.554	2
9765	97.65	0	0	0	0	0	0	10.917	-10.917	18.908	0	0	0	0	0	0	0	0	0	0	0	0	1	0	0	17.755	2.1475	16.785	0	0	0	1	0	0	17.761	2.1499	16.789	0	0	0	0	0	0	0	0	0	0	0	0	1	-1	0	7.5503	-27.469	31.921	0	0	0	0	0	0	0	0	0	2
9766	97.66	0	0	0	0	0	0	10.917	-10.917	18.908	0	0	0	0	0	0	0	0	0	0	0	0	1	0	0	17.755	2.1475	16.785	0	0	0	1	0	0	17.761	2.1499	16.789	0	0	0	0	0	0	0	0	0	0	0	0	0	0	0	0	0	0	0	0	0	0	0	0	0	0	0	2
9767	97.67	0	0	0	0	0	0	0	0	0	0	0	0	0	0	0	0	0	0	0	0	0	1	0	0	17.755	2.1475	16.785	0	0	0	1	0	0	17.761	2.1499	16.789	0	0	0	0	0	0	0	0	0	0	0	0	1	-1	0	7.5503	-27.469	31.921	0	0	0	0	0	0	0	0	0	2
9768	97.68	0	0	0	0	0	0	10.917	-10.917	18.908	0	0	0	0	0	0	0	0	0	0	0	0	1	0	0	17.755	2.1475	16.785	0	0	0	1	0	0	17.761	2.1499	16.789	0	0	0	0	0	0	0	0	0	0	0	0	0	0	0	10.994	-10.994	19.042	0	0	0	1	0	0	17.47	2.0148	16.554	2
9769	97.69	0	0	0	0	0	0	0	0	0	0	0	0	0	0	0	0	0	0	0	0	0	0	0	0	10.989	-10.989	19.033	0	0	0	1	0	0	17.761	2.1499	16.789	0	0	0	0	0	0	0	0	0	0	0	0	1	-1	0	7.5503	-27.469	31.921	0	0	0	1	0	0	17.47	2.0148	16.554	2
9770	97.7	0	0	0	0	0	0	0	0	0	0	0	0	0	0	0	0	0	0	0	0	0	1	0	0	17.755	2.1475	16.785	0	0	0	1	0	0	17.761	2.1499	16.789	0	0	0	0	0	0	0	0	0	0	0	0	0	0	0	0	0	0	0	0	0	0	0	0	0	0	0	2
9771	97.71	0	0	0	0	0	0	0	0	0	0	0	0	0	0	0	0	0	0	0	0	0	1	0	0	17.755	2.1475	16.785	0	0	0	1	0	0	17.761	2.1499	16.789	0	0	0	0	0	0	0	0	0	0	0	0	1	-1	0	7.5503	-27.469	31.921	0	0	0	1	0	0	17.482	2.0162	16.566	2
9772	97.72	0	0	0	0	0	0	0	0	0	0	0	0	0	0	0	0	0	0	0	0	0	1	0	0	17.755	2.1475	16.785	0	0	0	1	0	0	17.761	2.1499	16.789	0	0	0	0	0	0	0	0	0	0	0	0	0	0	0	10.994	-10.994	19.042	0	0	0	0	0	0	0	0	0	2
9773	97.73	0	0	0	0	0	0	0	0	0	0	0	0	0	0	0	0	0	0	0	0	0	1	0	0	17.755	2.1475	16.785	0	0	0	1	0	0	17.761	2.1499	16.789	0	0	0	1	0	0	17.883	2.027	16.961	0	0	0	0	0	0	10.994	-10.994	19.042	0	0	0	1	0	0	30.423	8.5595	27.174	2
9774	97.74	0	0	0	0	0	0	0	0	0	0	0	0	0	0	0	0	0	0	0	0	0	1	0	0	17.755	2.1475	16.785	0	0	0	1	0	0	17.761	2.1499	16.789	0	0	0	0	0	0	0	0	0	0	0	0	0	-1	0	-2.0278	-17.891	16.968	0	0	0	1	0	0	17.47	2.0148	16.554	2
9775	97.75	0	0	0	0	0	0	0	0	0	0	0	0	0	0	0	0	0	0	0	0	0	1	0	0	17.755	2.1475	16.785	0	0	0	1	0	0	17.761	2.1499	16.789	0	0	0	0	0	0	0	0	0	0	0	0	0	0	0	10.994	-10.994	19.042	0	0	0	0	0	0	0	0	0	2
9776	97.76	0	0	0	0	0	0	0	0	0	0	0	0	0	0	0	0	0	0	0	0	0	1	0	0	17.755	2.1475	16.785	0	0	0	1	0	0	17.761	2.1499	16.789	0	0	0	1	0	0	17.883	2.027	16.961	0	0	0	0	0	0	0	0	0	0	0	0	0	0	0	0	0	0	2
9777	97.77	0	0	0	0	0	0	10.917	-10.917	18.908	0	0	0	0	0	0	0	0	0	0	0	0	1	0	0	17.755	2.1475	16.785	0	0	0	1	0	0	17.761	2.1499	16.789	0	0	0	0	0	0	0	0	0	0	0	0	0	0	0	10.994	-10.994	19.042	0	0	0	0	0	0	0	0	0	2
9778	97.78	0	0	0	0	0	0	0	0	0	0	0	0	0	0	0	0	0	0	0	0	0	1	0	0	17.755	2.1475	16.785	0	0	0	1	0	0	17.761	2.1499	16.789	0	0	0	1	0	0	17.883	2.027	16.961	0	0	0	0	0	0	0	0	0	0	0	0	1	0	0	30.423	8.5595	27.174	2
9779	97.79	0	0	0	0	0	0	0	0	0	0	0	0	0	0	0	0	0	0	0	0	0	1	0	0	17.755	2.1475	16.785	0	0	0	1	0	0	17.761	2.1499	16.789	0	0	0	0	0	0	0	0	0	0	0	0	0	-1	0	-2.0278	-17.891	16.968	0	0	0	0	0	0	0	0	0	2
9780	97.8	0	0	0	0	0	0	0	0	0	0	0	0	0	0	0	0	0	0	0	0	0	1	0	0	17.755	2.1475	16.785	0	0	0	1	0	0	17.761	2.1499	16.789	0	0	0	0	0	0	0	0	0	0	0	0	0	0	0	0	0	0	0	0	0	0	0	0	0	0	0	2
9781	97.81	0	0	0	0	0	0	0	0	0	0	0	0	0	0	0	0	0	0	0	0	0	1	0	0	17.755	2.1475	16.785	0	0	0	1	0	0	17.761	2.1499	16.789	0	0	0	0	0	0	0	0	0	0	0	0	1	-1	0	7.5503	-27.469	31.921	0	0	0	1	0	0	17.47	2.0148	16.554	2
9782	97.82	0	0	0	0	0	0	0	0	0	0	0	0	0	0	0	0	0	0	0	0	0	1	0	0	17.755	2.1475	16.785	0	0	0	1	0	0	17.761	2.1499	16.789	0	0	0	0	0	0	0	0	0	0	0	0	1	-1	0	7.5503	-27.469	31.921	0	0	0	0	0	0	0	0	0	2
9783	97.83	0	0	0	0	0	0	0	0	0	0	0	0	0	0	0	0	0	0	0	0	0	1	0	0	17.755	2.1475	16.785	0	0	0	1	0	0	17.761	2.1499	16.789	0	0	0	0	0	0	0	0	0	0	0	0	0	0	0	10.994	-10.994	19.042	0	0	0	1	0	0	17.47	2.0148	16.554	2
9784	97.84	0	0	0	0	0	0	0	0	0	0	0	0	0	0	0	0	0	0	0	0	0	1	0	0	17.755	2.1475	16.785	0	0	0	1	0	0	17.761	2.1499	16.789	0	0	0	0	0	0	0	0	0	0	0	0	0	-1	0	-2.0278	-17.891	16.968	0	0	0	0	0	0	0	0	0	2
9785	97.85	0	0	0	0	0	0	0	0	0	0	0	0	0	0	0	0	0	0	0	0	0	1	0	0	17.755	2.1475	16.785	0	0	0	1	0	0	17.761	2.1499	16.789	0	0	0	0	0	0	0	0	0	0	0	0	0	0	0	10.994	-10.994	19.042	0	0	0	1	0	0	17.482	2.0162	16.566	2
9786	97.86	0	0	0	0	0	0	0	0	0	0	0	0	0	0	0	0	0	0	0	0	0	1	0	0	17.755	2.1475	16.785	0	0	0	1	0	0	17.761	2.1499	16.789	0	0	0	0	0	0	0	0	0	0	0	0	0	0	0	0	0	0	0	0	0	1	0	0	17.482	2.0162	16.566	2
9787	97.87	0	0	0	0	0	0	0	0	0	0	0	0	0	0	0	0	0	0	0	0	0	0	0	0	10.989	-10.989	19.033	0	0	0	1	0	0	17.761	2.1499	16.789	0	0	0	0	0	0	0	0	0	0	0	0	0	0	0	10.994	-10.994	19.042	0	0	0	0	0	0	0	0	0	2
9788	97.88	0	0	0	0	0	0	0	0	0	0	0	0	0	0	0	0	0	0	0	0	0	1	0	0	17.755	2.1475	16.785	0	0	0	1	0	0	17.761	2.1499	16.789	0	0	0	0	0	0	0	0	0	0	0	0	0	-1	0	-2.0278	-17.891	16.968	0	0	0	1	0	0	17.47	2.0148	16.554	2
9789	97.89	0	0	0	0	0	0	0	0	0	0	0	0	0	0	0	0	0	0	0	0	0	1	0	0	17.755	2.1475	16.785	0	0	0	1	0	0	17.761	2.1499	16.789	0	0	0	0	0	0	0	0	0	0	0	0	1	-1	0	7.5503	-27.469	31.921	0	0	0	0	0	0	0	0	0	2
9790	97.9	0	0	0	0	0	0	0	0	0	0	0	0	0	0	0	0	0	0	0	0	0	1	0	0	17.755	2.1475	16.785	0	0	0	1	0	0	17.761	2.1499	16.789	0	0	0	0	0	0	0	0	0	0	0	0	0	0	0	10.994	-10.994	19.042	0	0	0	0	0	0	0	0	0	2
9791	97.91	0	0	0	0	0	0	10.917	-10.917	18.908	0	0	0	0	0	0	0	0	0	0	0	0	1	0	0	17.755	2.1475	16.785	0	0	0	1	0	0	17.761	2.1499	16.789	0	0	0	0	0	0	0	0	0	0	0	0	1	-1	0	7.5503	-27.469	31.921	0	0	0	0	0	0	0	0	0	2
9792	97.92	0	0	0	0	0	0	0	0	0	0	0	0	0	0	0	0	0	0	0	0	0	0	0	0	10.989	-10.989	19.033	0	0	0	1	0	0	17.761	2.1499	16.789	0	0	0	0	0	0	0	0	0	0	0	0	0	0	0	10.994	-10.994	19.042	0	0	0	0	0	0	0	0	0	2
9793	97.93	0	0	0	0	0	0	0	0	0	0	0	0	0	0	0	0	0	0	0	0	0	1	0	0	17.755	2.1475	16.785	0	0	0	1	0	0	17.761	2.1499	16.789	0	0	0	0	0	0	0	0	0	0	0	0	0	0	0	10.994	-10.994	19.042	0	0	0	1	0	0	17.482	2.0162	16.566	2
9794	97.94	0	0	0	0	0	0	0	0	0	0	0	0	0	0	0	0	0	0	0	0	0	1	0	0	17.755	2.1475	16.785	0	0	0	1	0	0	17.761	2.1499	16.789	0	0	0	0	0	0	0	0	0	0	0	0	0	-1	0	-2.0278	-17.891	16.968	0	0	0	0	0	0	0	0	0	2
9795	97.95	0	0	0	0	0	0	10.917	-10.917	18.908	0	0	0	0	0	0	0	0	0	0	0	0	1	0	0	17.755	2.1475	16.785	0	0	0	1	0	0	17.761	2.1499	16.789	0	0	0	0	0	0	0	0	0	0	0	0	0	0	0	10.994	-10.994	19.042	0	0	0	0	0	0	0	0	0	0
9796	97.96	0	0	0	0	0	0	0	0	0	0	0	0	0	0	0	0	0	0	0	0	0	1	0	0	17.755	2.1475	16.785	0	0	0	1	0	0	17.761	2.1499	16.789	0	0	0	0	0	0	0	0	0	0	0	0	0	0	0	0	0	0	0	0	0	1	0	0	17.47	2.0148	16.554	2
9797	97.97	0	0	0	0	0	0	10.917	-10.917	18.908	0	0	0	0	0	0	0	0	0	0	0	0	1	0	0	17.755	2.1475	16.785	0	0	0	1	0	0	17.761	2.1499	16.789	0	0	0	0	0	0	0	0	0	0	0	0	1	-1	0	7.5503	-27.469	31.921	0	0	0	0	0	0	0	0	0	2
9798	97.98	0	0	0	0	0	0	0	0	0	0	0	0	0	0	0	0	0	0	0	0	0	1	0	0	17.755	2.1475	16.785	0	0	0	1	0	0	17.761	2.1499	16.789	0	0	0	0	0	0	0	0	0	0	0	0	0	0	0	10.994	-10.994	19.042	0	0	0	1	0	0	17.47	2.0148	16.554	2
9799	97.99	0	0	0	0	0	0	0	0	0	0	0	0	0	0	0	0	0	0	0	0	0	1	0	0	17.755	2.1475	16.785	0	0	0	1	0	0	17.761	2.1499	16.789	0	0	0	0	0	0	0	0	0	0	0	0	1	-1	0	7.5503	-27.469	31.921	0	0	0	0	0	0	0	0	0	2
9800	98	0	0	0	0	0	0	0	0	0	0	0	0	0	0	0	0	0	0	0	0	0	1	0	0	17.755	2.1475	16.785	0	0	0	1	0	0	17.761	2.1499	16.789	0	0	0	0	0	0	0	0	0	0	0	0	0	0	0	10.994	-10.994	19.042	0	0	0	1	0	0	17.47	2.0148	16.554	2
9801	98.01	0	0	0	0	0	0	0	0	0	0	0	0	0	0	0	0	0	0	0	0	0	1	0	0	17.755	2.1475	16.785	0	0	0	1	0	0	17.761	2.1499	16.789	0	0	0	0	0	0	0	0	0	0	0	0	0	0	0	10.994	-10.994	19.042	0	0	0	1	0	0	17.47	2.0148	16.554	2
9802	98.02	0	0	0	0	0	0	0	0	0	0	0	0	0	0	0	0	0	0	0	0	0	1	0	0	17.755	2.1475	16.785	0	0	0	1	0	0	17.761	2.1499	16.789	0	0	0	0	0	0	0	0	0	0	0	0	0	-1	0	-2.0278	-17.891	16.968	0	0	0	0	0	0	0	0	0	2
9803	98.03	0	0	0	0	0	0	0	0	0	0	0	0	0	0	0	0	0	0	0	0	0	1	0	0	17.755	2.1475	16.785	0	0	0	1	0	0	17.761	2.1499	16.789	0	0	0	0	0	0	0	0	0	0	0	0	0	0	0	0	0	0	0	0	0	1	0	0	17.47	2.0148	16.554	2
9804	98.04	0	0	0	0	0	0	0	0	0	0	0	0	0	0	0	0	0	0	0	0	0	0	0	0	10.989	-10.989	19.033	0	0	0	1	0	0	17.761	2.1499	16.789	0	0	0	0	0	0	0	0	0	0	0	0	0	-1	0	-2.0278	-17.891	16.968	0	0	0	1	0	0	17.47	2.0148	16.554	2
9805	98.05	0	0	0	0	0	0	0	0	0	0	0	0	0	0	0	0	0	0	0	0	0	1	0	0	17.755	2.1475	16.785	0	0	0	1	0	0	17.761	2.1499	16.789	0	0	0	0	0	0	0	0	0	0	0	0	0	0	0	0	0	0	0	0	0	0	0	0	0	0	0	2
9806	98.06	0	0	0	0	0	0	0	0	0	0	0	0	0	0	0	0	0	0	0	0	0	1	0	0	17.755	2.1475	16.785	0	0	0	1	0	0	17.761	2.1499	16.789	0	0	0	0	0	0	0	0	0	0	0	0	0	0	0	0	0	0	0	0	0	1	0	0	17.47	2.0148	16.554	2
9807	98.07	0	0	0	0	0	0	0	0	0	0	0	0	0	0	0	0	0	0	0	0	0	0	0	0	10.989	-10.989	19.033	0	0	0	1	0	0	17.761	2.1499	16.789	0	0	0	0	0	0	0	0	0	0	0	0	0	0	0	0	0	0	0	0	0	0	0	0	0	0	0	2
9808	98.08	0	0	0	0	0	0	0	0	0	0	0	0	0	0	0	0	0	0	0	0	0	1	0	0	17.755	2.1475	16.785	0	0	0	1	0	0	17.761	2.1499	16.789	0	0	0	0	0	0	0	0	0	0	0	0	0	0	0	10.994	-10.994	19.042	0	0	0	1	0	0	17.47	2.0148	16.554	3
9809	98.09	0	0	0	0	0	0	0	0	0	0	0	0	0	0	0	0	0	0	0	0	0	1	0	0	17.755	2.1475	16.785	0	0	0	1	0	0	17.761	2.1499	16.789	0	0	0	0	0	0	0	0	0	0	0	0	0	-1	0	-2.0278	-17.891	16.968	0	0	0	0	0	0	0	0	0	2
9810	98.1	0	0	0	0	0	0	0	0	0	0	0	0	0	0	0	0	0	0	0	0	0	1	0	0	17.755	2.1475	16.785	0	0	0	1	0	0	17.761	2.1499	16.789	0	0	0	0	0	0	0	0	0	0	0	0	1	-1	0	7.5503	-27.469	31.921	0	0	0	0	0	0	0	0	0	2
9811	98.11	0	0	0	0	0	0	10.917	-10.917	18.908	0	0	0	0	0	0	0	0	0	0	0	0	1	0	0	17.755	2.1475	16.785	0	0	0	1	0	0	17.761	2.1499	16.789	0	0	0	0	0	0	0	0	0	0	0	0	0	-1	0	-2.0278	-17.891	16.968	0	0	0	1	0	0	17.47	2.0148	16.554	3
9812	98.12	0	0	0	0	0	0	0	0	0	0	0	0	0	0	0	0	0	0	0	0	0	0	0	0	10.989	-10.989	19.033	0	0	0	1	0	0	17.761	2.1499	16.789	0	0	0	0	0	0	0	0	0	0	0	0	1	-1	0	7.5503	-27.469	31.921	0	0	0	0	0	0	0	0	0	2
9813	98.13	0	0	0	0	0	0	0	0	0	0	0	0	0	0	0	0	0	0	0	0	0	1	0	0	17.755	2.1475	16.785	0	0	0	1	0	0	17.761	2.1499	16.789	0	0	0	1	0	0	17.883	2.027	16.961	0	0	0	0	0	0	10.994	-10.994	19.042	0	0	0	1	0	0	17.47	2.0148	16.554	2
9814	98.14	0	0	0	0	0	0	0	0	0	0	0	0	0	0	0	0	0	0	0	0	0	1	0	0	17.755	2.1475	16.785	0	0	0	1	0	0	17.761	2.1499	16.789	0	0	0	0	0	0	0	0	0	0	0	0	0	0	0	0	0	0	0	0	0	0	0	0	0	0	0	2
9815	98.15	0	0	0	0	0	0	10.917	-10.917	18.908	0	0	0	0	0	0	0	0	0	0	0	0	1	0	0	17.755	2.1475	16.785	0	0	0	1	0	0	17.761	2.1499	16.789	0	0	0	0	0	0	0	0	0	0	0	0	0	0	0	0	0	0	0	0	0	0	0	0	0	0	0	2
9816	98.16	0	0	0	0	0	0	0	0	0	0	0	0	0	0	0	0	0	0	0	0	0	1	0	0	17.755	2.1475	16.785	0	0	0	1	0	0	17.761	2.1499	16.789	0	0	0	0	0	0	0	0	0	0	0	0	0	0	0	10.994	-10.994	19.042	0	0	0	1	0	0	17.47	2.0148	16.554	2
9817	98.17	0	0	0	0	0	0	0	0	0	0	0	0	0	0	0	0	0	0	0	0	0	0	0	0	10.989	-10.989	19.033	0	0	0	1	0	0	17.761	2.1499	16.789	0	0	0	0	0	0	0	0	0	0	0	0	1	-1	0	7.5503	-27.469	31.921	0	0	0	0	0	0	0	0	0	2
9818	98.18	0	0	0	0	0	0	0	0	0	0	0	0	0	0	0	0	0	0	0	0	0	1	0	0	17.755	2.1475	16.785	0	0	0	1	0	0	17.761	2.1499	16.789	0	0	0	0	0	0	0	0	0	0	0	0	0	0	0	0	0	0	0	0	0	1	0	0	17.47	2.0148	16.554	2
9819	98.19	0	0	0	0	0	0	10.917	-10.917	18.908	0	0	0	0	0	0	0	0	0	0	0	0	0	0	0	10.989	-10.989	19.033	0	0	0	1	0	0	17.761	2.1499	16.789	0	0	0	0	0	0	0	0	0	0	0	0	0	0	0	10.994	-10.994	19.042	0	0	0	0	0	0	0	0	0	2
9820	98.2	0	0	0	0	0	0	0	0	0	0	0	0	0	0	0	0	0	0	0	0	0	1	0	0	17.755	2.1475	16.785	0	0	0	1	0	0	17.761	2.1499	16.789	0	0	0	0	0	0	0	0	0	0	0	0	0	0	0	10.994	-10.994	19.042	0	0	0	1	0	0	17.47	2.0148	16.554	2
9821	98.21	0	0	0	0	0	0	10.917	-10.917	18.908	0	0	0	0	0	0	0	0	0	0	0	0	1	0	0	17.755	2.1475	16.785	0	0	0	1	0	0	17.761	2.1499	16.789	0	0	0	0	0	0	0	0	0	0	0	0	1	-1	0	7.5503	-27.469	31.921	0	0	0	0	0	0	0	0	0	2
9822	98.22	0	0	0	0	0	0	0	0	0	0	0	0	0	0	0	0	0	0	0	0	0	1	0	0	17.755	2.1475	16.785	0	0	0	1	0	0	17.761	2.1499	16.789	0	0	0	0	0	0	0	0	0	0	0	0	0	-1	0	-2.0278	-17.891	16.968	0	0	0	0	0	0	0	0	0	2
9823	98.23	0	0	0	0	0	0	10.917	-10.917	18.908	0	0	0	0	0	0	0	0	0	0	0	0	1	0	0	17.755	2.1475	16.785	0	0	0	1	0	0	17.761	2.1499	16.789	0	0	0	0	0	0	0	0	0	0	0	0	0	-1	0	-2.0278	-17.891	16.968	0	0	0	1	0	0	17.47	2.0148	16.554	2
9824	98.24	0	0	0	0	0	0	0	0	0	0	0	0	0	0	0	0	0	0	0	0	0	1	0	0	17.755	2.1475	16.785	0	0	0	1	0	0	17.761	2.1499	16.789	0	0	0	0	0	0	0	0	0	0	0	0	0	0	0	0	0	0	0	0	0	0	0	0	0	0	0	2
9825	98.25	0	0	0	0	0	0	0	0	0	0	0	0	0	0	0	0	0	0	0	0	0	1	0	0	17.755	2.1475	16.785	0	0	0	1	0	0	17.761	2.1499	16.789	0	0	0	0	0	0	0	0	0	0	0	0	0	-1	0	-2.0278	-17.891	16.968	0	0	0	1	0	0	17.47	2.0148	16.554	0
9826	98.26	0	0	0	0	0	0	10.917	-10.917	18.908	0	0	0	0	0	0	0	0	0	0	0	0	1	0	0	17.755	2.1475	16.785	0	0	0	1	0	0	17.761	2.1499	16.789	0	0	0	0	0	0	0	0	0	0	0	0	1	-1	0	7.5503	-27.469	31.921	0	0	0	1	0	0	17.47	2.0148	16.554	2
9827	98.27	0	0	0	0	0	0	10.917	-10.917	18.908	0	0	0	0	0	0	0	0	0	0	0	0	1	0	0	17.755	2.1475	16.785	0	0	0	1	0	0	17.761	2.1499	16.789	0	0	0	0	0	0	0	0	0	0	0	0	0	-1	0	-2.0278	-17.891	16.968	0	0	0	0	0	0	0	0	0	2
9828	98.28	0	0	0	0	0	0	10.917	-10.917	18.908	0	0	0	0	0	0	0	0	0	0	0	0	1	0	0	17.755	2.1475	16.785	0	0	0	1	0	0	17.761	2.1499	16.789	0	0	0	0	0	0	0	0	0	0	0	0	0	0	0	10.994	-10.994	19.042	0	0	0	1	0	0	17.47	2.0148	16.554	2
9829	98.29	0	0	0	0	0	0	0	0	0	0	0	0	0	0	0	0	0	0	0	0	0	1	0	0	17.755	2.1475	16.785	0	0	0	1	0	0	17.761	2.1499	16.789	0	0	0	0	0	0	0	0	0	0	0	0	0	0	0	0	0	0	0	0	0	0	0	0	0	0	0	2
9830	98.3	0	0	0	0	0	0	0	0	0	0	0	0	0	0	0	0	0	0	0	0	0	1	0	0	17.755	2.1475	16.785	0	0	0	1	0	0	17.761	2.1499	16.789	0	0	0	0	0	0	0	0	0	0	0	0	1	-1	0	7.5503	-27.469	31.921	0	0	0	0	0	0	0	0	0	2
9831	98.31	0	0	0	0	0	0	0	0	0	0	0	0	0	0	0	0	0	0	0	0	0	1	0	0	17.755	2.1475	16.785	0	0	0	1	0	0	17.761	2.1499	16.789	0	0	0	1	0	0	17.883	2.027	16.961	0	0	0	1	-1	0	7.5503	-27.469	31.921	0	0	0	0	0	0	0	0	0	2
9832	98.32	0	0	0	0	0	0	0	0	0	0	0	0	0	0	0	0	0	0	0	0	0	0	0	0	10.989	-10.989	19.033	0	0	0	1	0	0	17.761	2.1499	16.789	0	0	0	0	0	0	0	0	0	0	0	0	0	0	0	10.994	-10.994	19.042	0	0	0	0	0	0	0	0	0	2
9833	98.33	0	0	0	0	0	0	0	0	0	0	0	0	0	0	0	0	0	0	0	0	0	1	0	0	17.755	2.1475	16.785	0	0	0	1	0	0	17.761	2.1499	16.789	0	0	0	0	0	0	0	0	0	0	0	0	0	0	0	0	0	0	0	0	0	1	0	0	17.47	2.0148	16.554	2
9834	98.34	0	0	0	0	0	0	10.917	-10.917	18.908	0	0	0	0	0	0	0	0	0	0	0	0	1	0	0	17.755	2.1475	16.785	0	0	0	1	0	0	17.761	2.1499	16.789	0	0	0	0	0	0	0	0	0	0	0	0	0	-1	0	-2.0278	-17.891	16.968	0	0	0	0	0	0	0	0	0	2
9835	98.35	0	0	0	0	0	0	0	0	0	0	0	0	0	0	0	0	0	0	0	0	0	1	0	0	17.755	2.1475	16.785	0	0	0	1	0	0	17.761	2.1499	16.789	0	0	0	0	0	0	0	0	0	0	0	0	0	0	0	10.994	-10.994	19.042	0	0	0	1	0	0	17.47	2.0148	16.554	2
9836	98.36	0	0	0	0	0	0	10.917	-10.917	18.908	0	0	0	0	0	0	0	0	0	0	0	0	1	0	0	17.755	2.1475	16.785	0	0	0	1	0	0	17.761	2.1499	16.789	0	0	0	0	0	0	0	0	0	0	0	0	1	-1	0	7.5503	-27.469	31.921	0	0	0	0	0	0	0	0	0	2
9837	98.37	0	0	0	0	0	0	0	0	0	0	0	0	0	0	0	0	0	0	0	0	0	1	0	0	17.755	2.1475	16.785	0	0	0	1	0	0	17.761	2.1499	16.789	0	0	0	0	0	0	0	0	0	0	0	0	0	-1	0	-2.0278	-17.891	16.968	0	0	0	1	0	0	17.47	2.0148	16.554	2
9838	98.38	0	0	0	0	0	0	0	0	0	0	0	0	0	0	0	0	0	0	0	0	0	1	0	0	17.755	2.1475	16.785	0	0	0	1	0	0	17.761	2.1499	16.789	0	0	0	1	0	0	17.883	2.027	16.961	0	0	0	0	-1	0	-2.0278	-17.891	16.968	0	0	0	1	0	0	17.47	2.0148	16.554	2
9839	98.39	0	0	0	0	0	0	10.917	-10.917	18.908	0	0	0	0	0	0	0	0	0	0	0	0	1	0	0	17.755	2.1475	16.785	0	0	0	1	0	0	17.761	2.1499	16.789	0	0	0	0	0	0	0	0	0	0	0	0	0	-1	0	-2.0278	-17.891	16.968	0	0	0	0	0	0	0	0	0	3
9840	98.4	0	0	0	0	0	0	0	0	0	0	0	0	0	0	0	0	0	0	0	0	0	1	0	0	17.755	2.1475	16.785	0	0	0	1	0	0	17.761	2.1499	16.789	0	0	0	0	0	0	0	0	0	0	0	0	1	-1	0	7.5503	-27.469	31.921	0	0	0	1	0	0	17.47	2.0148	16.554	2
9841	98.41	0	0	0	0	0	0	10.917	-10.917	18.908	0	0	0	0	0	0	0	0	0	0	0	0	1	0	0	17.755	2.1475	16.785	0	0	0	1	0	0	17.761	2.1499	16.789	0	0	0	0	0	0	0	0	0	0	0	0	0	-1	0	-2.0278	-17.891	16.968	0	0	0	0	0	0	0	0	0	2
9842	98.42	0	0	0	0	0	0	0	0	0	0	0	0	0	0	0	0	0	0	0	0	0	1	0	0	17.755	2.1475	16.785	0	0	0	1	0	0	17.761	2.1499	16.789	0	0	0	0	0	0	0	0	0	0	0	0	1	-1	0	7.5503	-27.469	31.921	0	0	0	0	0	0	0	0	0	2
9843	98.43	0	0	0	0	0	0	10.917	-10.917	18.908	0	0	0	0	0	0	0	0	0	0	0	0	1	0	0	17.755	2.1475	16.785	0	0	0	1	0	0	17.761	2.1499	16.789	0	0	0	0	0	0	0	0	0	0	0	0	0	-1	0	-2.0278	-17.891	16.968	0	0	0	0	0	0	0	0	0	2
9844	98.44	0	0	0	0	0	0	0	0	0	0	0	0	0	0	0	0	0	0	0	0	0	1	0	0	17.755	2.1475	16.785	0	0	0	1	0	0	17.761	2.1499	16.789	0	0	0	0	0	0	0	0	0	0	0	0	0	-1	0	-2.0278	-17.891	16.968	0	0	0	0	0	0	0	0	0	2
9845	98.45	0	0	0	0	0	0	10.917	-10.917	18.908	0	0	0	0	0	0	0	0	0	0	0	0	1	0	0	17.755	2.1475	16.785	0	0	0	1	0	0	17.761	2.1499	16.789	0	0	0	0	0	0	0	0	0	0	0	0	0	-1	0	-2.0278	-17.891	16.968	0	0	0	1	0	0	17.47	2.0148	16.554	2
9846	98.46	0	0	0	0	0	0	10.917	-10.917	18.908	0	0	0	0	0	0	0	0	0	0	0	0	1	0	0	17.755	2.1475	16.785	0	0	0	1	0	0	17.761	2.1499	16.789	0	0	0	0	0	0	0	0	0	0	0	0	1	-1	0	7.5503	-27.469	31.921	0	0	0	1	0	0	17.47	2.0148	16.554	2
9847	98.47	0	0	0	0	0	0	0	0	0	0	0	0	0	0	0	0	0	0	0	0	0	1	0	0	17.755	2.1475	16.785	0	0	0	1	0	0	17.761	2.1499	16.789	0	0	0	0	0	0	0	0	0	0	0	0	0	-1	0	-2.0278	-17.891	16.968	0	0	0	0	0	0	0	0	0	2
9848	98.48	0	0	0	0	0	0	10.917	-10.917	18.908	0	0	0	0	0	0	0	0	0	0	0	0	1	0	0	17.755	2.1475	16.785	0	0	0	1	0	0	17.761	2.1499	16.789	0	0	0	0	0	0	0	0	0	0	0	0	1	-1	0	7.5503	-27.469	31.921	0	0	0	1	0	0	30.423	8.5595	27.174	2
9849	98.49	0	0	0	0	0	0	10.917	-10.917	18.908	0	0	0	0	0	0	0	0	0	0	0	0	1	0	0	17.755	2.1475	16.785	0	0	0	1	0	0	17.761	2.1499	16.789	0	0	0	0	0	0	0	0	0	0	0	0	0	-1	0	-2.0278	-17.891	16.968	0	0	0	0	0	0	0	0	0	2
9850	98.5	0	0	0	0	0	0	0	0	0	0	0	0	0	0	0	0	0	0	0	0	0	1	0	0	17.755	2.1475	16.785	0	0	0	1	0	0	17.761	2.1499	16.789	0	0	0	0	0	0	0	0	0	0	0	0	0	0	0	10.994	-10.994	19.042	0	0	0	0	0	0	0	0	0	2
9851	98.51	0	0	0	0	0	0	0	0	0	0	0	0	0	0	0	0	0	0	0	0	0	1	0	0	17.755	2.1475	16.785	0	0	0	1	0	0	17.761	2.1499	16.789	0	0	0	0	0	0	0	0	0	0	0	0	0	0	0	10.994	-10.994	19.042	0	0	0	1	0	0	17.47	2.0148	16.554	2
9852	98.52	0	0	0	0	0	0	0	0	0	0	0	0	0	0	0	0	0	0	0	0	0	1	0	0	17.755	2.1475	16.785	0	0	0	1	0	0	17.761	2.1499	16.789	0	0	0	0	0	0	0	0	0	0	0	0	1	-1	0	7.5503	-27.469	31.921	0	0	0	1	0	0	17.47	2.0148	16.554	2
9853	98.53	0	0	0	0	0	0	10.917	-10.917	18.908	0	0	0	0	0	0	0	0	0	0	0	0	1	0	0	17.755	2.1475	16.785	0	0	0	1	0	0	17.761	2.1499	16.789	0	0	0	0	0	0	0	0	0	0	0	0	0	0	0	10.994	-10.994	19.042	0	0	0	1	0	0	17.47	2.0148	16.554	2
9854	98.54	0	0	0	0	0	0	10.917	-10.917	18.908	0	0	0	0	0	0	0	0	0	0	0	0	1	0	0	17.755	2.1475	16.785	0	0	0	1	0	0	17.761	2.1499	16.789	0	0	0	0	0	0	0	0	0	0	0	0	1	-1	0	7.5503	-27.469	31.921	0	0	0	1	0	0	17.47	2.0148	16.554	2
9855	98.55	0	0	0	0	0	0	10.917	-10.917	18.908	0	0	0	0	0	0	0	0	0	0	0	0	1	0	0	17.755	2.1475	16.785	0	0	0	1	0	0	17.761	2.1499	16.789	0	0	0	0	0	0	0	0	0	0	0	0	0	-1	0	-2.0278	-17.891	16.968	0	0	0	0	0	0	0	0	0	2
9856	98.56	0	0	0	0	0	0	0	0	0	0	0	0	0	0	0	0	0	0	0	0	0	1	0	0	17.755	2.1475	16.785	0	0	0	1	0	0	17.761	2.1499	16.789	0	0	0	0	0	0	0	0	0	0	0	0	0	0	0	0	0	0	0	0	0	0	0	0	0	0	0	2
9857	98.57	0	0	0	0	0	0	0	0	0	0	0	0	0	0	0	0	0	0	0	0	0	1	0	0	17.755	2.1475	16.785	0	0	0	1	0	0	17.761	2.1499	16.789	0	0	0	0	0	0	0	0	0	0	0	0	0	-1	0	-2.0278	-17.891	16.968	0	0	0	0	0	0	0	0	0	2
9858	98.58	0	0	0	0	0	0	10.917	-10.917	18.908	0	0	0	0	0	0	0	0	0	0	0	0	1	0	0	17.755	2.1475	16.785	0	0	0	1	0	0	17.761	2.1499	16.789	0	0	0	0	0	0	0	0	0	0	0	0	1	-1	0	7.5503	-27.469	31.921	0	0	0	1	0	0	17.47	2.0148	16.554	2
9859	98.59	0	0	0	0	0	0	10.917	-10.917	18.908	0	0	0	0	0	0	0	0	0	0	0	0	1	0	0	17.755	2.1475	16.785	0	0	0	1	0	0	17.761	2.1499	16.789	0	0	0	0	0	0	0	0	0	0	0	0	0	-1	0	-2.0278	-17.891	16.968	0	0	0	1	0	0	17.47	2.0148	16.554	2
9860	98.6	0	0	0	0	0	0	0	0	0	0	0	0	0	0	0	0	0	0	0	0	0	1	0	0	17.755	2.1475	16.785	0	0	0	1	0	0	17.761	2.1499	16.789	0	0	0	0	0	0	0	0	0	0	0	0	0	0	0	10.994	-10.994	19.042	0	0	0	1	0	0	17.47	2.0148	16.554	3
9861	98.61	0	0	0	0	0	0	0	0	0	0	0	0	0	0	0	0	0	0	0	0	0	1	0	0	17.755	2.1475	16.785	0	0	0	1	0	0	17.761	2.1499	16.789	0	0	0	0	0	0	0	0	0	0	0	0	0	0	0	0	0	0	0	0	0	1	0	0	17.47	2.0148	16.554	2
9862	98.62	0	0	0	0	0	0	0	0	0	0	0	0	0	0	0	0	0	0	0	0	0	1	0	0	17.755	2.1475	16.785	0	0	0	1	0	0	17.761	2.1499	16.789	0	0	0	0	0	0	0	0	0	0	0	0	0	0	0	0	0	0	0	0	0	0	0	0	0	0	0	2
9863	98.63	0	0	0	0	0	0	10.917	-10.917	18.908	0	0	0	0	0	0	0	0	0	0	0	0	1	0	0	17.755	2.1475	16.785	0	0	0	1	0	0	17.761	2.1499	16.789	0	0	0	0	0	0	0	0	0	0	0	0	0	-1	0	-2.0278	-17.891	16.968	0	0	0	1	0	0	17.47	2.0148	16.554	2
9864	98.64	0	0	0	0	0	0	0	0	0	0	0	0	0	0	0	0	0	0	0	0	0	0	0	0	10.989	-10.989	19.033	0	0	0	1	0	0	17.761	2.1499	16.789	0	0	0	0	0	0	0	0	0	0	0	0	0	-1	0	-2.0278	-17.891	16.968	0	0	0	1	0	0	17.47	2.0148	16.554	2
9865	98.65	0	0	0	0	0	0	10.917	-10.917	18.908	0	0	0	0	0	0	0	0	0	0	0	0	1	0	0	17.755	2.1475	16.785	0	0	0	1	0	0	17.761	2.1499	16.789	0	0	0	0	0	0	0	0	0	0	0	0	0	0	0	0	0	0	0	0	0	0	0	0	0	0	0	2
9866	98.66	0	0	0	0	0	0	10.917	-10.917	18.908	0	0	0	0	0	0	0	0	0	0	0	0	1	0	0	17.755	2.1475	16.785	0	0	0	1	0	0	17.761	2.1499	16.789	0	0	0	0	0	0	0	0	0	0	0	0	1	-1	0	7.5503	-27.469	31.921	0	0	0	1	0	0	17.47	2.0148	16.554	2
9867	98.67	0	0	0	0	0	0	10.917	-10.917	18.908	0	0	0	0	0	0	0	0	0	0	0	0	1	0	0	17.755	2.1475	16.785	0	0	0	1	0	0	17.761	2.1499	16.789	0	0	0	0	0	0	0	0	0	0	0	0	0	0	0	0	0	0	0	0	0	0	0	0	0	0	0	2
9868	98.68	0	0	0	0	0	0	0	0	0	0	0	0	0	0	0	0	0	0	0	0	0	1	0	0	17.755	2.1475	16.785	0	0	0	1	0	0	17.761	2.1499	16.789	0	0	0	0	0	0	0	0	0	0	0	0	1	-1	0	7.5503	-27.469	31.921	0	0	0	1	0	0	17.47	2.0148	16.554	2
9869	98.69	0	0	0	0	0	0	10.917	-10.917	18.908	0	0	0	0	0	0	0	0	0	0	0	0	1	0	0	17.755	2.1475	16.785	0	0	0	1	0	0	17.761	2.1499	16.789	0	0	0	0	0	0	0	0	0	0	0	0	0	-1	0	-2.0278	-17.891	16.968	0	0	0	1	0	0	17.47	2.0148	16.554	2
9870	98.7	0	0	0	0	0	0	0	0	0	0	0	0	0	0	0	0	0	0	0	0	0	1	0	0	17.755	2.1475	16.785	0	0	0	1	0	0	17.761	2.1499	16.789	0	0	0	0	0	0	0	0	0	0	0	0	0	0	0	0	0	0	0	0	0	1	0	0	17.47	2.0148	16.554	2
9871	98.71	0	0	0	0	0	0	10.917	-10.917	18.908	0	0	0	0	0	0	0	0	0	0	0	0	1	0	0	17.755	2.1475	16.785	0	0	0	1	0	0	17.761	2.1499	16.789	0	0	0	0	0	0	0	0	0	0	0	0	0	-1	0	-2.0278	-17.891	16.968	0	0	0	1	0	0	17.47	2.0148	16.554	2
9872	98.72	0	0	0	0	0	0	0	0	0	0	0	0	0	0	0	0	0	0	0	0	0	0	0	0	10.989	-10.989	19.033	0	0	0	1	0	0	17.761	2.1499	16.789	0	0	0	0	0	0	0	0	0	0	0	0	0	-1	0	-2.0278	-17.891	16.968	0	0	0	0	0	0	0	0	0	2
9873	98.73	0	0	0	0	0	0	0	0	0	0	0	0	0	0	0	0	0	0	0	0	0	1	0	0	17.755	2.1475	16.785	0	0	0	1	0	0	17.761	2.1499	16.789	0	0	0	0	0	0	0	0	0	0	0	0	0	0	0	0	0	0	0	0	0	1	0	0	17.47	2.0148	16.554	2
9874	98.74	0	0	0	0	0	0	0	0	0	0	0	0	0	0	0	0	0	0	0	0	0	1	0	0	17.755	2.1475	16.785	0	0	0	1	0	0	17.761	2.1499	16.789	0	0	0	0	0	0	0	0	0	0	0	0	0	0	0	0	0	0	0	0	0	0	0	0	0	0	0	2
9875	98.75	0	0	0	0	0	0	10.917	-10.917	18.908	0	0	0	0	0	0	0	0	0	0	0	0	1	0	0	17.755	2.1475	16.785	0	0	0	1	0	0	17.761	2.1499	16.789	0	0	0	0	0	0	0	0	0	0	0	0	0	0	0	0	0	0	0	0	0	1	0	0	17.47	2.0148	16.554	2
9876	98.76	0	0	0	0	0	0	0	0	0	0	0	0	0	0	0	0	0	0	0	0	0	1	0	0	17.755	2.1475	16.785	0	0	0	1	0	0	17.761	2.1499	16.789	0	0	0	0	0	0	0	0	0	0	0	0	1	-1	0	7.5503	-27.469	31.921	0	0	0	1	0	0	17.47	2.0148	16.554	2
9877	98.77	0	0	0	0	0	0	10.917	-10.917	18.908	0	0	0	0	0	0	0	0	0	0	0	0	0	0	0	10.989	-10.989	19.033	0	0	0	1	0	0	17.761	2.1499	16.789	0	0	0	0	0	0	0	0	0	0	0	0	0	-1	0	-2.0278	-17.891	16.968	0	0	0	0	0	0	0	0	0	2
9878	98.78	0	0	0	0	0	0	10.917	-10.917	18.908	0	0	0	0	0	0	0	0	0	0	0	0	1	0	0	17.755	2.1475	16.785	0	0	0	1	0	0	17.761	2.1499	16.789	0	0	0	0	0	0	0	0	0	0	0	0	0	-1	0	-2.0278	-17.891	16.968	0	0	0	1	0	0	17.47	2.0148	16.554	2
9879	98.79	0	0	0	0	0	0	0	0	0	0	0	0	0	0	0	0	0	0	0	0	0	1	0	0	17.755	2.1475	16.785	0	0	0	1	0	0	17.761	2.1499	16.789	0	0	0	0	0	0	0	0	0	0	0	0	0	-1	0	-2.0278	-17.891	16.968	0	0	0	0	0	0	0	0	0	2
9880	98.8	0	0	0	0	0	0	10.917	-10.917	18.908	0	0	0	0	0	0	0	0	0	0	0	0	1	0	0	17.755	2.1475	16.785	0	0	0	1	0	0	17.761	2.1499	16.789	0	0	0	0	0	0	0	0	0	0	0	0	0	-1	0	-2.0278	-17.891	16.968	0	0	0	1	0	0	17.47	2.0148	16.554	2
9881	98.81	0	0	0	0	0	0	0	0	0	0	0	0	0	0	0	0	0	0	0	0	0	1	0	0	17.755	2.1475	16.785	0	0	0	1	0	0	17.761	2.1499	16.789	0	0	0	0	0	0	0	0	0	0	0	0	0	0	0	0	0	0	0	0	0	1	0	0	17.47	2.0148	16.554	2
9882	98.82	0	0	0	0	0	0	0	0	0	0	0	0	0	0	0	0	0	0	0	0	0	1	0	0	17.755	2.1475	16.785	0	0	0	1	0	0	17.761	2.1499	16.789	0	0	0	0	0	0	0	0	0	0	0	0	0	-1	0	-2.0278	-17.891	16.968	0	0	0	1	0	0	17.47	2.0148	16.554	2
9883	98.83	0	0	0	0	0	0	0	0	0	0	0	0	0	0	0	0	0	0	0	0	0	1	0	0	17.755	2.1475	16.785	0	0	0	1	0	0	17.761	2.1499	16.789	0	0	0	0	0	0	0	0	0	0	0	0	0	0	0	0	0	0	0	0	0	1	0	0	17.47	2.0148	16.554	2
9884	98.84	0	0	0	0	0	0	0	0	0	0	0	0	0	0	0	0	0	0	0	0	0	1	0	0	17.755	2.1475	16.785	0	0	0	1	0	0	17.761	2.1499	16.789	0	0	0	0	0	0	0	0	0	0	0	0	0	0	0	0	0	0	0	0	0	0	0	0	0	0	0	2
9885	98.85	0	0	0	0	0	0	10.917	-10.917	18.908	0	0	0	0	0	0	0	0	0	0	0	0	1	0	0	17.755	2.1475	16.785	0	0	0	1	0	0	17.761	2.1499	16.789	0	0	0	0	0	0	0	0	0	0	0	0	0	-1	0	-2.0278	-17.891	16.968	0	0	0	1	0	0	17.47	2.0148	16.554	2
9886	98.86	0	0	0	0	0	0	0	0	0	0	0	0	0	0	0	0	0	0	0	0	0	1	0	0	17.755	2.1475	16.785	0	0	0	1	0	0	17.761	2.1499	16.789	0	0	0	0	0	0	0	0	0	0	0	0	0	0	0	0	0	0	0	0	0	1	0	0	17.47	2.0148	16.554	2
9887	98.87	0	0	0	0	0	0	10.917	-10.917	18.908	0	0	0	0	0	0	0	0	0	0	0	0	1	0	0	17.755	2.1475	16.785	0	0	0	1	0	0	17.761	2.1499	16.789	0	0	0	0	0	0	0	0	0	0	0	0	0	-1	0	-2.0278	-17.891	16.968	0	0	0	0	0	0	0	0	0	2
9888	98.88	0	0	0	0	0	0	0	0	0	0	0	0	0	0	0	0	0	0	0	0	0	1	0	0	17.755	2.1475	16.785	0	0	0	1	0	0	17.761	2.1499	16.789	0	0	0	0	0	0	0	0	0	0	0	0	0	0	0	0	0	0	0	0	0	0	0	0	0	0	0	2
9889	98.89	0	0	0	0	0	0	0	0	0	0	0	0	0	0	0	0	0	0	0	0	0	1	0	0	17.755	2.1475	16.785	0	0	0	1	0	0	17.761	2.1499	16.789	0	0	0	0	0	0	0	0	0	0	0	0	0	-1	0	-2.0278	-17.891	16.968	0	0	0	0	0	0	0	0	0	0
9890	98.9	0	0	0	0	0	0	10.917	-10.917	18.908	0	0	0	0	0	0	0	0	0	0	0	0	1	0	0	17.755	2.1475	16.785	0	0	0	1	0	0	17.761	2.1499	16.789	0	0	0	0	0	0	0	0	0	0	0	0	0	-1	0	-2.0278	-17.891	16.968	0	0	0	1	0	0	17.47	2.0148	16.554	2
9891	98.91	0	0	0	0	0	0	0	0	0	0	0	0	0	0	0	0	0	0	0	0	0	1	0	0	17.755	2.1475	16.785	0	0	0	1	0	0	17.761	2.1499	16.789	0	0	0	0	0	0	0	0	0	0	0	0	0	0	0	0	0	0	0	0	0	0	0	0	0	0	0	2
9892	98.92	0	0	0	0	0	0	0	0	0	0	0	0	0	0	0	0	0	0	0	0	0	1	0	0	17.755	2.1475	16.785	0	0	0	1	0	0	17.761	2.1499	16.789	0	0	0	0	0	0	0	0	0	0	0	0	0	-1	0	-2.0278	-17.891	16.968	0	0	0	0	0	0	0	0	0	2
9893	98.93	0	0	0	0	0	0	0	0	0	0	0	0	0	0	0	0	0	0	0	0	0	1	0	0	17.755	2.1475	16.785	0	0	0	1	0	0	17.761	2.1499	16.789	0	0	0	0	0	0	0	0	0	0	0	0	0	0	0	0	0	0	0	0	0	1	0	0	17.47	2.0148	16.554	2
9894	98.94	0	0	0	0	0	0	0	0	0	0	0	0	0	0	0	0	0	0	0	0	0	1	0	0	17.755	2.1475	16.785	0	0	0	1	0	0	17.761	2.1499	16.789	0	0	0	0	0	0	0	0	0	0	0	0	0	-1	0	-2.0278	-17.891	16.968	0	0	0	0	0	0	0	0	0	2
9895	98.95	0	0	0	0	0	0	0	0	0	0	0	0	0	0	0	0	0	0	0	0	0	1	0	0	17.755	2.1475	16.785	0	0	0	1	0	0	17.761	2.1499	16.789	0	0	0	0	0	0	0	0	0	0	0	0	0	0	0	10.994	-10.994	19.042	0	0	0	0	0	0	0	0	0	2
9896	98.96	0	0	0	0	0	0	0	0	0	0	0	0	0	0	0	0	0	0	0	0	0	1	0	0	17.755	2.1475	16.785	0	0	0	1	0	0	17.761	2.1499	16.789	0	0	0	0	0	0	0	0	0	0	0	0	0	-1	0	-2.0278	-17.891	16.968	0	0	0	0	0	0	0	0	0	2
9897	98.97	0	0	0	0	0	0	0	0	0	0	0	0	0	0	0	0	0	0	0	0	0	1	0	0	17.755	2.1475	16.785	0	0	0	1	0	0	17.761	2.1499	16.789	0	0	0	0	0	0	0	0	0	0	0	0	0	0	0	0	0	0	0	0	0	0	0	0	0	0	0	2
9898	98.98	0	0	0	0	0	0	10.917	-10.917	18.908	0	0	0	0	0	0	0	0	0	0	0	0	1	0	0	17.755	2.1475	16.785	0	0	0	1	0	0	17.761	2.1499	16.789	0	0	0	0	0	0	0	0	0	0	0	0	1	-1	0	7.5503	-27.469	31.921	0	0	0	1	0	0	17.47	2.0148	16.554	2
9899	98.99	0	0	0	0	0	0	0	0	0	0	0	0	0	0	0	0	0	0	0	0	0	1	0	0	17.755	2.1475	16.785	0	0	0	1	0	0	17.761	2.1499	16.789	0	0	0	0	0	0	0	0	0	0	0	0	0	-1	0	-2.0278	-17.891	16.968	0	0	0	0	0	0	0	0	0	2
9900	99	0	0	0	0	0	0	0	0	0	0	0	0	0	0	0	0	0	0	0	0	0	1	0	0	17.755	2.1475	16.785	0	0	0	1	0	0	17.761	2.1499	16.789	0	0	0	0	0	0	0	0	0	0	0	0	0	0	0	0	0	0	0	0	0	1	0	0	17.47	2.0148	16.554	2
9901	99.01	0	0	0	0	0	0	0	0	0	0	0	0	0	0	0	0	0	0	0	0	0	1	0	0	17.755	2.1475	16.785	0	0	0	1	0	0	17.761	2.1499	16.789	0	0	0	0	0	0	0	0	0	0	0	0	0	0	0	0	0	0	0	0	0	0	0	0	0	0	0	2
9902	99.02	0	0	0	0	0	0	0	0	0	0	0	0	0	0	0	0	0	0	0	0	0	1	0	0	17.755	2.1475	16.785	0	0	0	1	0	0	17.761	2.1499	16.789	0	0	0	0	0	0	0	0	0	0	0	0	0	0	0	0	0	0	0	0	0	1	0	0	17.47	2.0148	16.554	2
9903	99.03	0	0	0	0	0	0	0	0	0	0	0	0	0	0	0	0	0	0	0	0	0	1	0	0	17.755	2.1475	16.785	0	0	0	1	0	0	17.761	2.1499	16.789	0	0	0	0	0	0	0	0	0	0	0	0	1	-1	0	7.5503	-27.469	31.921	0	0	0	1	0	0	17.47	2.0148	16.554	2
9904	99.04	0	0	0	0	0	0	0	0	0	0	0	0	0	0	0	0	0	0	0	0	0	1	0	0	17.755	2.1475	16.785	0	0	0	1	0	0	17.761	2.1499	16.789	0	0	0	0	0	0	0	0	0	0	0	0	0	-1	0	-2.0278	-17.891	16.968	0	0	0	0	0	0	0	0	0	2
9905	99.05	0	0	0	0	0	0	0	0	0	0	0	0	0	0	0	0	0	0	0	0	0	1	0	0	17.755	2.1475	16.785	0	0	0	1	0	0	17.761	2.1499	16.789	0	0	0	0	0	0	0	0	0	0	0	0	0	-1	0	-2.0278	-17.891	16.968	0	0	0	0	0	0	0	0	0	2
9906	99.06	0	0	0	0	0	0	10.917	-10.917	18.908	0	0	0	0	0	0	0	0	0	0	0	0	1	0	0	17.755	2.1475	16.785	0	0	0	1	0	0	17.761	2.1499	16.789	0	0	0	0	0	0	0	0	0	0	0	0	1	-1	0	7.5503	-27.469	31.921	0	0	0	0	0	0	0	0	0	2
9907	99.07	0	0	0	0	0	0	10.917	-10.917	18.908	0	0	0	0	0	0	0	0	0	0	0	0	0	0	0	10.989	-10.989	19.033	0	0	0	1	0	0	17.761	2.1499	16.789	0	0	0	0	0	0	0	0	0	0	0	0	0	0	0	10.994	-10.994	19.042	0	0	0	0	0	0	0	0	0	2
9908	99.08	0	0	0	0	0	0	0	0	0	0	0	0	0	0	0	0	0	0	0	0	0	0	0	0	20.079	19.73	19.907	0	0	0	1	0	0	17.761	2.1499	16.789	0	0	0	0	0	0	0	0	0	0	0	0	1	-1	0	7.5503	-27.469	31.921	0	0	0	0	0	0	0	0	0	2
9909	99.09	0	0	0	0	0	0	0	0	0	0	0	0	0	0	0	0	0	0	0	0	0	0	0	0	10.989	-10.989	19.033	0	0	0	1	0	0	17.761	2.1499	16.789	0	0	0	0	0	0	0	0	0	0	0	0	0	-1	0	-2.0278	-17.891	16.968	0	0	0	0	0	0	0	0	0	2
9910	99.1	0	0	0	0	0	0	0	0	0	0	0	0	0	0	0	0	0	0	0	0	0	1	0	0	17.755	2.1475	16.785	0	0	0	1	0	0	17.761	2.1499	16.789	0	0	0	0	0	0	0	0	0	0	0	0	0	0	0	10.994	-10.994	19.042	0	0	0	0	0	0	0	0	0	2
9911	99.11	0	0	0	0	0	0	10.917	-10.917	18.908	0	0	0	0	0	0	0	0	0	0	0	0	1	0	0	17.755	2.1475	16.785	0	0	0	1	0	0	17.761	2.1499	16.789	0	0	0	0	0	0	0	0	0	0	0	0	0	-1	0	-2.0278	-17.891	16.968	0	0	0	1	0	0	17.47	2.0148	16.554	2
9912	99.12	0	0	0	0	0	0	10.917	-10.917	18.908	0	0	0	0	0	0	0	0	0	0	0	0	1	0	0	17.755	2.1475	16.785	0	0	0	1	0	0	17.761	2.1499	16.789	0	0	0	0	0	0	0	0	0	0	0	0	0	0	0	10.994	-10.994	19.042	0	0	0	0	0	0	0	0	0	2
9913	99.13	0	0	0	0	0	0	0	0	0	0	0	0	0	0	0	0	0	0	0	0	0	1	0	0	17.755	2.1475	16.785	0	0	0	1	0	0	17.761	2.1499	16.789	0	0	0	0	0	0	0	0	0	0	0	0	0	-1	0	-2.0278	-17.891	16.968	0	0	0	1	0	0	17.47	2.0148	16.554	2
9914	99.14	0	0	0	0	0	0	0	0	0	0	0	0	0	0	0	0	0	0	0	0	0	1	0	0	17.755	2.1475	16.785	0	0	0	1	0	0	17.761	2.1499	16.789	0	0	0	0	0	0	0	0	0	0	0	0	0	0	0	10.994	-10.994	19.042	0	0	0	1	0	0	17.47	2.0148	16.554	2
9915	99.15	0	0	0	0	0	0	10.917	-10.917	18.908	0	0	0	0	0	0	0	0	0	0	0	0	1	0	0	17.755	2.1475	16.785	0	0	0	1	0	0	17.761	2.1499	16.789	0	0	0	0	0	0	0	0	0	0	0	0	1	-1	0	7.5503	-27.469	31.921	0	0	0	0	0	0	0	0	0	2
9916	99.16	0	0	0	0	0	0	0	0	0	0	0	0	0	0	0	0	0	0	0	0	0	1	0	0	17.755	2.1475	16.785	0	0	0	1	0	0	17.761	2.1499	16.789	0	0	0	0	0	0	0	0	0	0	0	0	0	-1	0	-2.0278	-17.891	16.968	0	0	0	0	0	0	0	0	0	2
9917	99.17	0	0	0	0	0	0	0	0	0	0	0	0	0	0	0	0	0	0	0	0	0	1	0	0	17.755	2.1475	16.785	0	0	0	1	0	0	17.761	2.1499	16.789	0	0	0	0	0	0	0	0	0	0	0	0	1	-1	0	7.5503	-27.469	31.921	0	0	0	0	0	0	0	0	0	2
9918	99.18	0	0	0	0	0	0	0	0	0	0	0	0	0	0	0	0	0	0	0	0	0	1	0	0	17.755	2.1475	16.785	0	0	0	1	0	0	17.761	2.1499	16.789	0	0	0	0	0	0	0	0	0	0	0	0	1	-1	0	7.5503	-27.469	31.921	0	0	0	1	0	0	17.47	2.0148	16.554	2
9919	99.19	0	0	0	0	0	0	0	0	0	0	0	0	0	0	0	0	0	0	0	0	0	1	0	0	17.755	2.1475	16.785	0	0	0	1	0	0	17.761	2.1499	16.789	0	0	0	0	0	0	0	0	0	0	0	0	0	0	0	10.994	-10.994	19.042	0	0	0	0	0	0	0	0	0	2
9920	99.2	0	0	0	0	0	0	0	0	0	0	0	0	0	0	0	0	0	0	0	0	0	1	0	0	17.755	2.1475	16.785	0	0	0	1	0	0	17.761	2.1499	16.789	0	0	0	0	0	0	0	0	0	0	0	0	0	-1	0	-2.0278	-17.891	16.968	0	0	0	0	0	0	0	0	0	2
9921	99.21	0	0	0	0	0	0	0	0	0	0	0	0	0	0	0	0	0	0	0	0	0	1	0	0	17.755	2.1475	16.785	0	0	0	1	0	0	17.761	2.1499	16.789	0	0	0	0	0	0	0	0	0	0	0	0	0	-1	0	-2.0278	-17.891	16.968	0	0	0	1	0	0	17.47	2.0148	16.554	2
9922	99.22	0	0	0	0	0	0	0	0	0	0	0	0	0	0	0	0	0	0	0	0	0	1	0	0	17.755	2.1475	16.785	0	0	0	1	0	0	17.761	2.1499	16.789	0	0	0	0	0	0	0	0	0	0	0	0	0	0	0	0	0	0	0	0	0	0	0	0	0	0	0	2
9923	99.23	0	0	0	0	0	0	0	0	0	0	0	0	0	0	0	0	0	0	0	0	0	1	0	0	17.755	2.1475	16.785	0	0	0	1	0	0	17.761	2.1499	16.789	0	0	0	0	0	0	0	0	0	0	0	0	1	-1	0	7.5503	-27.469	31.921	0	0	0	1	0	0	17.47	2.0148	16.554	2
9924	99.24	0	0	0	0	0	0	10.917	-10.917	18.908	0	0	0	0	0	0	0	0	0	0	0	0	1	0	0	17.755	2.1475	16.785	0	0	0	1	0	0	17.761	2.1499	16.789	0	0	0	0	0	0	0	0	0	0	0	0	0	0	0	0	0	0	0	0	0	0	0	0	0	0	0	2
9925	99.25	0	0	0	0	0	0	0	0	0	0	0	0	0	0	0	0	0	0	0	0	0	1	0	0	17.755	2.1475	16.785	0	0	0	1	0	0	17.761	2.1499	16.789	0	0	0	0	0	0	0	0	0	0	0	0	0	-1	0	-2.0278	-17.891	16.968	0	0	0	0	0	0	0	0	0	2
9926	99.26	0	0	0	0	0	0	10.917	-10.917	18.908	0	0	0	0	0	0	0	0	0	0	0	0	1	0	0	17.755	2.1475	16.785	0	0	0	1	0	0	17.761	2.1499	16.789	0	0	0	0	0	0	0	0	0	0	0	0	0	0	0	10.994	-10.994	19.042	0	0	0	1	0	0	17.47	2.0148	16.554	2
9927	99.27	0	0	0	0	0	0	10.917	-10.917	18.908	0	0	0	0	0	0	0	0	0	0	0	0	1	0	0	17.755	2.1475	16.785	0	0	0	1	0	0	17.761	2.1499	16.789	0	0	0	0	0	0	0	0	0	0	0	0	0	-1	0	-2.0278	-17.891	16.968	0	0	0	0	0	0	0	0	0	2
9928	99.28	0	0	0	0	0	0	0	0	0	0	0	0	0	0	0	0	0	0	0	0	0	1	0	0	17.755	2.1475	16.785	0	0	0	1	0	0	17.761	2.1499	16.789	0	0	0	0	0	0	0	0	0	0	0	0	0	0	0	0	0	0	0	0	0	1	0	0	17.47	2.0148	16.554	2
9929	99.29	0	0	0	0	0	0	10.917	-10.917	18.908	0	0	0	0	0	0	0	0	0	0	0	0	1	0	0	17.755	2.1475	16.785	0	0	0	1	0	0	17.761	2.1499	16.789	0	0	0	0	0	0	0	0	0	0	0	0	1	-1	0	7.5503	-27.469	31.921	0	0	0	0	0	0	0	0	0	2
9930	99.3	0	0	0	0	0	0	0	0	0	0	0	0	0	0	0	0	0	0	0	0	0	1	0	0	17.755	2.1475	16.785	0	0	0	1	0	0	17.761	2.1499	16.789	0	0	0	0	0	0	0	0	0	0	0	0	0	-1	0	-2.0278	-17.891	16.968	0	0	0	0	0	0	0	0	0	2
9931	99.31	0	0	0	0	0	0	10.917	-10.917	18.908	0	0	0	0	0	0	0	0	0	0	0	0	1	0	0	17.755	2.1475	16.785	0	0	0	1	0	0	17.761	2.1499	16.789	0	0	0	1	0	0	17.883	2.027	16.961	0	0	0	0	0	0	10.994	-10.994	19.042	0	0	0	1	0	0	17.47	2.0148	16.554	2
9932	99.32	0	0	0	0	0	0	0	0	0	0	0	0	0	0	0	0	0	0	0	0	0	1	0	0	17.755	2.1475	16.785	0	0	0	1	0	0	17.761	2.1499	16.789	0	0	0	0	0	0	0	0	0	0	0	0	1	-1	0	7.5503	-27.469	31.921	0	0	0	0	0	0	0	0	0	2
9933	99.33	0	0	0	0	0	0	10.917	-10.917	18.908	0	0	0	0	0	0	0	0	0	0	0	0	1	0	0	17.755	2.1475	16.785	0	0	0	1	0	0	17.761	2.1499	16.789	0	0	0	0	0	0	0	0	0	0	0	0	0	0	0	10.994	-10.994	19.042	0	0	0	0	0	0	0	0	0	2
9934	99.34	0	0	0	0	0	0	10.917	-10.917	18.908	0	0	0	0	0	0	0	0	0	0	0	0	1	0	0	17.755	2.1475	16.785	0	0	0	1	0	0	17.761	2.1499	16.789	0	0	0	0	0	0	0	0	0	0	0	0	1	-1	0	7.5503	-27.469	31.921	0	0	0	1	0	0	17.47	2.0148	16.554	3
9935	99.35	0	0	0	0	0	0	0	0	0	0	0	0	0	0	0	0	0	0	0	0	0	1	0	0	17.755	2.1475	16.785	0	0	0	1	0	0	17.761	2.1499	16.789	0	0	0	0	0	0	0	0	0	0	0	0	0	0	0	0	0	0	0	0	0	0	0	0	0	0	0	2
9936	99.36	0	0	0	0	0	0	0	0	0	0	0	0	0	0	0	0	0	0	0	0	0	1	0	0	17.755	2.1475	16.785	0	0	0	1	0	0	17.761	2.1499	16.789	0	0	0	0	0	0	0	0	0	0	0	0	1	-1	0	7.5503	-27.469	31.921	0	0	0	1	0	0	17.47	2.0148	16.554	2
9937	99.37	0	0	0	0	0	0	0	0	0	0	0	0	0	0	0	0	0	0	0	0	0	1	0	0	17.755	2.1475	16.785	0	0	0	1	0	0	17.761	2.1499	16.789	0	0	0	0	0	0	0	0	0	0	0	0	1	-1	0	7.5503	-27.469	31.921	0	0	0	0	0	0	0	0	0	2
9938	99.38	0	0	0	0	0	0	0	0	0	0	0	0	0	0	0	0	0	0	0	0	0	1	0	0	17.755	2.1475	16.785	0	0	0	1	0	0	17.761	2.1499	16.789	0	0	0	0	0	0	0	0	0	0	0	0	0	0	0	10.994	-10.994	19.042	0	0	0	1	0	0	17.47	2.0148	16.554	2
9939	99.39	0	0	0	0	0	0	10.917	-10.917	18.908	0	0	0	0	0	0	0	0	0	0	0	0	1	0	0	17.755	2.1475	16.785	0	0	0	1	0	0	17.761	2.1499	16.789	0	0	0	0	0	0	0	0	0	0	0	0	0	-1	0	-2.0278	-17.891	16.968	0	0	0	0	0	0	0	0	0	2
9940	99.4	0	0	0	0	0	0	0	0	0	0	0	0	0	0	0	0	0	0	0	0	0	1	0	0	17.755	2.1475	16.785	0	0	0	1	0	0	17.761	2.1499	16.789	0	0	0	0	0	0	0	0	0	0	0	0	0	-1	0	-2.0278	-17.891	16.968	0	0	0	1	0	0	17.47	2.0148	16.554	2
9941	99.41	0	0	0	0	0	0	0	0	0	0	0	0	0	0	0	0	0	0	0	0	0	1	0	0	17.755	2.1475	16.785	0	0	0	1	0	0	17.761	2.1499	16.789	0	0	0	0	0	0	0	0	0	0	0	0	0	-1	0	-2.0278	-17.891	16.968	0	0	0	1	0	0	17.47	2.0148	16.554	2
9942	99.42	0	0	0	0	0	0	10.917	-10.917	18.908	0	0	0	0	0	0	0	0	0	0	0	0	1	0	0	17.755	2.1475	16.785	0	0	0	1	0	0	17.761	2.1499	16.789	0	0	0	0	0	0	0	0	0	0	0	0	0	-1	0	-2.0278	-17.891	16.968	0	0	0	1	0	0	17.47	2.0148	16.554	2
9943	99.43	0	0	0	0	0	0	0	0	0	0	0	0	0	0	0	0	0	0	0	0	0	1	0	0	17.755	2.1475	16.785	0	0	0	1	0	0	17.761	2.1499	16.789	0	0	0	0	0	0	0	0	0	0	0	0	1	-1	0	7.5503	-27.469	31.921	0	0	0	1	0	0	17.47	2.0148	16.554	2
9944	99.44	0	0	0	0	0	0	0	0	0	0	0	0	0	0	0	0	0	0	0	0	0	1	0	0	17.755	2.1475	16.785	0	0	0	1	0	0	17.761	2.1499	16.789	0	0	0	0	0	0	0	0	0	0	0	0	0	-1	0	-2.0278	-17.891	16.968	0	0	0	1	0	0	17.47	2.0148	16.554	2
9945	99.45	0	0	0	0	0	0	0	0	0	0	0	0	0	0	0	0	0	0	0	0	0	1	0	0	17.755	2.1475	16.785	0	0	0	1	0	0	17.761	2.1499	16.789	0	0	0	0	0	0	0	0	0	0	0	0	1	-1	0	7.5503	-27.469	31.921	0	0	0	0	0	0	0	0	0	2
9946	99.46	0	0	0	0	0	0	0	0	0	0	0	0	0	0	0	0	0	0	0	0	0	1	0	0	17.755	2.1475	16.785	0	0	0	1	0	0	17.761	2.1499	16.789	0	0	0	0	0	0	0	0	0	0	0	0	0	0	0	0	0	0	0	0	0	1	0	0	17.47	2.0148	16.554	2
9947	99.47	0	0	0	0	0	0	0	0	0	0	0	0	0	0	0	0	0	0	0	0	0	1	0	0	17.755	2.1475	16.785	0	0	0	1	0	0	17.761	2.1499	16.789	0	0	0	0	0	0	0	0	0	0	0	0	0	0	0	0	0	0	0	0	0	0	0	0	0	0	0	2
9948	99.48	0	0	0	0	0	0	0	0	0	0	0	0	0	0	0	0	0	0	0	0	0	1	0	0	17.755	2.1475	16.785	0	0	0	1	0	0	17.761	2.1499	16.789	0	0	0	1	0	0	17.883	2.027	16.961	0	0	0	0	0	0	0	0	0	0	0	0	1	0	0	17.47	2.0148	16.554	2
9949	99.49	0	0	0	0	0	0	10.917	-10.917	18.908	0	0	0	0	0	0	0	0	0	0	0	0	1	0	0	17.755	2.1475	16.785	0	0	0	1	0	0	17.761	2.1499	16.789	0	0	0	0	0	0	0	0	0	0	0	0	0	-1	0	-2.0278	-17.891	16.968	0	0	0	0	0	0	0	0	0	2
9950	99.5	0	0	0	0	0	0	0	0	0	0	0	0	0	0	0	0	0	0	0	0	0	1	0	0	17.755	2.1475	16.785	0	0	0	1	0	0	17.761	2.1499	16.789	0	0	0	0	0	0	0	0	0	0	0	0	0	0	0	0	0	0	0	0	0	1	0	0	17.47	2.0148	16.554	2
9951	99.51	0	0	0	0	0	0	10.917	-10.917	18.908	0	0	0	0	0	0	0	0	0	0	0	0	1	0	0	17.755	2.1475	16.785	0	0	0	1	0	0	17.761	2.1499	16.789	0	0	0	0	0	0	0	0	0	0	0	0	0	0	0	0	0	0	0	0	0	1	0	0	17.47	2.0148	16.554	2
9952	99.52	0	0	0	0	0	0	10.917	-10.917	18.908	0	0	0	0	0	0	0	0	0	0	0	0	0	0	0	10.989	-10.989	19.033	0	0	0	1	0	0	17.761	2.1499	16.789	0	0	0	0	0	0	0	0	0	0	0	0	0	-1	0	-2.0278	-17.891	16.968	0	0	0	0	0	0	0	0	0	2
9953	99.53	0	0	0	0	0	0	0	0	0	0	0	0	0	0	0	0	0	0	0	0	0	1	0	0	17.755	2.1475	16.785	0	0	0	1	0	0	17.761	2.1499	16.789	0	0	0	0	0	0	0	0	0	0	0	0	0	0	0	0	0	0	0	0	0	1	0	0	17.47	2.0148	16.554	0
9954	99.54	0	0	0	0	0	0	10.917	-10.917	18.908	0	0	0	0	0	0	0	0	0	0	0	0	1	0	0	17.755	2.1475	16.785	0	0	0	1	0	0	17.761	2.1499	16.789	0	0	0	0	0	0	0	0	0	0	0	0	1	-1	0	7.5503	-27.469	31.921	0	0	0	0	0	0	0	0	0	2
9955	99.55	0	0	0	0	0	0	0	0	0	0	0	0	0	0	0	0	0	0	0	0	0	1	0	0	17.755	2.1475	16.785	0	0	0	1	0	0	17.761	2.1499	16.789	0	0	0	0	0	0	0	0	0	0	0	0	1	-1	0	7.5503	-27.469	31.921	0	0	0	1	0	0	17.47	2.0148	16.554	2
9956	99.56	0	0	0	0	0	0	10.917	-10.917	18.908	0	0	0	0	0	0	0	0	0	0	0	0	1	0	0	17.755	2.1475	16.785	0	0	0	1	0	0	17.761	2.1499	16.789	0	0	0	0	0	0	0	0	0	0	0	0	0	-1	0	-2.0278	-17.891	16.968	0	0	0	1	0	0	17.47	2.0148	16.554	2
9957	99.57	0	0	0	0	0	0	0	0	0	0	0	0	0	0	0	0	0	0	0	0	0	1	0	0	17.755	2.1475	16.785	0	0	0	1	0	0	17.761	2.1499	16.789	0	0	0	0	0	0	0	0	0	0	0	0	0	-1	0	-2.0278	-17.891	16.968	0	0	0	1	0	0	17.47	2.0148	16.554	2
9958	99.58	0	0	0	0	0	0	0	0	0	0	0	0	0	0	0	0	0	0	0	0	0	1	0	0	17.755	2.1475	16.785	0	0	0	1	0	0	17.761	2.1499	16.789	0	0	0	0	0	0	0	0	0	0	0	0	1	-1	0	7.5503	-27.469	31.921	0	0	0	1	0	0	17.47	2.0148	16.554	2
9959	99.59	0	0	0	0	0	0	0	0	0	0	0	0	0	0	0	0	0	0	0	0	0	1	0	0	17.755	2.1475	16.785	0	0	0	1	0	0	17.761	2.1499	16.789	0	0	0	0	0	0	0	0	0	0	0	0	0	-1	0	-2.0278	-17.891	16.968	0	0	0	0	0	0	0	0	0	2
9960	99.6	0	0	0	0	0	0	10.917	-10.917	18.908	0	0	0	0	0	0	0	0	0	0	0	0	1	0	0	17.755	2.1475	16.785	0	0	0	1	0	0	17.761	2.1499	16.789	0	0	0	1	0	0	17.883	2.027	16.961	0	0	0	0	0	0	10.994	-10.994	19.042	0	0	0	0	0	0	0	0	0	2
9961	99.61	0	0	0	0	0	0	10.917	-10.917	18.908	0	0	0	0	0	0	0	0	0	0	0	0	1	0	0	17.755	2.1475	16.785	0	0	0	1	0	0	17.761	2.1499	16.789	0	0	0	0	0	0	0	0	0	0	0	0	0	0	0	0	0	0	0	0	0	1	0	0	17.47	2.0148	16.554	0
9962	99.62	0	0	0	0	0	0	0	0	0	0	0	0	0	0	0	0	0	0	0	0	0	1	0	0	17.755	2.1475	16.785	0	0	0	1	0	0	17.761	2.1499	16.789	0	0	0	0	0	0	0	0	0	0	0	0	1	-1	0	7.5503	-27.469	31.921	0	0	0	0	0	0	0	0	0	2
9963	99.63	0	0	0	0	0	0	0	0	0	0	0	0	0	0	0	0	0	0	0	0	0	1	0	0	17.755	2.1475	16.785	0	0	0	1	0	0	17.761	2.1499	16.789	0	0	0	0	0	0	0	0	0	0	0	0	0	0	0	10.994	-10.994	19.042	0	0	0	1	0	0	17.47	2.0148	16.554	2
9964	99.64	0	0	0	0	0	0	0	0	0	0	0	0	0	0	0	0	0	0	0	0	0	1	0	0	17.755	2.1475	16.785	0	0	0	1	0	0	17.761	2.1499	16.789	0	0	0	0	0	0	0	0	0	0	0	0	1	-1	0	7.5503	-27.469	31.921	0	0	0	0	0	0	0	0	0	2
9965	99.65	0	0	0	0	0	0	10.917	-10.917	18.908	0	0	0	0	0	0	0	0	0	0	0	0	1	0	0	17.755	2.1475	16.785	0	0	0	1	0	0	17.761	2.1499	16.789	0	0	0	0	0	0	0	0	0	0	0	0	0	0	0	10.994	-10.994	19.042	0	0	0	1	0	0	17.47	2.0148	16.554	2
9966	99.66	0	0	0	0	0	0	10.917	-10.917	18.908	0	0	0	0	0	0	0	0	0	0	0	0	1	0	0	17.755	2.1475	16.785	0	0	0	1	0	0	17.761	2.1499	16.789	0	0	0	0	0	0	0	0	0	0	0	0	0	-1	0	-2.0278	-17.891	16.968	0	0	0	0	0	0	0	0	0	2
9967	99.67	0	0	0	0	0	0	10.917	-10.917	18.908	0	0	0	0	0	0	0	0	0	0	0	0	1	0	0	17.755	2.1475	16.785	0	0	0	1	0	0	17.761	2.1499	16.789	0	0	0	0	0	0	0	0	0	0	0	0	1	-1	0	7.5503	-27.469	31.921	0	0	0	0	0	0	0	0	0	2
9968	99.68	0	0	0	0	0	0	10.917	-10.917	18.908	0	0	0	0	0	0	0	0	0	0	0	0	1	0	0	17.755	2.1475	16.785	0	0	0	1	0	0	17.761	2.1499	16.789	0	0	0	0	0	0	0	0	0	0	0	0	0	-1	0	-2.0278	-17.891	16.968	0	0	0	1	0	0	17.47	2.0148	16.554	2
9969	99.69	0	0	0	0	0	0	0	0	0	0	0	0	0	0	0	0	0	0	0	0	0	1	0	0	17.755	2.1475	16.785	0	0	0	1	0	0	17.761	2.1499	16.789	0	0	0	0	0	0	0	0	0	0	0	0	0	0	0	0	0	0	0	0	0	0	0	0	0	0	0	2
9970	99.7	0	0	0	0	0	0	0	0	0	0	0	0	0	0	0	0	0	0	0	0	0	1	0	0	17.755	2.1475	16.785	0	0	0	1	0	0	17.761	2.1499	16.789	0	0	0	0	0	0	0	0	0	0	0	0	0	0	0	10.994	-10.994	19.042	0	0	0	1	0	0	17.47	2.0148	16.554	2
9971	99.71	0	0	0	0	0	0	10.917	-10.917	18.908	0	0	0	0	0	0	0	0	0	0	0	0	1	0	0	17.755	2.1475	16.785	0	0	0	1	0	0	17.761	2.1499	16.789	0	0	0	0	0	0	0	0	0	0	0	0	0	-1	0	-2.0278	-17.891	16.968	0	0	0	0	0	0	0	0	0	2
9972	99.72	0	0	0	0	0	0	0	0	0	0	0	0	0	0	0	0	0	0	0	0	0	1	0	0	17.755	2.1475	16.785	0	0	0	1	0	0	17.761	2.1499	16.789	0	0	0	0	0	0	0	0	0	0	0	0	0	0	0	10.994	-10.994	19.042	0	0	0	0	0	0	0	0	0	2
9973	99.73	0	0	0	0	0	0	0	0	0	0	0	0	0	0	0	0	0	0	0	0	0	1	0	0	17.755	2.1475	16.785	0	0	0	1	0	0	17.761	2.1499	16.789	0	0	0	1	0	0	17.883	2.027	16.961	0	0	0	1	-1	0	7.5503	-27.469	31.921	0	0	0	1	0	0	17.47	2.0148	16.554	2
9974	99.74	0	0	0	0	0	0	10.917	-10.917	18.908	0	0	0	0	0	0	0	0	0	0	0	0	1	0	0	17.755	2.1475	16.785	0	0	0	1	0	0	17.761	2.1499	16.789	0	0	0	0	0	0	0	0	0	0	0	0	0	0	0	0	0	0	0	0	0	0	0	0	0	0	0	2
9975	99.75	0	0	0	0	0	0	0	0	0	0	0	0	0	0	0	0	0	0	0	0	0	1	0	0	17.755	2.1475	16.785	0	0	0	1	0	0	17.761	2.1499	16.789	0	0	0	1	0	0	17.883	2.027	16.961	0	0	0	0	0	0	0	0	0	0	0	0	1	0	0	17.47	2.0148	16.554	2
9976	99.76	0	0	0	0	0	0	0	0	0	0	0	0	0	0	0	0	0	0	0	0	0	1	0	0	17.755	2.1475	16.785	0	0	0	1	0	0	17.761	2.1499	16.789	0	0	0	0	0	0	0	0	0	0	0	0	0	-1	0	-2.0278	-17.891	16.968	0	0	0	1	0	0	17.47	2.0148	16.554	2
9977	99.77	0	0	0	0	0	0	0	0	0	0	0	0	0	0	0	0	0	0	0	0	0	1	0	0	17.755	2.1475	16.785	0	0	0	1	0	0	17.761	2.1499	16.789	0	0	0	0	0	0	0	0	0	0	0	0	0	0	0	10.994	-10.994	19.042	0	0	0	0	0	0	0	0	0	2
9978	99.78	0	0	0	0	0	0	0	0	0	0	0	0	0	0	0	0	0	0	0	0	0	1	0	0	17.755	2.1475	16.785	0	0	0	1	0	0	17.761	2.1499	16.789	0	0	0	0	0	0	0	0	0	0	0	0	0	0	0	0	0	0	0	0	0	1	0	0	17.47	2.0148	16.554	2
9979	99.79	0	0	0	0	0	0	10.917	-10.917	18.908	0	0	0	0	0	0	0	0	0	0	0	0	1	0	0	17.755	2.1475	16.785	0	0	0	1	0	0	17.761	2.1499	16.789	0	0	0	0	0	0	0	0	0	0	0	0	0	0	0	10.994	-10.994	19.042	0	0	0	1	0	0	17.47	2.0148	16.554	2
9980	99.8	0	0	0	0	0	0	10.917	-10.917	18.908	0	0	0	0	0	0	0	0	0	0	0	0	1	0	0	17.755	2.1475	16.785	0	0	0	1	0	0	17.761	2.1499	16.789	0	0	0	1	0	0	17.883	2.027	16.961	0	0	0	1	-1	0	7.5503	-27.469	31.921	0	0	0	0	0	0	0	0	0	2
9981	99.81	0	0	0	0	0	0	0	0	0	0	0	0	0	0	0	0	0	0	0	0	0	1	0	0	17.755	2.1475	16.785	0	0	0	1	0	0	17.761	2.1499	16.789	0	0	0	0	0	0	0	0	0	0	0	0	0	0	0	0	0	0	0	0	0	0	0	0	0	0	0	2
9982	99.82	0	0	0	0	0	0	10.917	-10.917	18.908	0	0	0	0	0	0	0	0	0	0	0	0	1	0	0	17.755	2.1475	16.785	0	0	0	1	0	0	17.761	2.1499	16.789	0	0	0	0	0	0	0	0	0	0	0	0	1	-1	0	7.5503	-27.469	31.921	0	0	0	0	0	0	0	0	0	2
9983	99.83	0	0	0	0	0	0	10.917	-10.917	18.908	0	0	0	0	0	0	0	0	0	0	0	0	0	0	0	20.079	19.73	19.907	0	0	0	1	0	0	17.761	2.1499	16.789	0	0	0	0	0	0	0	0	0	0	0	0	0	0	0	10.994	-10.994	19.042	0	0	0	1	0	0	17.47	2.0148	16.554	2
9984	99.84	0	0	0	0	0	0	10.917	-10.917	18.908	0	0	0	0	0	0	0	0	0	0	0	0	1	0	0	17.755	2.1475	16.785	0	0	0	1	0	0	17.761	2.1499	16.789	0	0	0	0	0	0	0	0	0	0	0	0	0	0	0	10.994	-10.994	19.042	0	0	0	0	0	0	0	0	0	2
9985	99.85	0	0	0	0	0	0	10.917	-10.917	18.908	0	0	0	0	0	0	0	0	0	0	0	0	1	0	0	17.755	2.1475	16.785	0	0	0	1	0	0	17.761	2.1499	16.789	0	0	0	0	0	0	0	0	0	0	0	0	0	0	0	10.994	-10.994	19.042	0	0	0	0	0	0	0	0	0	2
9986	99.86	0	0	0	0	0	0	0	0	0	0	0	0	0	0	0	0	0	0	0	0	0	1	0	0	17.755	2.1475	16.785	0	0	0	1	0	0	17.761	2.1499	16.789	0	0	0	0	0	0	0	0	0	0	0	0	0	0	0	0	0	0	0	0	0	1	0	0	17.47	2.0148	16.554	2
9987	99.87	0	0	0	0	0	0	0	0	0	0	0	0	0	0	0	0	0	0	0	0	0	1	0	0	17.755	2.1475	16.785	0	0	0	1	0	0	17.761	2.1499	16.789	0	0	0	0	0	0	0	0	0	0	0	0	0	0	0	0	0	0	0	0	0	0	0	0	0	0	0	2
9988	99.88	0	0	0	0	0	0	0	0	0	0	0	0	0	0	0	0	0	0	0	0	0	1	0	0	17.755	2.1475	16.785	0	0	0	1	0	0	17.761	2.1499	16.789	0	0	0	1	0	0	17.883	2.027	16.961	0	0	0	0	0	0	10.994	-10.994	19.042	0	0	0	0	0	0	0	0	0	2
9989	99.89	0	0	0	0	0	0	0	0	0	0	0	0	0	0	0	0	0	0	0	0	0	1	0	0	17.755	2.1475	16.785	0	0	0	1	0	0	17.761	2.1499	16.789	0	0	0	0	0	0	0	0	0	0	0	0	0	0	0	0	0	0	0	0	0	0	0	0	0	0	0	2
9990	99.9	0	0	0	0	0	0	0	0	0	0	0	0	0	0	0	0	0	0	0	0	0	1	0	0	17.755	2.1475	16.785	0	0	0	1	0	0	17.761	2.1499	16.789	0	0	0	0	0	0	0	0	0	0	0	0	1	-1	0	7.5503	-27.469	31.921	0	0	0	0	0	0	0	0	0	0
9991	99.91	0	0	0	0	0	0	10.917	-10.917	18.908	0	0	0	0	0	0	0	0	0	0	0	0	1	0	0	17.755	2.1475	16.785	0	0	0	1	0	0	17.761	2.1499	16.789	0	0	0	0	0	0	0	0	0	0	0	0	0	0	0	10.994	-10.994	19.042	0	0	0	1	0	0	17.47	2.0148	16.554	2
9992	99.92	0	0	0	0	0	0	10.917	-10.917	18.908	0	0	0	0	0	0	0	0	0	0	0	0	0	0	0	10.989	-10.989	19.033	0	0	0	1	0	0	17.761	2.1499	16.789	0	0	0	0	0	0	0	0	0	0	0	0	0	0	0	0	0	0	0	0	0	0	0	0	0	0	0	0
9993	99.93	0	0	0	0	0	0	0	0	0	0	0	0	0	0	0	0	0	0	0	0	0	1	0	0	17.755	2.1475	16.785	0	0	0	1	0	0	17.761	2.1499	16.789	0	0	0	0	0	0	0	0	0	0	0	0	1	-1	0	7.5503	-27.469	31.921	0	0	0	1	0	0	17.47	2.0148	16.554	2
9994	99.94	0	0	0	0	0	0	10.917	-10.917	18.908	0	0	0	0	0	0	0	0	0	0	0	0	1	0	0	17.755	2.1475	16.785	0	0	0	1	0	0	17.761	2.1499	16.789	0	0	0	0	0	0	0	0	0	0	0	0	0	-1	0	-2.0278	-17.891	16.968	0	0	0	0	0	0	0	0	0	2
9995	99.95	0	0	0	0	0	0	0	0	0	0	0	0	0	0	0	0	0	0	0	0	0	1	0	0	17.755	2.1475	16.785	0	0	0	1	0	0	17.761	2.1499	16.789	0	0	0	0	0	0	0	0	0	0	0	0	0	0	0	0	0	0	0	0	0	0	0	0	0	0	0	2
9996	99.96	0	0	0	0	0	0	10.917	-10.917	18.908	0	0	0	0	0	0	0	0	0	0	0	0	1	0	0	17.755	2.1475	16.785	0	0	0	1	0	0	17.761	2.1499	16.789	0	0	0	0	0	0	0	0	0	0	0	0	0	0	0	0	0	0	0	0	0	1	0	0	17.47	2.0148	16.554	2
9997	99.97	0	0	0	0	0	0	10.917	-10.917	18.908	0	0	0	0	0	0	0	0	0	0	0	0	1	0	0	17.755	2.1475	16.785	0	0	0	1	0	0	17.761	2.1499	16.789	0	0	0	0	0	0	0	0	0	0	0	0	0	-1	0	-2.0278	-17.891	16.968	0	0	0	0	0	0	0	0	0	2
9998	99.98	0	0	0	0	0	0	0	0	0	0	0	0	0	0	0	0	0	0	0	0	0	1	0	0	17.755	2.1475	16.785	0	0	0	1	0	0	17.761	2.1499	16.789	0	0	0	0	0	0	0	0	0	0	0	0	0	0	0	10.994	-10.994	19.042	0	0	0	0	0	0	0	0	0	2
9999	99.99	0	0	0	0	0	0	10.917	-10.917	18.908	0	0	0	0	0	0	0	0	0	0	0	0	0	0	0	10.989	-10.989	19.033	0	0	0	1	0	0	17.761	2.1499	16.789	0	0	0	0	0	0	0	0	0	0	0	0	0	-1	0	-2.0278	-17.891	16.968	0	0	0	0	0	0	0	0	0	2
10000	100	0	0	0	0	0	0	0	0	0	0	0	0	0	0	0	0	0	0	0	0	0	1	0	0	17.755	2.1475	16.785	0	0	0	1	0	0	17.761	2.1499	16.789	0	0	0	0	0	0	0	0	0	0	0	0	1	-1	0	7.5503	-27.469	31.921	0	0	0	1	0	0	17.47	2.0148	16.554	2
10001	100.01	0	0	0	0	0	0	10.917	-10.917	18.908	0	0	0	0	0	0	0	0	0	0	0	0	1	0	0	17.755	2.1475	16.785	0	0	0	1	0	0	17.761	2.1499	16.789	0	0	0	0	0	0	0	0	0	0	0	0	0	0	0	0	0	0	0	0	0	1	0	0	17.47	2.0148	16.554	2
10002	100.02	0	0	0	0	0	0	0	0	0	0	0	0	0	0	0	0	0	0	0	0	0	1	0	0	17.755	2.1475	16.785	0	0	0	1	0	0	17.761	2.1499	16.789	0	0	0	0	0	0	0	0	0	0	0	0	0	-1	0	-2.0278	-17.891	16.968	0	0	0	0	0	0	0	0	0	2
10003	100.03	0	0	0	0	0	0	0	0	0	0	0	0	0	0	0	0	0	0	0	0	0	1	0	0	17.755	2.1475	16.785	0	0	0	1	0	0	17.761	2.1499	16.789	0	0	0	0	0	0	0	0	0	0	0	0	0	0	0	0	0	0	0	0	0	1	0	0	17.47	2.0148	16.554	2
10004	100.04	0	0	0	0	0	0	0	0	0	0	0	0	0	0	0	0	0	0	0	0	0	1	0	0	17.755	2.1475	16.785	0	0	0	1	0	0	17.761	2.1499	16.789	0	0	0	0	0	0	0	0	0	0	0	0	0	0	0	0	0	0	0	0	0	0	0	0	0	0	0	2
10005	100.05	0	0	0	0	0	0	10.917	-10.917	18.908	0	0	0	0	0	0	10.918	-10.918	18.911	0	0	0	1	0	0	17.755	2.1475	16.785	0	0	0	1	0	0	17.761	2.1499	16.789	0	0	0	0	0	0	0	0	0	0	0	0	1	-1	0	7.5503	-27.469	31.921	0	0	0	0	0	0	0	0	0	0
10006	100.06	0	0	0	0	0	0	0	0	0	0	0	0	0	0	0	0	0	0	0	0	0	1	0	0	17.755	2.1475	16.785	0	0	0	1	0	0	17.761	2.1499	16.789	0	0	0	0	0	0	0	0	0	0	0	0	0	0	0	0	0	0	0	0	0	0	0	0	0	0	0	2
10007	100.07	0	0	0	0	0	0	0	0	0	0	0	0	0	0	0	0	0	0	0	0	0	1	0	0	17.755	2.1475	16.785	0	0	0	1	0	0	17.761	2.1499	16.789	0	0	0	0	0	0	0	0	0	0	0	0	0	0	0	0	0	0	0	0	0	0	0	0	0	0	0	2
10008	100.08	0	0	0	0	0	0	10.917	-10.917	18.908	0	0	0	0	0	0	0	0	0	0	0	0	1	0	0	17.755	2.1475	16.785	0	0	0	1	0	0	17.761	2.1499	16.789	0	0	0	0	0	0	0	0	0	0	0	0	1	-1	0	7.5503	-27.469	31.921	0	0	0	1	0	0	17.47	2.0148	16.554	2
10009	100.09	0	0	0	0	0	0	10.917	-10.917	18.908	0	0	0	0	0	0	0	0	0	0	0	0	0	0	0	10.989	-10.989	19.033	0	0	0	1	0	0	17.761	2.1499	16.789	0	0	0	0	0	0	0	0	0	0	0	0	0	0	0	0	0	0	0	0	0	1	0	0	17.47	2.0148	16.554	2
10010	100.1	0	0	0	0	0	0	10.917	-10.917	18.908	0	0	0	0	0	0	0	0	0	0	0	0	1	0	0	17.755	2.1475	16.785	0	0	0	1	0	0	17.761	2.1499	16.789	0	0	0	0	0	0	0	0	0	0	0	0	0	-1	0	-2.0278	-17.891	16.968	0	0	0	0	0	0	0	0	0	2
10011	100.11	0	0	0	0	0	0	0	0	0	0	0	0	0	0	0	0	0	0	0	0	0	1	0	0	17.755	2.1475	16.785	0	0	0	1	0	0	17.761	2.1499	16.789	0	0	0	0	0	0	0	0	0	0	0	0	0	0	0	10.994	-10.994	19.042	0	0	0	1	0	0	17.47	2.0148	16.554	2
10012	100.12	0	0	0	0	0	0	10.917	-10.917	18.908	0	0	0	0	0	0	0	0	0	0	0	0	1	0	0	17.755	2.1475	16.785	0	0	0	1	0	0	17.761	2.1499	16.789	0	0	0	0	0	0	0	0	0	0	0	0	0	-1	0	-2.0278	-17.891	16.968	0	0	0	1	0	0	17.47	2.0148	16.554	2
10013	100.13	0	0	0	0	0	0	0	0	0	0	0	0	0	0	0	0	0	0	0	0	0	1	0	0	17.755	2.1475	16.785	0	0	0	1	0	0	17.761	2.1499	16.789	0	0	0	0	0	0	0	0	0	0	0	0	0	-1	0	-2.0278	-17.891	16.968	0	0	0	1	0	0	17.47	2.0148	16.554	2
10014	100.14	0	0	0	0	0	0	0	0	0	0	0	0	0	0	0	0	0	0	0	0	0	1	0	0	17.755	2.1475	16.785	0	0	0	1	0	0	17.761	2.1499	16.789	0	0	0	0	0	0	0	0	0	0	0	0	1	-1	0	7.5503	-27.469	31.921	0	0	0	1	0	0	17.47	2.0148	16.554	2
10015	100.15	0	0	0	0	0	0	0	0	0	0	0	0	0	0	0	0	0	0	0	0	0	1	0	0	17.755	2.1475	16.785	0	0	0	1	0	0	17.761	2.1499	16.789	0	0	0	0	0	0	0	0	0	0	0	0	0	0	0	10.994	-10.994	19.042	0	0	0	1	0	0	17.47	2.0148	16.554	2
10016	100.16	0	0	0	0	0	0	0	0	0	0	0	0	0	0	0	0	0	0	0	0	0	1	0	0	17.755	2.1475	16.785	0	0	0	1	0	0	17.761	2.1499	16.789	0	0	0	0	0	0	0	0	0	0	0	0	0	-1	0	-2.0278	-17.891	16.968	0	0	0	1	0	0	17.47	2.0148	16.554	2
10017	100.17	0	0	0	0	0	0	10.917	-10.917	18.908	0	0	0	0	0	0	0	0	0	0	0	0	1	0	0	17.755	2.1475	16.785	0	0	0	1	0	0	17.761	2.1499	16.789	0	0	0	0	0	0	0	0	0	0	0	0	0	-1	0	-2.0278	-17.891	16.968	0	0	0	0	0	0	0	0	0	0
10018	100.18	0	0	0	0	0	0	0	0	0	0	0	0	0	0	0	0	0	0	0	0	0	1	0	0	17.755	2.1475	16.785	0	0	0	1	0	0	17.761	2.1499	16.789	0	0	0	0	0	0	0	0	0	0	0	0	0	0	0	10.994	-10.994	19.042	0	0	0	1	0	0	17.47	2.0148	16.554	2
10019	100.19	0	0	0	0	0	0	0	0	0	0	0	0	0	0	0	0	0	0	0	0	0	1	0	0	17.755	2.1475	16.785	0	0	0	1	0	0	17.761	2.1499	16.789	0	0	0	0	0	0	0	0	0	0	0	0	0	0	0	0	0	0	0	0	0	0	0	0	0	0	0	2
10020	100.2	0	0	0	0	0	0	10.917	-10.917	18.908	0	0	0	0	0	0	0	0	0	0	0	0	1	0	0	17.755	2.1475	16.785	0	0	0	1	0	0	17.761	2.1499	16.789	0	0	0	0	0	0	0	0	0	0	0	0	0	0	0	10.994	-10.994	19.042	0	0	0	1	0	0	17.47	2.0148	16.554	2
10021	100.21	0	0	0	0	0	0	0	0	0	0	0	0	0	0	0	0	0	0	0	0	0	1	0	0	17.755	2.1475	16.785	0	0	0	1	0	0	17.761	2.1499	16.789	0	0	0	0	0	0	0	0	0	0	0	0	0	-1	0	-2.0278	-17.891	16.968	0	0	0	0	0	0	0	0	0	2
10022	100.22	0	0	0	0	0	0	10.917	-10.917	18.908	0	0	0	0	0	0	0	0	0	0	0	0	1	0	0	17.755	2.1475	16.785	0	0	0	1	0	0	17.761	2.1499	16.789	0	0	0	0	0	0	0	0	0	0	0	0	0	0	0	10.994	-10.994	19.042	0	0	0	1	0	0	17.47	2.0148	16.554	2
10023	100.23	0	0	0	0	0	0	0	0	0	0	0	0	0	0	0	0	0	0	0	0	0	1	0	0	17.755	2.1475	16.785	0	0	0	1	0	0	17.761	2.1499	16.789	0	0	0	0	0	0	0	0	0	0	0	0	0	0	0	0	0	0	0	0	0	1	0	0	17.47	2.0148	16.554	2
10024	100.24	0	0	0	0	0	0	0	0	0	0	0	0	0	0	0	0	0	0	0	0	0	0	0	0	10.989	-10.989	19.033	0	0	0	1	0	0	17.761	2.1499	16.789	0	0	0	0	0	0	0	0	0	0	0	0	0	0	0	10.994	-10.994	19.042	0	0	0	0	0	0	0	0	0	2
10025	100.25	0	0	0	0	0	0	0	0	0	0	0	0	0	0	0	0	0	0	0	0	0	1	0	0	17.755	2.1475	16.785	0	0	0	1	0	0	17.761	2.1499	16.789	0	0	0	0	0	0	0	0	0	0	0	0	0	0	0	10.994	-10.994	19.042	0	0	0	1	0	0	17.47	2.0148	16.554	0
10026	100.26	0	0	0	0	0	0	10.917	-10.917	18.908	0	0	0	0	0	0	0	0	0	0	0	0	1	0	0	17.755	2.1475	16.785	0	0	0	1	0	0	17.761	2.1499	16.789	0	0	0	0	0	0	0	0	0	0	0	0	0	0	0	10.994	-10.994	19.042	0	0	0	1	0	0	17.47	2.0148	16.554	2
10027	100.27	0	0	0	0	0	0	10.917	-10.917	18.908	0	0	0	0	0	0	0	0	0	0	0	0	0	0	0	10.989	-10.989	19.033	0	0	0	1	0	0	17.761	2.1499	16.789	0	0	0	0	0	0	0	0	0	0	0	0	0	0	0	0	0	0	0	0	0	0	0	0	0	0	0	2
10028	100.28	0	0	0	0	0	0	0	0	0	0	0	0	0	0	0	0	0	0	0	0	0	1	0	0	17.755	2.1475	16.785	0	0	0	1	0	0	17.761	2.1499	16.789	0	0	0	0	0	0	0	0	0	0	0	0	0	0	0	10.994	-10.994	19.042	0	0	0	0	0	0	0	0	0	2
10029	100.29	0	0	0	0	0	0	0	0	0	0	0	0	0	0	0	0	0	0	0	0	0	0	0	0	10.989	-10.989	19.033	0	0	0	1	0	0	17.761	2.1499	16.789	0	0	0	0	0	0	0	0	0	0	0	0	1	-1	0	7.5503	-27.469	31.921	0	0	0	1	0	0	17.47	2.0148	16.554	2
10030	100.3	0	0	0	0	0	0	10.917	-10.917	18.908	0	0	0	0	0	0	0	0	0	0	0	0	1	0	0	17.755	2.1475	16.785	0	0	0	1	0	0	17.761	2.1499	16.789	0	0	0	0	0	0	0	0	0	0	0	0	0	0	0	10.994	-10.994	19.042	0	0	0	0	0	0	0	0	0	2
10031	100.31	0	0	0	0	0	0	0	0	0	0	0	0	0	0	0	0	0	0	0	0	0	1	0	0	17.755	2.1475	16.785	0	0	0	1	0	0	17.761	2.1499	16.789	0	0	0	0	0	0	0	0	0	0	0	0	1	-1	0	7.5503	-27.469	31.921	0	0	0	1	0	0	17.47	2.0148	16.554	2
10032	100.32	0	0	0	0	0	0	0	0	0	0	0	0	0	0	0	0	0	0	0	0	0	1	0	0	17.755	2.1475	16.785	0	0	0	1	0	0	17.761	2.1499	16.789	0	0	0	0	0	0	0	0	0	0	0	0	0	0	0	0	0	0	0	0	0	1	0	0	17.47	2.0148	16.554	2
10033	100.33	0	0	0	0	0	0	0	0	0	0	0	0	0	0	0	0	0	0	0	0	0	1	0	0	17.755	2.1475	16.785	0	0	0	1	0	0	17.761	2.1499	16.789	0	0	0	0	0	0	0	0	0	0	0	0	0	0	0	10.994	-10.994	19.042	0	0	0	1	0	0	17.47	2.0148	16.554	2
10034	100.34	0	0	0	0	0	0	0	0	0	0	0	0	0	0	0	0	0	0	0	0	0	1	0	0	17.755	2.1475	16.785	0	0	0	1	0	0	17.761	2.1499	16.789	0	0	0	0	0	0	0	0	0	0	0	0	0	-1	0	-2.0278	-17.891	16.968	0	0	0	1	0	0	17.47	2.0148	16.554	2
10035	100.35	0	0	0	0	0	0	10.917	-10.917	18.908	0	0	0	0	0	0	0	0	0	0	0	0	1	0	0	17.755	2.1475	16.785	0	0	0	1	0	0	17.761	2.1499	16.789	0	0	0	0	0	0	0	0	0	0	0	0	1	-1	0	7.5503	-27.469	31.921	0	0	0	1	0	0	17.47	2.0148	16.554	2
10036	100.36	0	0	0	0	0	0	10.917	-10.917	18.908	0	0	0	0	0	0	0	0	0	0	0	0	1	0	0	17.755	2.1475	16.785	0	0	0	1	0	0	17.761	2.1499	16.789	0	0	0	0	0	0	0	0	0	0	0	0	0	-1	0	-2.0278	-17.891	16.968	0	0	0	1	0	0	17.47	2.0148	16.554	2
10037	100.37	0	0	0	0	0	0	0	0	0	0	0	0	0	0	0	0	0	0	0	0	0	0	0	0	10.989	-10.989	19.033	0	0	0	1	0	0	17.761	2.1499	16.789	0	0	0	0	0	0	0	0	0	0	0	0	0	0	0	0	0	0	0	0	0	1	0	0	17.47	2.0148	16.554	2
10038	100.38	0	0	0	0	0	0	10.917	-10.917	18.908	0	0	0	0	0	0	0	0	0	0	0	0	1	0	0	17.755	2.1475	16.785	0	0	0	1	0	0	17.761	2.1499	16.789	0	0	0	0	0	0	0	0	0	0	0	0	0	0	0	10.994	-10.994	19.042	0	0	0	1	0	0	17.47	2.0148	16.554	2
10039	100.39	0	0	0	0	0	0	0	0	0	0	0	0	0	0	0	0	0	0	0	0	0	1	0	0	17.755	2.1475	16.785	0	0	0	1	0	0	17.761	2.1499	16.789	0	0	0	0	0	0	0	0	0	0	0	0	0	0	0	0	0	0	0	0	0	0	0	0	0	0	0	2
10040	100.4	0	0	0	0	0	0	10.917	-10.917	18.908	0	0	0	0	0	0	0	0	0	0	0	0	1	0	0	17.755	2.1475	16.785	0	0	0	1	0	0	17.761	2.1499	16.789	0	0	0	0	0	0	0	0	0	0	0	0	1	-1	0	7.5503	-27.469	31.921	0	0	0	1	0	0	17.47	2.0148	16.554	2
10041	100.41	0	0	0	0	0	0	0	0	0	0	0	0	0	0	0	0	0	0	0	0	0	1	0	0	17.755	2.1475	16.785	0	0	0	1	0	0	17.761	2.1499	16.789	0	0	0	0	0	0	0	0	0	0	0	0	0	0	0	10.994	-10.994	19.042	0	0	0	1	0	0	17.47	2.0148	16.554	2
10042	100.42	0	0	0	0	0	0	0	0	0	0	0	0	0	0	0	0	0	0	0	0	0	1	0	0	17.755	2.1475	16.785	0	0	0	1	0	0	17.761	2.1499	16.789	0	0	0	0	0	0	0	0	0	0	0	0	0	0	0	0	0	0	0	0	0	0	0	0	0	0	0	2
10043	100.43	0	0	0	0	0	0	10.917	-10.917	18.908	0	0	0	0	0	0	0	0	0	0	0	0	1	0	0	17.755	2.1475	16.785	0	0	0	1	0	0	17.761	2.1499	16.789	0	0	0	0	0	0	0	0	0	0	0	0	0	0	0	0	0	0	0	0	0	1	0	0	17.47	2.0148	16.554	2
10044	100.44	0	0	0	0	0	0	0	0	0	0	0	0	0	0	0	0	0	0	0	0	0	0	0	0	10.989	-10.989	19.033	0	0	0	1	0	0	17.761	2.1499	16.789	0	0	0	0	0	0	0	0	0	0	0	0	0	-1	0	-2.0278	-17.891	16.968	0	0	0	0	0	0	0	0	0	2
10045	100.45	0	0	0	0	0	0	10.917	-10.917	18.908	0	0	0	0	0	0	0	0	0	0	0	0	1	0	0	17.755	2.1475	16.785	0	0	0	1	0	0	17.761	2.1499	16.789	0	0	0	0	0	0	0	0	0	0	0	0	0	0	0	0	0	0	0	0	0	0	0	0	0	0	0	0
10046	100.46	0	0	0	0	0	0	10.917	-10.917	18.908	0	0	0	0	0	0	0	0	0	0	0	0	1	0	0	17.755	2.1475	16.785	0	0	0	1	0	0	17.761	2.1499	16.789	0	0	0	0	0	0	0	0	0	0	0	0	0	0	0	0	0	0	0	0	0	1	0	0	17.47	2.0148	16.554	2
10047	100.47	0	0	0	0	0	0	0	0	0	0	0	0	0	0	0	0	0	0	0	0	0	1	0	0	17.755	2.1475	16.785	0	0	0	1	0	0	17.761	2.1499	16.789	0	0	0	0	0	0	0	0	0	0	0	0	0	-1	0	-2.0278	-17.891	16.968	0	0	0	1	0	0	17.47	2.0148	16.554	2
10048	100.48	0	0	0	0	0	0	10.917	-10.917	18.908	0	0	0	0	0	0	10.918	-10.918	18.911	0	0	0	1	0	0	17.755	2.1475	16.785	0	0	0	1	0	0	17.761	2.1499	16.789	0	0	0	0	0	0	0	0	0	0	0	0	0	-1	0	-2.0278	-17.891	16.968	0	0	0	1	0	0	17.47	2.0148	16.554	2
10049	100.49	0	0	0	0	0	0	0	0	0	0	0	0	0	0	0	0	0	0	0	0	0	1	0	0	17.755	2.1475	16.785	0	0	0	1	0	0	17.761	2.1499	16.789	0	0	0	0	0	0	0	0	0	0	0	0	0	-1	0	-2.0278	-17.891	16.968	0	0	0	0	0	0	0	0	0	2
10050	100.5	0	0	0	0	0	0	0	0	0	0	0	0	0	0	0	0	0	0	0	0	0	1	0	0	17.755	2.1475	16.785	0	0	0	1	0	0	17.761	2.1499	16.789	0	0	0	0	0	0	0	0	0	0	0	0	0	0	0	10.994	-10.994	19.042	0	0	0	1	0	0	17.47	2.0148	16.554	2
10051	100.51	0	0	0	0	0	0	0	0	0	0	0	0	0	0	0	0	0	0	0	0	0	1	0	0	17.755	2.1475	16.785	0	0	0	1	0	0	17.761	2.1499	16.789	0	0	0	0	0	0	0	0	0	0	0	0	0	0	0	0	0	0	0	0	0	1	0	0	17.47	2.0148	16.554	2
10052	100.52	0	0	0	0	0	0	10.917	-10.917	18.908	0	0	0	0	0	0	0	0	0	0	0	0	1	0	0	17.755	2.1475	16.785	0	0	0	1	0	0	17.761	2.1499	16.789	0	0	0	0	0	0	0	0	0	0	0	0	1	-1	0	7.5503	-27.469	31.921	0	0	0	1	0	0	17.47	2.0148	16.554	2
10053	100.53	0	0	0	0	0	0	0	0	0	0	0	0	0	0	0	0	0	0	0	0	0	1	0	0	17.755	2.1475	16.785	0	0	0	1	0	0	17.761	2.1499	16.789	0	0	0	0	0	0	0	0	0	0	0	0	0	0	0	0	0	0	0	0	0	1	0	0	17.47	2.0148	16.554	2
10054	100.54	0	0	0	0	0	0	10.917	-10.917	18.908	0	0	0	0	0	0	0	0	0	0	0	0	1	0	0	17.755	2.1475	16.785	0	0	0	1	0	0	17.761	2.1499	16.789	0	0	0	0	0	0	0	0	0	0	0	0	0	0	0	0	0	0	0	0	0	0	0	0	0	0	0	2
10055	100.55	0	0	0	0	0	0	0	0	0	0	0	0	0	0	0	0	0	0	0	0	0	1	0	0	17.755	2.1475	16.785	0	0	0	1	0	0	17.761	2.1499	16.789	0	0	0	0	0	0	0	0	0	0	0	0	0	0	0	10.994	-10.994	19.042	0	0	0	0	0	0	0	0	0	2
10056	100.56	0	0	0	0	0	0	10.917	-10.917	18.908	0	0	0	0	0	0	0	0	0	0	0	0	1	0	0	17.755	2.1475	16.785	0	0	0	1	0	0	17.761	2.1499	16.789	0	0	0	0	0	0	0	0	0	0	0	0	0	0	0	0	0	0	0	0	0	0	0	0	0	0	0	2
10057	100.57	0	0	0	0	0	0	0	0	0	0	0	0	0	0	0	0	0	0	0	0	0	1	0	0	17.755	2.1475	16.785	0	0	0	1	0	0	17.761	2.1499	16.789	0	0	0	0	0	0	0	0	0	0	0	0	0	0	0	10.994	-10.994	19.042	0	0	0	1	0	0	17.47	2.0148	16.554	2
10058	100.58	0	0	0	0	0	0	10.917	-10.917	18.908	0	0	0	0	0	0	0	0	0	0	0	0	1	0	0	17.755	2.1475	16.785	0	0	0	1	0	0	17.761	2.1499	16.789	0	0	0	0	0	0	0	0	0	0	0	0	0	0	0	10.994	-10.994	19.042	0	0	0	1	0	0	17.47	2.0148	16.554	2
10059	100.59	0	0	0	0	0	0	0	0	0	0	0	0	0	0	0	0	0	0	0	0	0	1	0	0	17.755	2.1475	16.785	0	0	0	1	0	0	17.761	2.1499	16.789	0	0	0	0	0	0	0	0	0	0	0	0	0	0	0	0	0	0	0	0	0	1	0	0	17.47	2.0148	16.554	2
10060	100.6	0	0	0	0	0	0	10.917	-10.917	18.908	0	0	0	0	0	0	0	0	0	0	0	0	1	0	0	17.755	2.1475	16.785	0	0	0	1	0	0	17.761	2.1499	16.789	0	0	0	0	0	0	0	0	0	0	0	0	0	0	0	0	0	0	0	0	0	0	0	0	0	0	0	2
10061	100.61	0	0	0	0	0	0	0	0	0	0	0	0	0	0	0	0	0	0	0	0	0	1	0	0	17.755	2.1475	16.785	0	0	0	1	0	0	17.761	2.1499	16.789	0	0	0	0	0	0	0	0	0	0	0	0	1	-1	0	7.5503	-27.469	31.921	0	0	0	1	0	0	17.47	2.0148	16.554	2
10062	100.62	0	0	0	0	0	0	0	0	0	0	0	0	0	0	0	0	0	0	0	0	0	1	0	0	17.755	2.1475	16.785	0	0	0	1	0	0	17.761	2.1499	16.789	0	0	0	0	0	0	0	0	0	0	0	0	0	0	0	0	0	0	0	0	0	1	0	0	17.47	2.0148	16.554	2
10063	100.63	0	0	0	0	0	0	0	0	0	0	0	0	0	0	0	0	0	0	0	0	0	1	0	0	17.755	2.1475	16.785	0	0	0	0	0	0	20.082	19.733	19.91	0	0	0	0	0	0	0	0	0	0	0	0	0	0	0	10.994	-10.994	19.042	0	0	0	1	0	0	17.47	2.0148	16.554	2
10064	100.64	0	0	0	0	0	0	0	0	0	0	0	0	0	0	0	0	0	0	0	0	0	1	0	0	17.755	2.1475	16.785	0	0	0	1	0	0	17.761	2.1499	16.789	0	0	0	0	0	0	0	0	0	0	0	0	0	0	0	10.994	-10.994	19.042	0	0	0	1	0	0	17.47	2.0148	16.554	2
10065	100.65	0	0	0	0	0	0	10.917	-10.917	18.908	0	0	0	0	0	0	0	0	0	0	0	0	1	0	0	17.755	2.1475	16.785	0	0	0	1	0	0	17.761	2.1499	16.789	0	0	0	0	0	0	0	0	0	0	0	0	0	0	0	10.994	-10.994	19.042	0	0	0	0	0	0	0	0	0	2
10066	100.66	0	0	0	0	0	0	0	0	0	0	0	0	0	0	0	0	0	0	0	0	0	1	0	0	17.755	2.1475	16.785	0	0	0	1	0	0	17.761	2.1499	16.789	0	0	0	0	0	0	0	0	0	0	0	0	1	-1	0	7.5503	-27.469	31.921	0	0	0	1	0	0	17.47	2.0148	16.554	2
10067	100.67	0	0	0	0	0	0	10.917	-10.917	18.908	0	0	0	1	0	0	17.821	2.0372	16.895	0	0	0	1	0	0	17.755	2.1475	16.785	0	0	0	1	0	0	17.761	2.1499	16.789	0	0	0	0	0	0	0	0	0	0	0	0	0	0	0	10.994	-10.994	19.042	0	0	0	0	0	0	0	0	0	2
10068	100.68	0	0	0	0	0	0	0	0	0	0	0	0	0	0	0	0	0	0	0	0	0	1	0	0	17.755	2.1475	16.785	0	0	0	1	0	0	17.761	2.1499	16.789	0	0	0	0	0	0	0	0	0	0	0	0	0	0	0	0	0	0	0	0	0	0	0	0	0	0	0	2
10069	100.69	0	0	0	0	0	0	0	0	0	0	0	0	0	0	0	0	0	0	0	0	0	0	0	0	10.989	-10.989	19.033	0	0	0	1	0	0	17.761	2.1499	16.789	0	0	0	0	0	0	0	0	0	0	0	0	0	-1	0	-2.0278	-17.891	16.968	0	0	0	0	0	0	0	0	0	2
10070	100.7	0	0	0	0	0	0	0	0	0	0	0	0	0	0	0	0	0	0	0	0	0	1	0	0	17.755	2.1475	16.785	0	0	0	1	0	0	17.761	2.1499	16.789	0	0	0	0	0	0	0	0	0	0	0	0	0	0	0	10.994	-10.994	19.042	0	0	0	0	0	0	0	0	0	2
10071	100.71	0	0	0	0	0	0	0	0	0	0	0	0	0	0	0	0	0	0	0	0	0	1	0	0	17.755	2.1475	16.785	0	0	0	1	0	0	17.761	2.1499	16.789	0	0	0	0	0	0	0	0	0	0	0	0	0	0	0	0	0	0	0	0	0	1	0	0	17.47	2.0148	16.554	2
10072	100.72	0	0	0	0	0	0	0	0	0	0	0	0	0	0	0	0	0	0	0	0	0	0	0	0	10.989	-10.989	19.033	0	0	0	1	0	0	17.761	2.1499	16.789	0	0	0	0	0	0	0	0	0	0	0	0	0	0	0	10.994	-10.994	19.042	0	0	0	1	0	0	17.47	2.0148	16.554	2
10073	100.73	0	0	0	0	0	0	0	0	0	0	0	0	0	0	0	0	0	0	0	0	0	0	0	0	20.079	19.73	19.907	0	0	0	1	0	0	17.761	2.1499	16.789	0	0	0	1	0	0	17.883	2.027	16.961	0	0	0	0	0	0	0	0	0	0	0	0	1	0	0	17.47	2.0148	16.554	2
10074	100.74	0	0	0	0	0	0	10.917	-10.917	18.908	0	0	0	0	0	0	0	0	0	0	0	0	0	0	0	10.989	-10.989	19.033	0	0	0	1	0	0	17.761	2.1499	16.789	0	0	0	0	0	0	0	0	0	0	0	0	0	0	0	10.994	-10.994	19.042	0	0	0	1	0	0	17.47	2.0148	16.554	2
10075	100.75	0	0	0	0	0	0	0	0	0	0	0	0	0	0	0	0	0	0	0	0	0	1	0	0	17.755	2.1475	16.785	0	0	0	1	0	0	17.761	2.1499	16.789	0	0	0	0	0	0	0	0	0	0	0	0	0	0	0	0	0	0	0	0	0	1	0	0	17.47	2.0148	16.554	2
10076	100.76	0	0	0	0	0	0	0	0	0	0	0	0	0	0	0	0	0	0	0	0	0	1	0	0	17.755	2.1475	16.785	0	0	0	1	0	0	17.761	2.1499	16.789	0	0	0	0	0	0	0	0	0	0	0	0	0	0	0	0	0	0	0	0	0	1	0	0	17.47	2.0148	16.554	2
10077	100.77	0	0	0	0	0	0	10.917	-10.917	18.908	0	0	0	0	0	0	0	0	0	0	0	0	1	0	0	17.755	2.1475	16.785	0	0	0	1	0	0	17.761	2.1499	16.789	0	0	0	0	0	0	0	0	0	0	0	0	0	0	0	0	0	0	0	0	0	0	0	0	0	0	0	2
10078	100.78	0	0	0	0	0	0	0	0	0	0	0	0	0	0	0	0	0	0	0	0	0	1	0	0	17.755	2.1475	16.785	0	0	0	1	0	0	17.761	2.1499	16.789	0	0	0	1	0	0	17.883	2.027	16.961	0	0	0	0	0	0	0	0	0	0	0	0	1	0	0	17.47	2.0148	16.554	2
10079	100.79	0	0	0	0	0	0	0	0	0	0	0	0	0	0	0	0	0	0	0	0	0	1	0	0	17.755	2.1475	16.785	0	0	0	1	0	0	17.761	2.1499	16.789	0	0	0	0	0	0	0	0	0	0	0	0	0	-1	0	-2.0278	-17.891	16.968	0	0	0	0	0	0	0	0	0	2
10080	100.8	0	0	0	0	0	0	0	0	0	0	0	0	0	0	0	0	0	0	0	0	0	1	0	0	17.755	2.1475	16.785	0	0	0	1	0	0	17.761	2.1499	16.789	0	0	0	0	0	0	0	0	0	0	0	0	0	0	0	10.994	-10.994	19.042	0	0	0	1	0	0	17.47	2.0148	16.554	2
10081	100.81	0	0	0	0	0	0	0	0	0	0	0	0	0	0	0	0	0	0	0	0	0	1	0	0	17.755	2.1475	16.785	0	0	0	1	0	0	17.761	2.1499	16.789	0	0	0	0	0	0	0	0	0	0	0	0	0	0	0	0	0	0	0	0	0	1	0	0	17.47	2.0148	16.554	0
10082	100.82	0	0	0	0	0	0	10.917	-10.917	18.908	0	0	0	0	0	0	0	0	0	0	0	0	0	0	0	10.989	-10.989	19.033	0	0	0	1	0	0	17.761	2.1499	16.789	0	0	0	0	0	0	0	0	0	0	0	0	0	0	0	10.994	-10.994	19.042	0	0	0	0	0	0	0	0	0	2
10083	100.83	0	0	0	0	0	0	10.917	-10.917	18.908	0	0	0	0	0	0	0	0	0	0	0	0	1	0	0	17.755	2.1475	16.785	0	0	0	1	0	0	17.761	2.1499	16.789	0	0	0	0	0	0	0	0	0	0	0	0	0	0	0	0	0	0	0	0	0	0	0	0	0	0	0	2
10084	100.84	0	0	0	0	0	0	0	0	0	0	0	0	0	0	0	0	0	0	0	0	0	1	0	0	17.755	2.1475	16.785	0	0	0	1	0	0	17.761	2.1499	16.789	0	0	0	0	0	0	0	0	0	0	0	0	0	0	0	10.994	-10.994	19.042	0	0	0	1	0	0	17.47	2.0148	16.554	2
10085	100.85	0	0	0	0	0	0	0	0	0	0	0	0	0	0	0	0	0	0	0	0	0	1	0	0	17.755	2.1475	16.785	0	0	0	1	0	0	17.761	2.1499	16.789	0	0	0	0	0	0	0	0	0	0	0	0	0	0	0	0	0	0	0	0	0	1	0	0	17.47	2.0148	16.554	2
10086	100.86	0	0	0	0	0	0	10.917	-10.917	18.908	0	0	0	0	0	0	0	0	0	0	0	0	1	0	0	17.755	2.1475	16.785	0	0	0	1	0	0	17.761	2.1499	16.789	0	0	0	0	0	0	0	0	0	0	0	0	0	0	0	0	0	0	0	0	0	1	0	0	17.47	2.0148	16.554	2
10087	100.87	0	0	0	0	0	0	0	0	0	0	0	0	0	0	0	0	0	0	0	0	0	0	0	0	10.989	-10.989	19.033	0	0	0	1	0	0	17.761	2.1499	16.789	0	0	0	0	0	0	0	0	0	0	0	0	0	0	0	0	0	0	0	0	0	1	0	0	17.47	2.0148	16.554	2
10088	100.88	0	0	0	0	0	0	10.917	-10.917	18.908	0	0	0	0	0	0	0	0	0	0	0	0	1	0	0	17.755	2.1475	16.785	0	0	0	1	0	0	17.761	2.1499	16.789	0	0	0	0	0	0	0	0	0	0	0	0	1	-1	0	7.5503	-27.469	31.921	0	0	0	1	0	0	17.47	2.0148	16.554	2
10089	100.89	0	0	0	0	0	0	0	0	0	0	0	0	0	0	0	0	0	0	0	0	0	1	0	0	17.755	2.1475	16.785	0	0	0	1	0	0	17.761	2.1499	16.789	0	0	0	0	0	0	0	0	0	0	0	0	0	0	0	10.994	-10.994	19.042	0	0	0	0	0	0	0	0	0	2
10090	100.9	0	0	0	0	0	0	0	0	0	0	0	0	0	0	0	0	0	0	0	0	0	1	0	0	17.755	2.1475	16.785	0	0	0	1	0	0	17.761	2.1499	16.789	0	0	0	0	0	0	0	0	0	0	0	0	0	0	0	0	0	0	0	0	0	1	0	0	17.47	2.0148	16.554	2
10091	100.91	0	0	0	0	0	0	0	0	0	0	0	0	0	0	0	0	0	0	0	0	0	0	0	0	10.989	-10.989	19.033	0	0	0	1	0	0	17.761	2.1499	16.789	0	0	0	0	0	0	0	0	0	0	0	0	0	-1	0	-2.0278	-17.891	16.968	0	0	0	1	0	0	17.47	2.0148	16.554	2
10092	100.92	0	0	0	0	0	0	0	0	0	0	0	0	0	0	0	0	0	0	0	0	0	1	0	0	17.755	2.1475	16.785	0	0	0	1	0	0	17.761	2.1499	16.789	0	0	0	0	0	0	0	0	0	0	0	0	0	0	0	0	0	0	0	0	0	0	0	0	0	0	0	2
10093	100.93	0	0	0	0	0	0	0	0	0	0	0	0	0	0	0	0	0	0	0	0	0	1	0	0	17.755	2.1475	16.785	0	0	0	1	0	0	17.761	2.1499	16.789	0	0	0	0	0	0	0	0	0	0	0	0	0	0	0	10.994	-10.994	19.042	0	0	0	1	0	0	17.47	2.0148	16.554	2
10094	100.94	0	0	0	0	0	0	10.917	-10.917	18.908	0	0	0	0	0	0	0	0	0	0	0	0	0	0	0	10.989	-10.989	19.033	0	0	0	1	0	0	17.761	2.1499	16.789	0	0	0	0	0	0	0	0	0	0	0	0	0	0	0	0	0	0	0	0	0	0	0	0	0	0	0	2
10095	100.95	0	0	0	0	0	0	0	0	0	0	0	0	0	0	0	0	0	0	0	0	0	1	0	0	17.755	2.1475	16.785	0	0	0	1	0	0	17.761	2.1499	16.789	0	0	0	0	0	0	0	0	0	0	0	0	1	-1	0	7.5503	-27.469	31.921	0	0	0	1	0	0	17.47	2.0148	16.554	2
10096	100.96	0	0	0	0	0	0	0	0	0	0	0	0	0	0	0	0	0	0	0	0	0	1	0	0	17.755	2.1475	16.785	0	0	0	1	0	0	17.761	2.1499	16.789	0	0	0	0	0	0	0	0	0	0	0	0	0	0	0	0	0	0	0	0	0	0	0	0	0	0	0	2
10097	100.97	0	0	0	0	0	0	0	0	0	0	0	0	0	0	0	0	0	0	0	0	0	1	0	0	17.755	2.1475	16.785	0	0	0	1	0	0	17.761	2.1499	16.789	0	0	0	0	0	0	0	0	0	0	0	0	0	0	0	0	0	0	0	0	0	1	0	0	17.47	2.0148	16.554	2
10098	100.98	0	0	0	0	0	0	10.917	-10.917	18.908	0	0	0	0	0	0	0	0	0	0	0	0	1	0	0	17.755	2.1475	16.785	0	0	0	1	0	0	17.761	2.1499	16.789	0	0	0	0	0	0	0	0	0	0	0	0	0	0	0	10.994	-10.994	19.042	0	0	0	1	0	0	17.47	2.0148	16.554	2
10099	100.99	0	0	0	0	0	0	0	0	0	0	0	0	0	0	0	0	0	0	0	0	0	1	0	0	17.755	2.1475	16.785	0	0	0	1	0	0	17.761	2.1499	16.789	0	0	0	0	0	0	0	0	0	0	0	0	0	0	0	0	0	0	0	0	0	1	0	0	17.47	2.0148	16.554	3
10100	101	0	0	0	0	0	0	10.917	-10.917	18.908	0	0	0	0	0	0	0	0	0	0	0	0	1	0	0	17.755	2.1475	16.785	0	0	0	1	0	0	17.761	2.1499	16.789	0	0	0	0	0	0	0	0	0	0	0	0	0	0	0	0	0	0	0	0	0	1	0	0	17.47	2.0148	16.554	2
10101	101.01	0	0	0	0	0	0	10.917	-10.917	18.908	0	0	0	0	0	0	0	0	0	0	0	0	1	0	0	17.755	2.1475	16.785	0	0	0	1	0	0	17.761	2.1499	16.789	0	0	0	0	0	0	0	0	0	0	0	0	0	0	0	0	0	0	0	0	0	1	0	0	17.47	2.0148	16.554	2
10102	101.02	0	0	0	0	0	0	0	0	0	0	0	0	0	0	0	0	0	0	0	0	0	1	0	0	17.755	2.1475	16.785	0	0	0	1	0	0	17.761	2.1499	16.789	0	0	0	0	0	0	0	0	0	0	0	0	0	0	0	10.994	-10.994	19.042	0	0	0	1	0	0	17.47	2.0148	16.554	2
10103	101.03	0	0	0	0	0	0	10.917	-10.917	18.908	0	0	0	0	0	0	0	0	0	0	0	0	1	0	0	17.755	2.1475	16.785	0	0	0	1	0	0	17.761	2.1499	16.789	0	0	0	0	0	0	0	0	0	0	0	0	0	-1	0	-2.0278	-17.891	16.968	0	0	0	1	0	0	17.47	2.0148	16.554	2
10104	101.04	0	0	0	0	0	0	0	0	0	0	0	0	0	0	0	0	0	0	0	0	0	1	0	0	17.755	2.1475	16.785	0	0	0	1	0	0	17.761	2.1499	16.789	0	0	0	0	0	0	0	0	0	0	0	0	0	0	0	10.994	-10.994	19.042	0	0	0	0	0	0	0	0	0	2
10105	101.05	0	0	0	0	0	0	10.917	-10.917	18.908	0	0	0	0	0	0	0	0	0	0	0	0	1	0	0	17.755	2.1475	16.785	0	0	0	1	0	0	17.761	2.1499	16.789	0	0	0	1	0	0	17.883	2.027	16.961	0	0	0	0	0	0	0	0	0	0	0	0	1	0	0	17.47	2.0148	16.554	2
10106	101.06	0	0	0	0	0	0	0	0	0	0	0	0	0	0	0	0	0	0	0	0	0	1	0	0	17.755	2.1475	16.785	0	0	0	1	0	0	17.761	2.1499	16.789	0	0	0	0	0	0	0	0	0	0	0	0	0	-1	0	-2.0278	-17.891	16.968	0	0	0	1	0	0	17.47	2.0148	16.554	2
10107	101.07	0	0	0	0	0	0	10.917	-10.917	18.908	0	0	0	0	0	0	0	0	0	0	0	0	1	0	0	17.755	2.1475	16.785	0	0	0	1	0	0	17.761	2.1499	16.789	0	0	0	0	0	0	0	0	0	0	0	0	1	-1	0	7.5503	-27.469	31.921	0	0	0	0	0	0	0	0	0	2
10108	101.08	0	0	0	0	0	0	10.917	-10.917	18.908	0	0	0	0	0	0	0	0	0	0	0	0	1	0	0	17.755	2.1475	16.785	0	0	0	1	0	0	17.761	2.1499	16.789	0	0	0	0	0	0	0	0	0	0	0	0	0	0	0	0	0	0	0	0	0	1	0	0	17.47	2.0148	16.554	2
10109	101.09	0	0	0	0	0	0	10.917	-10.917	18.908	0	0	0	0	0	0	0	0	0	0	0	0	0	0	0	10.989	-10.989	19.033	0	0	0	1	0	0	17.761	2.1499	16.789	0	0	0	0	0	0	0	0	0	0	0	0	0	0	0	0	0	0	0	0	0	1	0	0	17.47	2.0148	16.554	2
10110	101.1	0	0	0	0	0	0	0	0	0	0	0	0	0	0	0	0	0	0	0	0	0	1	0	0	17.755	2.1475	16.785	0	0	0	1	0	0	17.761	2.1499	16.789	0	0	0	0	0	0	0	0	0	0	0	0	0	0	0	0	0	0	0	0	0	1	0	0	17.47	2.0148	16.554	0
10111	101.11	0	0	0	0	0	0	0	0	0	0	0	0	0	0	0	0	0	0	0	0	0	1	0	0	17.755	2.1475	16.785	0	0	0	1	0	0	17.761	2.1499	16.789	0	0	0	0	0	0	0	0	0	0	0	0	0	0	0	0	0	0	0	0	0	1	0	0	17.47	2.0148	16.554	2
10112	101.12	0	0	0	0	0	0	0	0	0	0	0	0	0	0	0	0	0	0	0	0	0	0	0	0	10.989	-10.989	19.033	0	0	0	1	0	0	17.761	2.1499	16.789	0	0	0	0	0	0	0	0	0	0	0	0	0	0	0	0	0	0	0	0	0	0	0	0	0	0	0	2
10113	101.13	0	0	0	0	0	0	10.917	-10.917	18.908	0	0	0	0	0	0	0	0	0	0	0	0	0	0	0	10.989	-10.989	19.033	0	0	0	1	0	0	17.761	2.1499	16.789	0	0	0	0	0	0	0	0	0	0	0	0	0	0	0	0	0	0	0	0	0	1	0	0	17.47	2.0148	16.554	2
10114	101.14	0	0	0	0	0	0	0	0	0	0	0	0	0	0	0	0	0	0	0	0	0	1	0	0	17.755	2.1475	16.785	0	0	0	1	0	0	17.761	2.1499	16.789	0	0	0	0	0	0	0	0	0	0	0	0	0	-1	0	-2.0278	-17.891	16.968	0	0	0	0	0	0	0	0	0	2
10115	101.15	0	0	0	0	0	0	10.917	-10.917	18.908	0	0	0	0	0	0	0	0	0	0	0	0	1	0	0	17.755	2.1475	16.785	0	0	0	1	0	0	17.761	2.1499	16.789	0	0	0	1	0	0	17.883	2.027	16.961	0	0	0	1	-1	0	7.5503	-27.469	31.921	0	0	0	1	0	0	17.47	2.0148	16.554	2
10116	101.16	0	0	0	0	0	0	10.917	-10.917	18.908	0	0	0	0	0	0	0	0	0	0	0	0	1	0	0	17.755	2.1475	16.785	0	0	0	1	0	0	17.761	2.1499	16.789	0	0	0	0	0	0	0	0	0	0	0	0	0	0	0	0	0	0	0	0	0	0	0	0	0	0	0	2
10117	101.17	0	0	0	0	0	0	10.917	-10.917	18.908	0	0	0	0	0	0	0	0	0	0	0	0	1	0	0	17.755	2.1475	16.785	0	0	0	1	0	0	17.761	2.1499	16.789	0	0	0	0	0	0	0	0	0	0	0	0	0	0	0	0	0	0	0	0	0	1	0	0	17.47	2.0148	16.554	2
10118	101.18	0	0	0	0	0	0	0	0	0	0	0	0	0	0	0	0	0	0	0	0	0	1	0	0	17.755	2.1475	16.785	0	0	0	1	0	0	17.761	2.1499	16.789	0	0	0	0	0	0	0	0	0	0	0	0	0	0	0	0	0	0	0	0	0	1	0	0	17.47	2.0148	16.554	2
10119	101.19	0	0	0	0	0	0	0	0	0	0	0	0	0	0	0	0	0	0	0	0	0	1	0	0	17.755	2.1475	16.785	0	0	0	1	0	0	17.761	2.1499	16.789	0	0	0	0	0	0	0	0	0	0	0	0	0	0	0	0	0	0	0	0	0	1	0	0	17.47	2.0148	16.554	2
10120	101.2	0	0	0	0	0	0	0	0	0	0	0	0	0	0	0	0	0	0	0	0	0	1	0	0	17.755	2.1475	16.785	0	0	0	1	0	0	17.761	2.1499	16.789	0	0	0	1	0	0	17.883	2.027	16.961	0	0	0	0	0	0	0	0	0	0	0	0	0	0	0	0	0	0	2
10121	101.21	0	0	0	0	0	0	0	0	0	0	0	0	0	0	0	0	0	0	0	0	0	1	0	0	17.755	2.1475	16.785	0	0	0	1	0	0	17.761	2.1499	16.789	0	0	0	0	0	0	0	0	0	0	0	0	0	0	0	0	0	0	0	0	0	1	0	0	17.47	2.0148	16.554	2
10122	101.22	0	0	0	0	0	0	10.917	-10.917	18.908	0	0	0	0	0	0	0	0	0	0	0	0	1	0	0	17.755	2.1475	16.785	0	0	0	1	0	0	17.761	2.1499	16.789	0	0	0	0	0	0	0	0	0	0	0	0	0	0	0	0	0	0	0	0	0	1	0	0	17.47	2.0148	16.554	2
10123	101.23	0	0	0	0	0	0	0	0	0	0	0	0	0	0	0	0	0	0	0	0	0	1	0	0	17.755	2.1475	16.785	0	0	0	1	0	0	17.761	2.1499	16.789	0	0	0	0	0	0	0	0	0	0	0	0	0	0	0	10.994	-10.994	19.042	0	0	0	0	0	0	0	0	0	2
10124	101.24	0	0	0	0	0	0	0	0	0	0	0	0	0	0	0	0	0	0	0	0	0	1	0	0	17.755	2.1475	16.785	0	0	0	1	0	0	17.761	2.1499	16.789	0	0	0	0	0	0	0	0	0	0	0	0	0	0	0	0	0	0	0	0	0	0	0	0	0	0	0	2
10125	101.25	0	0	0	0	0	0	10.917	-10.917	18.908	0	0	0	0	0	0	0	0	0	0	0	0	1	0	0	17.755	2.1475	16.785	0	0	0	1	0	0	17.761	2.1499	16.789	0	0	0	0	0	0	0	0	0	0	0	0	0	0	0	0	0	0	0	0	0	0	0	0	0	0	0	2
10126	101.26	0	0	0	0	0	0	10.917	-10.917	18.908	0	0	0	0	0	0	0	0	0	0	0	0	1	0	0	17.755	2.1475	16.785	0	0	0	1	0	0	17.761	2.1499	16.789	0	0	0	1	0	0	17.883	2.027	16.961	0	0	0	0	0	0	10.994	-10.994	19.042	0	0	0	0	0	0	0	0	0	2
10127	101.27	0	0	0	0	0	0	0	0	0	0	0	0	0	0	0	0	0	0	0	0	0	0	0	0	10.989	-10.989	19.033	0	0	0	1	0	0	17.761	2.1499	16.789	0	0	0	0	0	0	0	0	0	0	0	0	0	0	0	0	0	0	0	0	0	1	0	0	17.47	2.0148	16.554	2
10128	101.28	0	0	0	0	0	0	10.917	-10.917	18.908	0	0	0	0	0	0	0	0	0	0	0	0	1	0	0	17.755	2.1475	16.785	0	0	0	1	0	0	17.761	2.1499	16.789	0	0	0	1	0	0	17.883	2.027	16.961	0	0	0	0	0	0	10.994	-10.994	19.042	0	0	0	1	0	0	17.47	2.0148	16.554	2
10129	101.29	0	0	0	0	0	0	10.917	-10.917	18.908	0	0	0	0	0	0	0	0	0	0	0	0	0	0	0	10.989	-10.989	19.033	0	0	0	1	0	0	17.761	2.1499	16.789	0	0	0	0	0	0	0	0	0	0	0	0	0	0	0	0	0	0	0	0	0	0	0	0	0	0	0	2
10130	101.3	0	0	0	0	0	0	10.917	-10.917	18.908	0	0	0	0	0	0	0	0	0	0	0	0	1	0	0	17.755	2.1475	16.785	0	0	0	1	0	0	17.761	2.1499	16.789	0	0	0	0	0	0	0	0	0	0	0	0	0	0	0	10.994	-10.994	19.042	0	0	0	1	0	0	17.47	2.0148	16.554	2
10131	101.31	0	0	0	0	0	0	10.917	-10.917	18.908	0	0	0	0	0	0	0	0	0	0	0	0	1	0	0	17.755	2.1475	16.785	0	0	0	1	0	0	17.761	2.1499	16.789	0	0	0	0	0	0	0	0	0	0	0	0	1	-1	0	7.5503	-27.469	31.921	0	0	0	1	0	0	17.47	2.0148	16.554	2
10132	101.32	0	0	0	0	0	0	10.917	-10.917	18.908	0	0	0	0	0	0	0	0	0	0	0	0	1	0	0	17.755	2.1475	16.785	0	0	0	1	0	0	17.761	2.1499	16.789	0	0	0	0	0	0	0	0	0	0	0	0	0	-1	0	-2.0278	-17.891	16.968	0	0	0	0	0	0	0	0	0	2
10133	101.33	0	0	0	0	0	0	10.917	-10.917	18.908	0	0	0	0	0	0	0	0	0	0	0	0	1	0	0	17.755	2.1475	16.785	0	0	0	1	0	0	17.761	2.1499	16.789	0	0	0	0	0	0	0	0	0	0	0	0	0	0	0	0	0	0	0	0	0	1	0	0	17.47	2.0148	16.554	2
10134	101.34	0	0	0	0	0	0	0	0	0	0	0	0	0	0	0	0	0	0	0	0	0	1	0	0	17.755	2.1475	16.785	0	0	0	1	0	0	17.761	2.1499	16.789	0	0	0	0	0	0	0	0	0	0	0	0	0	0	0	0	0	0	0	0	0	1	0	0	17.47	2.0148	16.554	2
10135	101.35	0	0	0	0	0	0	10.917	-10.917	18.908	0	0	0	0	0	0	0	0	0	0	0	0	1	0	0	17.755	2.1475	16.785	0	0	0	1	0	0	17.761	2.1499	16.789	0	0	0	0	0	0	0	0	0	0	0	0	0	-1	0	-2.0278	-17.891	16.968	0	0	0	0	0	0	0	0	0	2
10136	101.36	0	0	0	0	0	0	0	0	0	0	0	0	0	0	0	0	0	0	0	0	0	1	0	0	17.755	2.1475	16.785	0	0	0	1	0	0	17.761	2.1499	16.789	0	0	0	0	0	0	0	0	0	0	0	0	0	0	0	0	0	0	0	0	0	1	0	0	17.47	2.0148	16.554	2
10137	101.37	0	0	0	0	0	0	10.917	-10.917	18.908	0	0	0	0	0	0	0	0	0	0	0	0	0	0	0	10.989	-10.989	19.033	0	0	0	1	0	0	17.761	2.1499	16.789	0	0	0	0	0	0	0	0	0	0	0	0	0	-1	0	-2.0278	-17.891	16.968	0	0	0	0	0	0	0	0	0	2
10138	101.38	0	0	0	0	0	0	10.917	-10.917	18.908	0	0	0	0	0	0	0	0	0	0	0	0	1	0	0	17.755	2.1475	16.785	0	0	0	1	0	0	17.761	2.1499	16.789	0	0	0	0	0	0	0	0	0	0	0	0	0	0	0	10.994	-10.994	19.042	0	0	0	1	0	0	17.47	2.0148	16.554	2
10139	101.39	0	0	0	0	0	0	0	0	0	0	0	0	0	0	0	0	0	0	0	0	0	1	0	0	17.755	2.1475	16.785	0	0	0	1	0	0	17.761	2.1499	16.789	0	0	0	0	0	0	0	0	0	0	0	0	0	0	0	0	0	0	0	0	0	0	0	0	0	0	0	2
10140	101.4	0	0	0	0	0	0	0	0	0	0	0	0	0	0	0	0	0	0	0	0	0	1	0	0	17.755	2.1475	16.785	0	0	0	1	0	0	17.761	2.1499	16.789	0	0	0	0	0	0	0	0	0	0	0	0	0	0	0	10.994	-10.994	19.042	0	0	0	0	0	0	0	0	0	2
10141	101.41	0	0	0	0	0	0	0	0	0	0	0	0	0	0	0	0	0	0	0	0	0	1	0	0	17.755	2.1475	16.785	0	0	0	1	0	0	17.761	2.1499	16.789	0	0	0	0	0	0	0	0	0	0	0	0	0	0	0	0	0	0	0	0	0	1	0	0	17.47	2.0148	16.554	2
10142	101.42	0	0	0	0	0	0	10.917	-10.917	18.908	0	0	0	0	0	0	0	0	0	0	0	0	1	0	0	17.755	2.1475	16.785	0	0	0	1	0	0	17.761	2.1499	16.789	0	0	0	0	0	0	0	0	0	0	0	0	0	-1	0	-2.0278	-17.891	16.968	0	0	0	0	0	0	0	0	0	2
10143	101.43	0	0	0	0	0	0	0	0	0	0	0	0	0	0	0	0	0	0	0	0	0	1	0	0	17.755	2.1475	16.785	0	0	0	1	0	0	17.761	2.1499	16.789	0	0	0	0	0	0	0	0	0	0	0	0	0	0	0	0	0	0	0	0	0	1	0	0	17.47	2.0148	16.554	2
10144	101.44	0	0	0	0	0	0	10.917	-10.917	18.908	0	0	0	0	0	0	0	0	0	0	0	0	1	0	0	17.755	2.1475	16.785	0	0	0	1	0	0	17.761	2.1499	16.789	0	0	0	0	0	0	0	0	0	0	0	0	0	0	0	0	0	0	0	0	0	0	0	0	0	0	0	2
10145	101.45	0	0	0	0	0	0	0	0	0	0	0	0	0	0	0	0	0	0	0	0	0	1	0	0	17.755	2.1475	16.785	0	0	0	1	0	0	17.761	2.1499	16.789	0	0	0	0	0	0	0	0	0	0	0	0	0	0	0	0	0	0	0	0	0	1	0	0	17.47	2.0148	16.554	2
10146	101.46	0	0	0	0	0	0	0	0	0	0	0	0	0	0	0	0	0	0	0	0	0	1	0	0	17.755	2.1475	16.785	0	0	0	1	0	0	17.761	2.1499	16.789	0	0	0	0	0	0	0	0	0	0	0	0	1	-1	0	7.5503	-27.469	31.921	0	0	0	1	0	0	17.47	2.0148	16.554	2
10147	101.47	0	0	0	0	0	0	0	0	0	0	0	0	0	0	0	0	0	0	0	0	0	1	0	0	17.755	2.1475	16.785	0	0	0	1	0	0	17.761	2.1499	16.789	0	0	0	0	0	0	0	0	0	0	0	0	0	0	0	0	0	0	0	0	0	0	0	0	0	0	0	2
10148	101.48	0	0	0	0	0	0	10.917	-10.917	18.908	0	0	0	0	0	0	0	0	0	0	0	0	1	0	0	17.755	2.1475	16.785	0	0	0	1	0	0	17.761	2.1499	16.789	0	0	0	0	0	0	0	0	0	0	0	0	0	-1	0	-2.0278	-17.891	16.968	0	0	0	1	0	0	17.47	2.0148	16.554	2
10149	101.49	0	0	0	0	0	0	10.917	-10.917	18.908	0	0	0	0	0	0	0	0	0	0	0	0	1	0	0	17.755	2.1475	16.785	0	0	0	1	0	0	17.761	2.1499	16.789	0	0	0	0	0	0	0	0	0	0	0	0	0	0	0	0	0	0	0	0	0	0	0	0	0	0	0	0
10150	101.5	0	0	0	0	0	0	10.917	-10.917	18.908	0	0	0	0	0	0	0	0	0	0	0	0	1	0	0	17.755	2.1475	16.785	0	0	0	1	0	0	17.761	2.1499	16.789	0	0	0	0	0	0	0	0	0	0	0	0	1	-1	0	7.5503	-27.469	31.921	0	0	0	0	0	0	0	0	0	2
10151	101.51	0	0	0	0	0	0	10.917	-10.917	18.908	0	0	0	0	0	0	0	0	0	0	0	0	1	0	0	17.755	2.1475	16.785	0	0	0	1	0	0	17.761	2.1499	16.789	0	0	0	1	0	0	17.883	2.027	16.961	0	0	0	1	-1	0	7.5503	-27.469	31.921	0	0	0	0	0	0	0	0	0	2
10152	101.52	0	0	0	0	0	0	0	0	0	0	0	0	0	0	0	0	0	0	0	0	0	1	0	0	17.755	2.1475	16.785	0	0	0	1	0	0	17.761	2.1499	16.789	0	0	0	0	0	0	0	0	0	0	0	0	0	-1	0	-2.0278	-17.891	16.968	0	0	0	0	0	0	0	0	0	2
10153	101.53	0	0	0	0	0	0	10.917	-10.917	18.908	0	0	0	0	0	0	0	0	0	0	0	0	1	0	0	17.755	2.1475	16.785	0	0	0	1	0	0	17.761	2.1499	16.789	0	0	0	0	0	0	0	0	0	0	0	0	0	-1	0	-2.0278	-17.891	16.968	0	0	0	1	0	0	17.47	2.0148	16.554	2
10154	101.54	0	0	0	0	0	0	10.917	-10.917	18.908	0	0	0	0	0	0	0	0	0	0	0	0	0	0	0	10.989	-10.989	19.033	0	0	0	1	0	0	17.761	2.1499	16.789	0	0	0	0	0	0	0	0	0	0	0	0	0	0	0	0	0	0	0	0	0	1	0	0	17.47	2.0148	16.554	2
10155	101.55	0	0	0	0	0	0	10.917	-10.917	18.908	0	0	0	0	0	0	0	0	0	0	0	0	1	0	0	17.755	2.1475	16.785	0	0	0	1	0	0	17.761	2.1499	16.789	0	0	0	0	0	0	0	0	0	0	0	0	0	0	0	10.994	-10.994	19.042	0	0	0	1	0	0	17.47	2.0148	16.554	2
10156	101.56	0	0	0	0	0	0	0	0	0	0	0	0	0	0	0	0	0	0	0	0	0	1	0	0	17.755	2.1475	16.785	0	0	0	1	0	0	17.761	2.1499	16.789	0	0	0	0	0	0	0	0	0	0	0	0	0	0	0	10.994	-10.994	19.042	0	0	0	1	0	0	17.47	2.0148	16.554	2
10157	101.57	0	0	0	0	0	0	10.917	-10.917	18.908	0	0	0	0	0	0	0	0	0	0	0	0	1	0	0	17.755	2.1475	16.785	0	0	0	1	0	0	17.761	2.1499	16.789	0	0	0	0	0	0	0	0	0	0	0	0	0	0	0	0	0	0	0	0	0	1	0	0	17.47	2.0148	16.554	2
10158	101.58	0	0	0	0	0	0	10.917	-10.917	18.908	0	0	0	0	0	0	0	0	0	0	0	0	1	0	0	17.755	2.1475	16.785	0	0	0	1	0	0	17.761	2.1499	16.789	0	0	0	0	0	0	0	0	0	0	0	0	0	0	0	10.994	-10.994	19.042	0	0	0	0	0	0	0	0	0	2
10159	101.59	0	0	0	0	0	0	10.917	-10.917	18.908	0	0	0	0	0	0	0	0	0	0	0	0	1	0	0	17.755	2.1475	16.785	0	0	0	1	0	0	17.761	2.1499	16.789	0	0	0	0	0	0	0	0	0	0	0	0	0	0	0	0	0	0	0	0	0	1	0	0	17.47	2.0148	16.554	2
10160	101.6	0	0	0	0	0	0	0	0	0	0	0	0	0	0	0	0	0	0	0	0	0	1	0	0	17.755	2.1475	16.785	0	0	0	1	0	0	17.761	2.1499	16.789	0	0	0	0	0	0	0	0	0	0	0	0	0	-1	0	-2.0278	-17.891	16.968	0	0	0	1	0	0	17.47	2.0148	16.554	0
10161	101.61	0	0	0	0	0	0	10.917	-10.917	18.908	0	0	0	0	0	0	0	0	0	0	0	0	1	0	0	17.755	2.1475	16.785	0	0	0	1	0	0	17.761	2.1499	16.789	0	0	0	1	0	0	17.883	2.027	16.961	0	0	0	0	0	0	0	0	0	0	0	0	1	0	0	17.47	2.0148	16.554	2
10162	101.62	0	0	0	0	0	0	10.917	-10.917	18.908	0	0	0	0	0	0	0	0	0	0	0	0	1	0	0	17.755	2.1475	16.785	0	0	0	1	0	0	17.761	2.1499	16.789	0	0	0	0	0	0	0	0	0	0	0	0	0	-1	0	-2.0278	-17.891	16.968	0	0	0	1	0	0	17.47	2.0148	16.554	2
10163	101.63	0	0	0	0	0	0	10.917	-10.917	18.908	0	0	0	0	0	0	0	0	0	0	0	0	1	0	0	17.755	2.1475	16.785	0	0	0	1	0	0	17.761	2.1499	16.789	0	0	0	0	0	0	0	0	0	0	0	0	0	0	0	0	0	0	0	0	0	1	0	0	17.47	2.0148	16.554	2
10164	101.64	0	0	0	0	0	0	0	0	0	0	0	0	0	0	0	0	0	0	0	0	0	1	0	0	17.755	2.1475	16.785	0	0	0	1	0	0	17.761	2.1499	16.789	0	0	0	0	0	0	0	0	0	0	0	0	0	0	0	0	0	0	0	0	0	0	0	0	0	0	0	2
10165	101.65	0	0	0	0	0	0	10.917	-10.917	18.908	0	0	0	0	0	0	0	0	0	0	0	0	1	0	0	17.755	2.1475	16.785	0	0	0	1	0	0	17.761	2.1499	16.789	0	0	0	1	0	0	17.883	2.027	16.961	0	0	0	0	0	0	10.994	-10.994	19.042	0	0	0	0	0	0	0	0	0	0
10166	101.66	0	0	0	0	0	0	0	0	0	0	0	0	0	0	0	0	0	0	0	0	0	1	0	0	17.755	2.1475	16.785	0	0	0	1	0	0	17.761	2.1499	16.789	0	0	0	0	0	0	0	0	0	0	0	0	0	0	0	0	0	0	0	0	0	0	0	0	0	0	0	2
10167	101.67	0	0	0	0	0	0	0	0	0	0	0	0	0	0	0	0	0	0	0	0	0	1	0	0	17.755	2.1475	16.785	0	0	0	1	0	0	17.761	2.1499	16.789	0	0	0	0	0	0	0	0	0	0	0	0	1	-1	0	7.5503	-27.469	31.921	0	0	0	0	0	0	0	0	0	2
10168	101.68	0	0	0	0	0	0	0	0	0	0	0	0	0	0	0	0	0	0	0	0	0	1	0	0	17.755	2.1475	16.785	0	0	0	1	0	0	17.761	2.1499	16.789	0	0	0	0	0	0	0	0	0	0	0	0	0	0	0	10.994	-10.994	19.042	0	0	0	0	0	0	0	0	0	2
10169	101.69	0	0	0	0	0	0	0	0	0	0	0	0	0	0	0	0	0	0	0	0	0	1	0	0	17.755	2.1475	16.785	0	0	0	1	0	0	17.761	2.1499	16.789	0	0	0	0	0	0	0	0	0	0	0	0	0	-1	0	-2.0278	-17.891	16.968	0	0	0	0	0	0	0	0	0	2
10170	101.7	0	0	0	0	0	0	10.917	-10.917	18.908	0	0	0	0	0	0	0	0	0	0	0	0	1	0	0	17.755	2.1475	16.785	0	0	0	1	0	0	17.761	2.1499	16.789	0	0	0	0	0	0	0	0	0	0	0	0	0	-1	0	-2.0278	-17.891	16.968	0	0	0	0	0	0	0	0	0	2
10171	101.71	0	0	0	0	0	0	10.917	-10.917	18.908	0	0	0	0	0	0	0	0	0	0	0	0	1	0	0	17.755	2.1475	16.785	0	0	0	1	0	0	17.761	2.1499	16.789	0	0	0	0	0	0	0	0	0	0	0	0	0	0	0	0	0	0	0	0	0	0	0	0	0	0	0	2
10172	101.72	0	0	0	0	0	0	10.917	-10.917	18.908	0	0	0	0	0	0	0	0	0	0	0	0	1	0	0	17.755	2.1475	16.785	0	0	0	1	0	0	17.761	2.1499	16.789	0	0	0	0	0	0	0	0	0	0	0	0	0	0	0	0	0	0	0	0	0	0	0	0	0	0	0	0
10173	101.73	0	0	0	0	0	0	10.917	-10.917	18.908	0	0	0	0	0	0	0	0	0	0	0	0	1	0	0	17.755	2.1475	16.785	0	0	0	1	0	0	17.761	2.1499	16.789	0	0	0	0	0	0	0	0	0	0	0	0	0	-1	0	-2.0278	-17.891	16.968	0	0	0	0	0	0	0	0	0	2
10174	101.74	0	0	0	0	0	0	10.917	-10.917	18.908	0	0	0	0	0	0	0	0	0	0	0	0	1	0	0	17.755	2.1475	16.785	0	0	0	1	0	0	17.761	2.1499	16.789	0	0	0	0	0	0	0	0	0	0	0	0	0	0	0	0	0	0	0	0	0	0	0	0	0	0	0	2
10175	101.75	0	0	0	0	0	0	10.917	-10.917	18.908	0	0	0	0	0	0	0	0	0	0	0	0	1	0	0	17.755	2.1475	16.785	0	0	0	1	0	0	17.761	2.1499	16.789	0	0	0	1	0	0	17.883	2.027	16.961	0	0	0	0	0	0	10.994	-10.994	19.042	0	0	0	1	0	0	17.47	2.0148	16.554	2
10176	101.76	0	0	0	0	0	0	0	0	0	0	0	0	0	0	0	0	0	0	0	0	0	1	0	0	17.755	2.1475	16.785	0	0	0	1	0	0	17.761	2.1499	16.789	0	0	0	0	0	0	0	0	0	0	0	0	0	0	0	0	0	0	0	0	0	1	0	0	17.47	2.0148	16.554	2
10177	101.77	0	0	0	0	0	0	10.917	-10.917	18.908	0	0	0	0	0	0	0	0	0	0	0	0	0	0	0	10.989	-10.989	19.033	0	0	0	1	0	0	17.761	2.1499	16.789	0	0	0	0	0	0	0	0	0	0	0	0	1	-1	0	7.5503	-27.469	31.921	0	0	0	0	0	0	0	0	0	2
10178	101.78	0	0	0	0	0	0	0	0	0	0	0	0	0	0	0	0	0	0	0	0	0	1	0	0	17.755	2.1475	16.785	0	0	0	1	0	0	17.761	2.1499	16.789	0	0	0	0	0	0	0	0	0	0	0	0	0	-1	0	-2.0278	-17.891	16.968	0	0	0	1	0	0	17.47	2.0148	16.554	2
10179	101.79	0	0	0	0	0	0	10.917	-10.917	18.908	0	0	0	0	0	0	0	0	0	0	0	0	0	0	0	10.989	-10.989	19.033	0	0	0	1	0	0	17.761	2.1499	16.789	0	0	0	0	0	0	0	0	0	0	0	0	0	0	0	0	0	0	0	0	0	0	0	0	0	0	0	2
10180	101.8	0	0	0	0	0	0	10.917	-10.917	18.908	0	0	0	0	0	0	0	0	0	0	0	0	1	0	0	17.755	2.1475	16.785	0	0	0	1	0	0	17.761	2.1499	16.789	0	0	0	0	0	0	0	0	0	0	0	0	0	0	0	0	0	0	0	0	0	1	0	0	17.47	2.0148	16.554	2
10181	101.81	0	0	0	0	0	0	10.917	-10.917	18.908	0	0	0	0	0	0	0	0	0	0	0	0	1	0	0	17.755	2.1475	16.785	0	0	0	1	0	0	17.761	2.1499	16.789	0	0	0	0	0	0	0	0	0	0	0	0	0	0	0	10.994	-10.994	19.042	0	0	0	0	0	0	0	0	0	2
10182	101.82	0	0	0	0	0	0	10.917	-10.917	18.908	0	0	0	0	0	0	0	0	0	0	0	0	1	0	0	17.755	2.1475	16.785	0	0	0	1	0	0	17.761	2.1499	16.789	0	0	0	0	0	0	0	0	0	0	0	0	0	0	0	0	0	0	0	0	0	0	0	0	0	0	0	2
10183	101.83	0	0	0	0	0	0	10.917	-10.917	18.908	0	0	0	0	0	0	0	0	0	0	0	0	1	0	0	17.755	2.1475	16.785	0	0	0	1	0	0	17.761	2.1499	16.789	0	0	0	0	0	0	0	0	0	0	0	0	0	-1	0	-2.0278	-17.891	16.968	0	0	0	1	0	0	17.47	2.0148	16.554	2
10184	101.84	0	0	0	0	0	0	10.917	-10.917	18.908	0	0	0	0	0	0	0	0	0	0	0	0	1	0	0	17.755	2.1475	16.785	0	0	0	1	0	0	17.761	2.1499	16.789	0	0	0	0	0	0	0	0	0	0	0	0	0	0	0	0	0	0	0	0	0	0	0	0	0	0	0	2
10185	101.85	0	0	0	0	0	0	10.917	-10.917	18.908	0	0	0	0	0	0	0	0	0	0	0	0	1	0	0	17.755	2.1475	16.785	0	0	0	1	0	0	17.761	2.1499	16.789	0	0	0	0	0	0	0	0	0	0	0	0	0	-1	0	-2.0278	-17.891	16.968	0	0	0	1	0	0	17.47	2.0148	16.554	2
10186	101.86	0	0	0	0	-1	0	-2.0364	-17.814	16.888	0	0	0	0	0	0	0	0	0	0	0	0	1	0	0	17.755	2.1475	16.785	0	0	0	1	0	0	17.761	2.1499	16.789	0	0	0	0	0	0	0	0	0	0	0	0	0	0	0	0	0	0	0	0	0	1	0	0	17.47	2.0148	16.554	2
10187	101.87	0	0	0	0	0	0	10.917	-10.917	18.908	0	0	0	0	0	0	0	0	0	0	0	0	1	0	0	17.755	2.1475	16.785	0	0	0	1	0	0	17.761	2.1499	16.789	0	0	0	0	0	0	0	0	0	0	0	0	0	0	0	0	0	0	0	0	0	0	0	0	0	0	0	2
10188	101.88	0	0	0	0	0	0	10.917	-10.917	18.908	0	0	0	0	0	0	0	0	0	0	0	0	1	0	0	17.755	2.1475	16.785	0	0	0	1	0	0	17.761	2.1499	16.789	0	0	0	0	0	0	0	0	0	0	0	0	0	0	0	0	0	0	0	0	0	1	0	0	17.47	2.0148	16.554	2
10189	101.89	0	0	0	0	0	0	10.917	-10.917	18.908	0	0	0	0	0	0	0	0	0	0	0	0	1	0	0	17.755	2.1475	16.785	0	0	0	1	0	0	17.761	2.1499	16.789	0	0	0	0	0	0	0	0	0	0	0	0	0	0	0	0	0	0	0	0	0	0	0	0	0	0	0	2
10190	101.9	0	0	0	0	0	0	0	0	0	0	0	0	0	0	0	0	0	0	0	0	0	0	0	0	10.989	-10.989	19.033	0	0	0	1	0	0	17.761	2.1499	16.789	0	0	0	0	0	0	0	0	0	0	0	0	0	0	0	0	0	0	0	0	0	1	0	0	17.47	2.0148	16.554	2
10191	101.91	0	0	0	0	0	0	10.917	-10.917	18.908	0	0	0	0	0	0	0	0	0	0	0	0	1	0	0	17.755	2.1475	16.785	0	0	0	1	0	0	17.761	2.1499	16.789	0	0	0	1	0	0	17.883	2.027	16.961	0	0	0	0	-1	0	-2.0278	-17.891	16.968	0	0	0	0	0	0	0	0	0	2
10192	101.92	0	0	0	0	0	0	0	0	0	0	0	0	0	0	0	0	0	0	0	0	0	1	0	0	17.755	2.1475	16.785	0	0	0	1	0	0	17.761	2.1499	16.789	0	0	0	0	0	0	0	0	0	0	0	0	0	0	0	0	0	0	0	0	0	1	0	0	17.47	2.0148	16.554	2
10193	101.93	0	0	0	0	0	0	10.917	-10.917	18.908	0	0	0	0	0	0	0	0	0	0	0	0	1	0	0	17.755	2.1475	16.785	0	0	0	1	0	0	17.761	2.1499	16.789	0	0	0	0	0	0	0	0	0	0	0	0	0	0	0	0	0	0	0	0	0	1	0	0	17.47	2.0148	16.554	2
10194	101.94	0	0	0	0	0	0	10.917	-10.917	18.908	0	0	0	0	0	0	0	0	0	0	0	0	1	0	0	17.755	2.1475	16.785	0	0	0	1	0	0	17.761	2.1499	16.789	0	0	0	0	0	0	0	0	0	0	0	0	0	0	0	0	0	0	0	0	0	0	0	0	0	0	0	2
10195	101.95	0	0	0	0	0	0	0	0	0	0	0	0	0	0	0	0	0	0	0	0	0	1	0	0	17.755	2.1475	16.785	0	0	0	1	0	0	17.761	2.1499	16.789	0	0	0	0	0	0	0	0	0	0	0	0	0	0	0	0	0	0	0	0	0	1	0	0	17.47	2.0148	16.554	2
10196	101.96	0	0	0	0	0	0	10.917	-10.917	18.908	0	0	0	0	0	0	0	0	0	0	0	0	1	0	0	17.755	2.1475	16.785	0	0	0	1	0	0	17.761	2.1499	16.789	0	0	0	0	0	0	0	0	0	0	0	0	0	0	0	0	0	0	0	0	0	1	0	0	17.47	2.0148	16.554	2
10197	101.97	0	0	0	0	0	0	10.917	-10.917	18.908	0	0	0	0	0	0	0	0	0	0	0	0	1	0	0	17.755	2.1475	16.785	0	0	0	1	0	0	17.761	2.1499	16.789	0	0	0	0	0	0	0	0	0	0	0	0	0	-1	0	-2.0278	-17.891	16.968	0	0	0	1	0	0	17.47	2.0148	16.554	2
10198	101.98	0	0	0	0	0	0	0	0	0	0	0	0	0	0	0	0	0	0	0	0	0	0	0	0	20.079	19.73	19.907	0	0	0	1	0	0	17.761	2.1499	16.789	0	0	0	0	0	0	0	0	0	0	0	0	0	-1	0	-2.0278	-17.891	16.968	0	0	0	1	0	0	17.47	2.0148	16.554	2
10199	101.99	0	0	0	0	0	0	10.917	-10.917	18.908	0	0	0	0	0	0	0	0	0	0	0	0	1	0	0	17.755	2.1475	16.785	0	0	0	1	0	0	17.761	2.1499	16.789	0	0	0	0	0	0	0	0	0	0	0	0	0	0	0	0	0	0	0	0	0	0	0	0	0	0	0	2
10200	102	0	0	0	0	0	0	0	0	0	0	0	0	0	0	0	0	0	0	0	0	0	1	0	0	17.755	2.1475	16.785	0	0	0	1	0	0	17.761	2.1499	16.789	0	0	0	0	0	0	0	0	0	0	0	0	0	-1	0	-2.0278	-17.891	16.968	0	0	0	0	0	0	0	0	0	2
10201	102.01	0	0	0	0	0	0	10.917	-10.917	18.908	0	0	0	0	0	0	0	0	0	0	0	0	1	0	0	17.755	2.1475	16.785	0	0	0	1	0	0	17.761	2.1499	16.789	0	0	0	0	0	0	0	0	0	0	0	0	0	0	0	0	0	0	0	0	0	1	0	0	17.47	2.0148	16.554	2
10202	102.02	0	0	0	0	0	0	10.917	-10.917	18.908	0	0	0	0	0	0	0	0	0	0	0	0	1	0	0	17.755	2.1475	16.785	0	0	0	1	0	0	17.761	2.1499	16.789	0	0	0	0	0	0	0	0	0	0	0	0	0	-1	0	-2.0278	-17.891	16.968	0	0	0	0	0	0	0	0	0	2
10203	102.03	0	0	0	0	0	0	10.917	-10.917	18.908	0	0	0	0	0	0	0	0	0	0	0	0	1	0	0	17.755	2.1475	16.785	0	0	0	1	0	0	17.761	2.1499	16.789	0	0	0	1	0	0	17.883	2.027	16.961	0	0	0	0	0	0	0	0	0	0	0	0	0	0	0	0	0	0	2
10204	102.04	0	0	0	0	0	0	10.917	-10.917	18.908	0	0	0	0	0	0	0	0	0	0	0	0	1	0	0	17.755	2.1475	16.785	0	0	0	1	0	0	17.761	2.1499	16.789	0	0	0	0	0	0	0	0	0	0	0	0	0	0	0	0	0	0	0	0	0	0	0	0	0	0	0	2
10205	102.05	0	0	0	0	0	0	0	0	0	0	0	0	0	0	0	0	0	0	0	0	0	1	0	0	17.755	2.1475	16.785	0	0	0	1	0	0	17.761	2.1499	16.789	0	0	0	0	0	0	0	0	0	0	0	0	0	0	0	0	0	0	0	0	0	1	0	0	17.47	2.0148	16.554	0
10206	102.06	0	0	0	0	0	0	10.917	-10.917	18.908	0	0	0	0	0	0	0	0	0	0	0	0	1	0	0	17.755	2.1475	16.785	0	0	0	1	0	0	17.761	2.1499	16.789	0	0	0	0	0	0	0	0	0	0	0	0	0	0	0	10.994	-10.994	19.042	0	0	0	1	0	0	17.47	2.0148	16.554	2
10207	102.07	0	0	0	0	0	0	0	0	0	0	0	0	0	0	0	0	0	0	0	0	0	1	0	0	17.755	2.1475	16.785	0	0	0	1	0	0	17.761	2.1499	16.789	0	0	0	1	0	0	17.883	2.027	16.961	0	0	0	1	-1	0	7.5503	-27.469	31.921	0	0	0	0	0	0	0	0	0	2
10208	102.08	0	0	0	0	0	0	10.917	-10.917	18.908	0	0	0	0	0	0	0	0	0	0	0	0	1	0	0	17.755	2.1475	16.785	0	0	0	1	0	0	17.761	2.1499	16.789	0	0	0	1	0	0	17.883	2.027	16.961	0	0	0	0	-1	0	-2.0278	-17.891	16.968	0	0	0	1	0	0	17.47	2.0148	16.554	2
10209	102.09	0	0	0	0	0	0	0	0	0	0	0	0	0	0	0	0	0	0	0	0	0	1	0	0	17.755	2.1475	16.785	0	0	0	1	0	0	17.761	2.1499	16.789	0	0	0	0	0	0	0	0	0	0	0	0	0	-1	0	-2.0278	-17.891	16.968	0	0	0	1	0	0	17.47	2.0148	16.554	0
10210	102.1	0	0	0	0	0	0	0	0	0	0	0	0	0	0	0	0	0	0	0	0	0	1	0	0	17.755	2.1475	16.785	0	0	0	1	0	0	17.761	2.1499	16.789	0	0	0	0	0	0	0	0	0	0	0	0	0	0	0	10.994	-10.994	19.042	0	0	0	1	0	0	17.47	2.0148	16.554	2
10211	102.11	0	0	0	0	0	0	10.917	-10.917	18.908	0	0	0	0	0	0	0	0	0	0	0	0	1	0	0	17.755	2.1475	16.785	0	0	0	1	0	0	17.761	2.1499	16.789	0	0	0	0	0	0	0	0	0	0	0	0	0	0	0	10.994	-10.994	19.042	0	0	0	1	0	0	17.47	2.0148	16.554	2
10212	102.12	0	0	0	0	0	0	0	0	0	0	0	0	0	0	0	0	0	0	0	0	0	1	0	0	17.755	2.1475	16.785	0	0	0	1	0	0	17.761	2.1499	16.789	0	0	0	0	0	0	0	0	0	0	0	0	0	0	0	0	0	0	0	0	0	1	0	0	17.47	2.0148	16.554	2
10213	102.13	0	0	0	0	0	0	10.917	-10.917	18.908	0	0	0	0	0	0	0	0	0	0	0	0	1	0	0	17.755	2.1475	16.785	0	0	0	1	0	0	17.761	2.1499	16.789	0	0	0	0	0	0	0	0	0	0	0	0	0	0	0	0	0	0	0	0	0	1	0	0	17.47	2.0148	16.554	2
10214	102.14	0	0	0	1	-1	0	7.4664	-27.317	31.716	0	0	0	0	0	0	0	0	0	0	0	0	1	0	0	17.755	2.1475	16.785	0	0	0	1	0	0	17.761	2.1499	16.789	0	0	0	0	0	0	0	0	0	0	0	0	0	0	0	10.994	-10.994	19.042	0	0	0	0	0	0	0	0	0	2
10215	102.15	0	0	0	0	0	0	10.917	-10.917	18.908	0	0	0	0	0	0	0	0	0	0	0	0	1	0	0	17.755	2.1475	16.785	0	0	0	1	0	0	17.761	2.1499	16.789	0	0	0	0	0	0	0	0	0	0	0	0	0	0	0	10.994	-10.994	19.042	0	0	0	1	0	0	17.47	2.0148	16.554	2
10216	102.16	0	0	0	0	0	0	10.917	-10.917	18.908	0	0	0	0	0	0	0	0	0	0	0	0	1	0	0	17.755	2.1475	16.785	0	0	0	1	0	0	17.761	2.1499	16.789	0	0	0	0	0	0	0	0	0	0	0	0	0	0	0	0	0	0	0	0	0	1	0	0	17.47	2.0148	16.554	2
10217	102.17	0	0	0	0	0	0	10.917	-10.917	18.908	0	0	0	0	0	0	0	0	0	0	0	0	1	0	0	17.755	2.1475	16.785	0	0	0	1	0	0	17.761	2.1499	16.789	0	0	0	1	0	0	17.883	2.027	16.961	0	0	0	0	0	0	0	0	0	0	0	0	0	0	0	0	0	0	2
10218	102.18	0	0	0	0	0	0	10.917	-10.917	18.908	0	0	0	0	0	0	0	0	0	0	0	0	0	0	0	20.079	19.73	19.907	0	0	0	1	0	0	17.761	2.1499	16.789	0	0	0	0	0	0	0	0	0	0	0	0	0	0	0	10.994	-10.994	19.042	0	0	0	1	0	0	17.47	2.0148	16.554	2
10219	102.19	0	0	0	0	0	0	0	0	0	0	0	0	0	0	0	0	0	0	0	0	0	1	0	0	17.755	2.1475	16.785	0	0	0	1	0	0	17.761	2.1499	16.789	0	0	0	0	0	0	0	0	0	0	0	0	0	0	0	0	0	0	0	0	0	0	0	0	0	0	0	2
10220	102.2	0	0	0	0	0	0	10.917	-10.917	18.908	0	0	0	0	0	0	0	0	0	0	0	0	1	0	0	17.755	2.1475	16.785	0	0	0	1	0	0	17.761	2.1499	16.789	0	0	0	0	0	0	0	0	0	0	0	0	0	0	0	0	0	0	0	0	0	0	0	0	0	0	0	2
10221	102.21	0	0	0	0	0	0	0	0	0	0	0	0	0	0	0	0	0	0	0	0	0	1	0	0	17.755	2.1475	16.785	0	0	0	1	0	0	17.761	2.1499	16.789	0	0	0	0	0	0	0	0	0	0	0	0	0	0	0	0	0	0	0	0	0	1	0	0	17.47	2.0148	16.554	2
10222	102.22	0	0	0	0	0	0	10.917	-10.917	18.908	0	0	0	0	0	0	0	0	0	0	0	0	1	0	0	17.755	2.1475	16.785	0	0	0	1	0	0	17.761	2.1499	16.789	0	0	0	1	0	0	17.883	2.027	16.961	0	0	0	0	0	0	0	0	0	0	0	0	0	0	0	0	0	0	2
10223	102.23	0	0	0	0	0	0	10.917	-10.917	18.908	0	0	0	0	0	0	0	0	0	0	0	0	1	0	0	17.755	2.1475	16.785	0	0	0	1	0	0	17.761	2.1499	16.789	0	0	0	0	0	0	0	0	0	0	0	0	0	0	0	10.994	-10.994	19.042	0	0	0	1	0	0	17.47	2.0148	16.554	2
10224	102.24	0	0	0	0	0	0	10.917	-10.917	18.908	0	0	0	0	0	0	0	0	0	0	0	0	1	0	0	17.755	2.1475	16.785	0	0	0	1	0	0	17.761	2.1499	16.789	0	0	0	0	0	0	0	0	0	0	0	0	0	0	0	0	0	0	0	0	0	0	0	0	0	0	0	2
10225	102.25	0	0	0	0	0	0	10.917	-10.917	18.908	0	0	0	0	0	0	0	0	0	0	0	0	1	0	0	17.755	2.1475	16.785	0	0	0	1	0	0	17.761	2.1499	16.789	0	0	0	1	0	0	17.883	2.027	16.961	0	0	0	0	0	0	0	0	0	0	0	0	0	0	0	0	0	0	2
10226	102.26	0	0	0	0	0	0	10.917	-10.917	18.908	0	0	0	0	0	0	0	0	0	0	0	0	1	0	0	17.755	2.1475	16.785	0	0	0	1	0	0	17.761	2.1499	16.789	0	0	0	0	0	0	0	0	0	0	0	0	0	0	0	0	0	0	0	0	0	0	0	0	0	0	0	2
10227	102.27	0	0	0	0	0	0	10.917	-10.917	18.908	0	0	0	0	0	0	0	0	0	0	0	0	1	0	0	17.755	2.1475	16.785	0	0	0	1	0	0	17.761	2.1499	16.789	0	0	0	0	0	0	0	0	0	0	0	0	0	0	0	0	0	0	0	0	0	0	0	0	0	0	0	2
10228	102.28	0	0	0	0	0	0	10.917	-10.917	18.908	0	0	0	0	0	0	0	0	0	0	0	0	1	0	0	17.755	2.1475	16.785	0	0	0	1	0	0	17.761	2.1499	16.789	0	0	0	1	0	0	17.883	2.027	16.961	0	0	0	0	0	0	0	0	0	0	0	0	0	0	0	0	0	0	2
10229	102.29	0	0	0	0	0	0	0	0	0	0	0	0	0	0	0	0	0	0	0	0	0	1	0	0	17.755	2.1475	16.785	0	0	0	1	0	0	17.761	2.1499	16.789	0	0	0	0	0	0	0	0	0	0	0	0	0	-1	0	-2.0278	-17.891	16.968	0	0	0	0	0	0	0	0	0	2
10230	102.3	0	0	0	0	0	0	10.917	-10.917	18.908	0	0	0	0	0	0	0	0	0	0	0	0	1	0	0	17.755	2.1475	16.785	0	0	0	1	0	0	17.761	2.1499	16.789	0	0	0	0	0	0	0	0	0	0	0	0	1	-1	0	7.5503	-27.469	31.921	0	0	0	0	0	0	0	0	0	2
10231	102.31	0	0	0	0	0	0	0	0	0	0	0	0	0	0	0	0	0	0	0	0	0	1	0	0	17.755	2.1475	16.785	0	0	0	1	0	0	17.761	2.1499	16.789	0	0	0	0	0	0	0	0	0	0	0	0	0	0	0	0	0	0	0	0	0	0	0	0	0	0	0	2
10232	102.32	0	0	0	0	0	0	10.917	-10.917	18.908	0	0	0	0	0	0	0	0	0	0	0	0	1	0	0	17.755	2.1475	16.785	0	0	0	1	0	0	17.761	2.1499	16.789	0	0	0	0	0	0	0	0	0	0	0	0	0	-1	0	-2.0278	-17.891	16.968	0	0	0	0	0	0	0	0	0	2
10233	102.33	0	0	0	0	0	0	0	0	0	0	0	0	0	0	0	0	0	0	0	0	0	1	0	0	17.755	2.1475	16.785	0	0	0	1	0	0	17.761	2.1499	16.789	0	0	0	0	0	0	0	0	0	0	0	0	0	0	0	0	0	0	0	0	0	1	0	0	17.47	2.0148	16.554	2
10234	102.34	0	0	0	0	0	0	10.917	-10.917	18.908	0	0	0	0	0	0	0	0	0	0	0	0	0	0	0	10.989	-10.989	19.033	0	0	0	1	0	0	17.761	2.1499	16.789	0	0	0	0	0	0	0	0	0	0	0	0	0	-1	0	-2.0278	-17.891	16.968	0	0	0	0	0	0	0	0	0	2
10235	102.35	0	0	0	0	0	0	10.917	-10.917	18.908	0	0	0	0	0	0	0	0	0	0	0	0	1	0	0	17.755	2.1475	16.785	0	0	0	1	0	0	17.761	2.1499	16.789	0	0	0	1	0	0	17.883	2.027	16.961	0	0	0	0	0	0	0	0	0	0	0	0	0	0	0	0	0	0	2
10236	102.36	0	0	0	0	0	0	0	0	0	0	0	0	0	0	0	0	0	0	0	0	0	1	0	0	17.755	2.1475	16.785	0	0	0	1	0	0	17.761	2.1499	16.789	0	0	0	0	0	0	0	0	0	0	0	0	0	0	0	0	0	0	0	0	0	1	0	0	17.47	2.0148	16.554	2
10237	102.37	0	0	0	0	0	0	10.917	-10.917	18.908	0	0	0	0	0	0	0	0	0	0	0	0	1	0	0	17.755	2.1475	16.785	0	0	0	1	0	0	17.761	2.1499	16.789	0	0	0	0	0	0	0	0	0	0	0	0	0	0	0	0	0	0	0	0	0	0	0	0	0	0	0	2
10238	102.38	0	0	0	0	0	0	10.917	-10.917	18.908	0	0	0	0	0	0	0	0	0	0	0	0	1	0	0	17.755	2.1475	16.785	0	0	0	1	0	0	17.761	2.1499	16.789	0	0	0	1	0	0	17.883	2.027	16.961	0	0	0	0	0	0	0	0	0	0	0	0	1	0	0	17.47	2.0148	16.554	2
10239	102.39	0	0	0	0	0	0	0	0	0	0	0	0	0	0	0	0	0	0	0	0	0	1	0	0	17.755	2.1475	16.785	0	0	0	1	0	0	17.761	2.1499	16.789	0	0	0	0	0	0	0	0	0	0	0	0	0	0	0	0	0	0	0	0	0	1	0	0	17.47	2.0148	16.554	2
10240	102.4	0	0	0	0	0	0	10.917	-10.917	18.908	0	0	0	0	0	0	0	0	0	0	0	0	1	0	0	17.755	2.1475	16.785	0	0	0	1	0	0	17.761	2.1499	16.789	0	0	0	1	0	0	17.883	2.027	16.961	0	0	0	0	-1	0	-2.0278	-17.891	16.968	0	0	0	1	0	0	17.47	2.0148	16.554	2
10241	102.41	0	0	0	0	0	0	0	0	0	0	0	0	0	0	0	0	0	0	0	0	0	1	0	0	17.755	2.1475	16.785	0	0	0	1	0	0	17.761	2.1499	16.789	0	0	0	0	0	0	0	0	0	0	0	0	0	0	0	0	0	0	0	0	0	0	0	0	0	0	0	2
10242	102.42	0	0	0	0	0	0	0	0	0	0	0	0	0	0	0	0	0	0	0	0	0	1	0	0	17.755	2.1475	16.785	0	0	0	1	0	0	17.761	2.1499	16.789	0	0	0	1	0	0	17.883	2.027	16.961	0	0	0	1	-1	0	7.5503	-27.469	31.921	0	0	0	1	0	0	17.47	2.0148	16.554	2
10243	102.43	0	0	0	0	0	0	0	0	0	0	0	0	0	0	0	0	0	0	0	0	0	0	0	0	20.079	19.73	19.907	0	0	0	1	0	0	17.761	2.1499	16.789	0	0	0	0	0	0	0	0	0	0	0	0	0	0	0	0	0	0	0	0	0	1	0	0	17.47	2.0148	16.554	2
10244	102.44	0	0	0	0	0	0	0	0	0	0	0	0	0	0	0	0	0	0	0	0	0	1	0	0	17.755	2.1475	16.785	0	0	0	1	0	0	17.761	2.1499	16.789	0	0	0	1	0	0	17.883	2.027	16.961	0	0	0	0	0	0	0	0	0	0	0	0	0	0	0	0	0	0	2
10245	102.45	0	0	0	0	0	0	0	0	0	0	0	0	0	0	0	0	0	0	0	0	0	1	0	0	17.755	2.1475	16.785	0	0	0	1	0	0	17.761	2.1499	16.789	0	0	0	1	0	0	17.883	2.027	16.961	0	0	0	0	0	0	0	0	0	0	0	0	1	0	0	17.47	2.0148	16.554	2
10246	102.46	0	0	0	0	0	0	10.917	-10.917	18.908	0	0	0	0	0	0	0	0	0	0	0	0	1	0	0	17.755	2.1475	16.785	0	0	0	1	0	0	17.761	2.1499	16.789	0	0	0	0	0	0	0	0	0	0	0	0	0	0	0	0	0	0	0	0	0	0	0	0	0	0	0	2
10247	102.47	0	0	0	0	0	0	10.917	-10.917	18.908	0	0	0	0	0	0	0	0	0	0	0	0	1	0	0	17.755	2.1475	16.785	0	0	0	1	0	0	17.761	2.1499	16.789	0	0	0	0	0	0	0	0	0	0	0	0	0	0	0	10.994	-10.994	19.042	0	0	0	0	0	0	0	0	0	2
10248	102.48	0	0	0	0	0	0	10.917	-10.917	18.908	0	0	0	0	0	0	10.918	-10.918	18.911	0	0	0	1	0	0	17.755	2.1475	16.785	0	0	0	1	0	0	17.761	2.1499	16.789	0	0	0	1	0	0	17.883	2.027	16.961	0	0	0	0	0	0	0	0	0	0	0	0	1	0	0	17.47	2.0148	16.554	2
10249	102.49	0	0	0	0	0	0	0	0	0	0	0	0	0	0	0	0	0	0	0	0	0	1	0	0	17.755	2.1475	16.785	0	0	0	1	0	0	17.761	2.1499	16.789	0	0	0	0	0	0	0	0	0	0	0	0	0	-1	0	-2.0278	-17.891	16.968	0	0	0	0	0	0	0	0	0	2
10250	102.5	0	0	0	0	0	0	10.917	-10.917	18.908	0	0	0	0	0	0	0	0	0	0	0	0	1	0	0	17.755	2.1475	16.785	0	0	0	1	0	0	17.761	2.1499	16.789	0	0	0	1	0	0	17.883	2.027	16.961	0	0	0	0	-1	0	-2.0278	-17.891	16.968	0	0	0	0	0	0	0	0	0	0
10251	102.51	0	0	0	0	0	0	0	0	0	0	0	0	0	0	0	0	0	0	0	0	0	1	0	0	17.755	2.1475	16.785	0	0	0	1	0	0	17.761	2.1499	16.789	0	0	0	0	0	0	0	0	0	0	0	0	0	0	0	0	0	0	0	0	0	0	0	0	0	0	0	2
10252	102.52	0	0	0	0	0	0	10.917	-10.917	18.908	0	0	0	0	0	0	0	0	0	0	0	0	1	0	0	17.755	2.1475	16.785	0	0	0	1	0	0	17.761	2.1499	16.789	0	0	0	0	0	0	0	0	0	0	0	0	0	0	0	0	0	0	0	0	0	0	0	0	0	0	0	2
10253	102.53	0	0	0	0	0	0	10.917	-10.917	18.908	0	0	0	0	0	0	0	0	0	0	0	0	1	0	0	17.755	2.1475	16.785	0	0	0	1	0	0	17.761	2.1499	16.789	0	0	0	1	0	0	17.883	2.027	16.961	0	0	0	0	-1	0	-2.0278	-17.891	16.968	0	0	0	0	0	0	0	0	0	2
10254	102.54	0	0	0	0	0	0	10.917	-10.917	18.908	0	0	0	0	0	0	0	0	0	0	0	0	1	0	0	17.755	2.1475	16.785	0	0	0	1	0	0	17.761	2.1499	16.789	0	0	0	0	0	0	0	0	0	0	0	0	0	0	0	0	0	0	0	0	0	0	0	0	0	0	0	2
10255	102.55	0	0	0	0	-1	0	-2.0364	-17.814	16.888	0	0	0	0	0	0	0	0	0	0	0	0	1	0	0	17.755	2.1475	16.785	0	0	0	1	0	0	17.761	2.1499	16.789	0	0	0	1	0	0	17.883	2.027	16.961	0	0	0	0	0	0	0	0	0	0	0	0	1	0	0	17.47	2.0148	16.554	2
10256	102.56	0	0	0	0	0	0	10.917	-10.917	18.908	0	0	0	0	0	0	0	0	0	0	0	0	1	0	0	17.755	2.1475	16.785	0	0	0	1	0	0	17.761	2.1499	16.789	0	0	0	1	0	0	17.883	2.027	16.961	0	0	0	0	0	0	0	0	0	0	0	0	0	0	0	0	0	0	2
10257	102.57	0	0	0	0	0	0	10.917	-10.917	18.908	0	0	0	0	0	0	0	0	0	0	0	0	1	0	0	17.755	2.1475	16.785	0	0	0	1	0	0	17.761	2.1499	16.789	0	0	0	1	0	0	17.883	2.027	16.961	0	0	0	0	0	0	10.994	-10.994	19.042	0	0	0	1	0	0	17.47	2.0148	16.554	2
10258	102.58	0	0	0	0	0	0	0	0	0	0	0	0	0	0	0	0	0	0	0	0	0	1	0	0	17.755	2.1475	16.785	0	0	0	1	0	0	17.761	2.1499	16.789	0	0	0	1	0	0	17.883	2.027	16.961	0	0	0	0	-1	0	-2.0278	-17.891	16.968	0	0	0	1	0	0	17.47	2.0148	16.554	2
10259	102.59	0	0	0	0	0	0	10.917	-10.917	18.908	0	0	0	0	0	0	0	0	0	0	0	0	0	0	0	10.989	-10.989	19.033	0	0	0	1	0	0	17.761	2.1499	16.789	0	0	0	0	0	0	0	0	0	0	0	0	0	-1	0	-2.0278	-17.891	16.968	0	0	0	0	0	0	0	0	0	2
10260	102.6	0	0	0	0	0	0	10.917	-10.917	18.908	0	0	0	0	0	0	0	0	0	0	0	0	1	0	0	17.755	2.1475	16.785	0	0	0	1	0	0	17.761	2.1499	16.789	0	0	0	1	0	0	17.883	2.027	16.961	0	0	0	0	0	0	0	0	0	0	0	0	1	0	0	17.47	2.0148	16.554	2
10261	102.61	0	0	0	0	0	0	10.917	-10.917	18.908	0	0	0	0	0	0	0	0	0	0	0	0	1	0	0	17.755	2.1475	16.785	0	0	0	1	0	0	17.761	2.1499	16.789	0	0	0	0	0	0	0	0	0	0	0	0	0	0	0	0	0	0	0	0	0	0	0	0	0	0	0	2
10262	102.62	0	0	0	0	0	0	10.917	-10.917	18.908	0	0	0	0	0	0	0	0	0	0	0	0	1	0	0	17.755	2.1475	16.785	0	0	0	1	0	0	17.761	2.1499	16.789	0	0	0	0	0	0	0	0	0	0	0	0	0	0	0	0	0	0	0	0	0	0	0	0	0	0	0	2
10263	102.63	0	0	0	0	0	0	0	0	0	0	0	0	0	0	0	0	0	0	0	0	0	1	0	0	17.755	2.1475	16.785	0	0	0	1	0	0	17.761	2.1499	16.789	0	0	0	0	0	0	0	0	0	0	0	0	0	0	0	10.994	-10.994	19.042	0	0	0	1	0	0	17.47	2.0148	16.554	2
10264	102.64	0	0	0	0	0	0	10.917	-10.917	18.908	0	0	0	0	0	0	0	0	0	0	0	0	1	0	0	17.755	2.1475	16.785	0	0	0	1	0	0	17.761	2.1499	16.789	0	0	0	0	0	0	0	0	0	0	0	0	0	0	0	0	0	0	0	0	0	0	0	0	0	0	0	2
10265	102.65	0	0	0	0	0	0	0	0	0	0	0	0	0	0	0	0	0	0	0	0	0	1	0	0	17.755	2.1475	16.785	0	0	0	1	0	0	17.761	2.1499	16.789	0	0	0	1	0	0	17.883	2.027	16.961	0	0	0	0	0	0	0	0	0	0	0	0	0	0	0	0	0	0	2
10266	102.66	0	0	0	0	0	0	10.917	-10.917	18.908	0	0	0	0	0	0	0	0	0	0	0	0	1	0	0	17.755	2.1475	16.785	0	0	0	1	0	0	17.761	2.1499	16.789	0	0	0	0	0	0	0	0	0	0	0	0	0	-1	0	-2.0278	-17.891	16.968	0	0	0	1	0	0	17.47	2.0148	16.554	2
10267	102.67	0	0	0	0	0	0	10.917	-10.917	18.908	0	0	0	0	0	0	0	0	0	0	0	0	1	0	0	17.755	2.1475	16.785	0	0	0	1	0	0	17.761	2.1499	16.789	0	0	0	0	0	0	0	0	0	0	0	0	0	0	0	10.994	-10.994	19.042	0	0	0	0	0	0	0	0	0	2
10268	102.68	0	0	0	0	0	0	0	0	0	0	0	0	0	0	0	0	0	0	0	0	0	1	0	0	17.755	2.1475	16.785	0	0	0	1	0	0	17.761	2.1499	16.789	0	0	0	0	0	0	0	0	0	0	0	0	0	0	0	0	0	0	0	0	0	0	0	0	0	0	0	2
10269	102.69	0	0	0	0	0	0	0	0	0	0	0	0	0	0	0	0	0	0	0	0	0	1	0	0	17.755	2.1475	16.785	0	0	0	1	0	0	17.761	2.1499	16.789	0	0	0	0	0	0	0	0	0	0	0	0	0	0	0	0	0	0	0	0	0	0	0	0	0	0	0	2
10270	102.7	0	0	0	0	0	0	10.917	-10.917	18.908	0	0	0	0	0	0	0	0	0	0	0	0	1	0	0	17.755	2.1475	16.785	0	0	0	1	0	0	17.761	2.1499	16.789	0	0	0	0	0	0	0	0	0	0	0	0	0	0	0	0	0	0	0	0	0	1	0	0	17.47	2.0148	16.554	2
10271	102.71	0	0	0	0	0	0	0	0	0	0	0	0	0	0	0	0	0	0	0	0	0	1	0	0	17.755	2.1475	16.785	0	0	0	1	0	0	17.761	2.1499	16.789	0	0	0	1	0	0	17.883	2.027	16.961	0	0	0	0	0	0	0	0	0	0	0	0	0	0	0	0	0	0	2
10272	102.72	0	0	0	0	0	0	10.917	-10.917	18.908	0	0	0	0	0	0	0	0	0	0	0	0	1	0	0	17.755	2.1475	16.785	0	0	0	1	0	0	17.761	2.1499	16.789	0	0	0	0	0	0	0	0	0	0	0	0	0	-1	0	-2.0278	-17.891	16.968	0	0	0	0	0	0	0	0	0	2
10273	102.73	0	0	0	0	0	0	0	0	0	0	0	0	0	0	0	0	0	0	0	0	0	1	0	0	17.755	2.1475	16.785	0	0	0	1	0	0	17.761	2.1499	16.789	0	0	0	0	0	0	0	0	0	0	0	0	0	-1	0	-2.0278	-17.891	16.968	0	0	0	1	0	0	17.47	2.0148	16.554	0
10274	102.74	0	0	0	0	0	0	10.917	-10.917	18.908	0	0	0	0	0	0	0	0	0	0	0	0	0	0	0	10.989	-10.989	19.033	0	0	0	1	0	0	17.761	2.1499	16.789	0	0	0	0	0	0	0	0	0	0	0	0	0	-1	0	-2.0278	-17.891	16.968	0	0	0	0	0	0	0	0	0	2
10275	102.75	0	0	0	0	0	0	10.917	-10.917	18.908	0	0	0	0	0	0	0	0	0	0	0	0	1	0	0	17.755	2.1475	16.785	0	0	0	1	0	0	17.761	2.1499	16.789	0	0	0	0	0	0	0	0	0	0	0	0	1	-1	0	7.5503	-27.469	31.921	0	0	0	0	0	0	0	0	0	2
10276	102.76	0	0	0	0	0	0	10.917	-10.917	18.908	0	0	0	0	0	0	0	0	0	0	0	0	1	0	0	17.755	2.1475	16.785	0	0	0	1	0	0	17.761	2.1499	16.789	0	0	0	0	0	0	0	0	0	0	0	0	0	-1	0	-2.0278	-17.891	16.968	0	0	0	0	0	0	0	0	0	2
10277	102.77	0	0	0	0	0	0	0	0	0	0	0	0	0	0	0	0	0	0	0	0	0	1	0	0	17.755	2.1475	16.785	0	0	0	1	0	0	17.761	2.1499	16.789	0	0	0	0	0	0	0	0	0	0	0	0	0	0	0	10.994	-10.994	19.042	0	0	0	0	0	0	0	0	0	2
10278	102.78	0	0	0	0	0	0	10.917	-10.917	18.908	0	0	0	0	0	0	0	0	0	0	0	0	1	0	0	17.755	2.1475	16.785	0	0	0	1	0	0	17.761	2.1499	16.789	0	0	0	0	0	0	0	0	0	0	0	0	0	0	0	10.994	-10.994	19.042	0	0	0	0	0	0	0	0	0	2
10279	102.79	0	0	0	0	0	0	0	0	0	0	0	0	0	0	0	0	0	0	0	0	0	1	0	0	17.755	2.1475	16.785	0	0	0	1	0	0	17.761	2.1499	16.789	0	0	0	0	0	0	0	0	0	0	0	0	0	0	0	10.994	-10.994	19.042	0	0	0	0	0	0	0	0	0	2
10280	102.8	0	0	0	0	0	0	10.917	-10.917	18.908	0	0	0	0	0	0	0	0	0	0	0	0	1	0	0	17.755	2.1475	16.785	0	0	0	1	0	0	17.761	2.1499	16.789	0	0	0	0	0	0	0	0	0	0	0	0	0	0	0	0	0	0	0	0	0	0	0	0	0	0	0	2
10281	102.81	0	0	0	0	0	0	10.917	-10.917	18.908	0	0	0	0	0	0	0	0	0	0	0	0	1	0	0	17.755	2.1475	16.785	0	0	0	1	0	0	17.761	2.1499	16.789	0	0	0	0	0	0	0	0	0	0	0	0	0	0	0	10.994	-10.994	19.042	0	0	0	0	0	0	0	0	0	2
10282	102.82	0	0	0	0	0	0	0	0	0	0	0	0	0	0	0	0	0	0	0	0	0	0	0	0	10.989	-10.989	19.033	0	0	0	1	0	0	17.761	2.1499	16.789	0	0	0	0	0	0	0	0	0	0	0	0	0	0	0	0	0	0	0	0	0	0	0	0	0	0	0	2
10283	102.83	0	0	0	0	0	0	0	0	0	0	0	0	0	0	0	0	0	0	0	0	0	1	0	0	17.755	2.1475	16.785	0	0	0	1	0	0	17.761	2.1499	16.789	0	0	0	1	0	0	17.883	2.027	16.961	0	0	0	0	-1	0	-2.0278	-17.891	16.968	0	0	0	0	0	0	0	0	0	2
10284	102.84	0	0	0	0	0	0	10.917	-10.917	18.908	0	0	0	0	0	0	0	0	0	0	0	0	1	0	0	17.755	2.1475	16.785	0	0	0	1	0	0	17.761	2.1499	16.789	0	0	0	0	0	0	0	0	0	0	0	0	0	0	0	0	0	0	0	0	0	0	0	0	0	0	0	2
10285	102.85	0	0	0	0	0	0	10.917	-10.917	18.908	0	0	0	0	0	0	0	0	0	0	0	0	1	0	0	17.755	2.1475	16.785	0	0	0	1	0	0	17.761	2.1499	16.789	0	0	0	0	0	0	0	0	0	0	0	0	0	0	0	0	0	0	0	0	0	0	0	0	0	0	0	2
10286	102.86	0	0	0	0	0	0	0	0	0	0	0	0	0	0	0	0	0	0	0	0	0	1	0	0	17.755	2.1475	16.785	0	0	0	1	0	0	17.761	2.1499	16.789	0	0	0	1	0	0	17.883	2.027	16.961	0	0	0	0	0	0	0	0	0	0	0	0	1	0	0	17.47	2.0148	16.554	2
10287	102.87	0	0	0	0	0	0	10.917	-10.917	18.908	0	0	0	0	0	0	0	0	0	0	0	0	1	0	0	17.755	2.1475	16.785	0	0	0	1	0	0	17.761	2.1499	16.789	0	0	0	0	0	0	0	0	0	0	0	0	0	0	0	10.994	-10.994	19.042	0	0	0	0	0	0	0	0	0	2
10288	102.88	0	0	0	0	0	0	0	0	0	0	0	0	0	0	0	0	0	0	0	0	0	1	0	0	17.755	2.1475	16.785	0	0	0	1	0	0	17.761	2.1499	16.789	0	0	0	1	0	0	17.883	2.027	16.961	0	0	0	0	0	0	0	0	0	0	0	0	0	0	0	0	0	0	2
10289	102.89	0	0	0	0	0	0	10.917	-10.917	18.908	0	0	0	0	0	0	0	0	0	0	0	0	1	0	0	17.755	2.1475	16.785	0	0	0	1	0	0	17.761	2.1499	16.789	0	0	0	0	0	0	0	0	0	0	0	0	0	0	0	10.994	-10.994	19.042	0	0	0	0	0	0	0	0	0	2
10290	102.9	0	0	0	0	0	0	0	0	0	0	0	0	0	0	0	0	0	0	0	0	0	1	0	0	17.755	2.1475	16.785	0	0	0	1	0	0	17.761	2.1499	16.789	0	0	0	0	0	0	0	0	0	0	0	0	0	0	0	0	0	0	0	0	0	1	0	0	17.47	2.0148	16.554	2
10291	102.91	0	0	0	0	0	0	10.917	-10.917	18.908	0	0	0	0	0	0	0	0	0	0	0	0	1	0	0	17.755	2.1475	16.785	0	0	0	1	0	0	17.761	2.1499	16.789	0	0	0	0	0	0	0	0	0	0	0	0	0	0	0	10.994	-10.994	19.042	0	0	0	0	0	0	0	0	0	2
10292	102.92	0	0	0	0	0	0	10.917	-10.917	18.908	0	0	0	0	0	0	0	0	0	0	0	0	1	0	0	17.755	2.1475	16.785	0	0	0	1	0	0	17.761	2.1499	16.789	0	0	0	0	0	0	0	0	0	0	0	0	0	0	0	0	0	0	0	0	0	0	0	0	0	0	0	2
10293	102.93	0	0	0	0	0	0	10.917	-10.917	18.908	0	0	0	0	0	0	0	0	0	0	0	0	1	0	0	17.755	2.1475	16.785	0	0	0	1	0	0	17.761	2.1499	16.789	0	0	0	0	0	0	0	0	0	0	0	0	0	0	0	10.994	-10.994	19.042	0	0	0	1	0	0	17.47	2.0148	16.554	2
10294	102.94	0	0	0	0	0	0	0	0	0	0	0	0	0	0	0	0	0	0	0	0	0	1	0	0	17.755	2.1475	16.785	0	0	0	1	0	0	17.761	2.1499	16.789	0	0	0	0	0	0	0	0	0	0	0	0	0	-1	0	-2.0278	-17.891	16.968	0	0	0	0	0	0	0	0	0	2
10295	102.95	0	0	0	0	0	0	10.917	-10.917	18.908	0	0	0	0	0	0	0	0	0	0	0	0	1	0	0	17.755	2.1475	16.785	0	0	0	1	0	0	17.761	2.1499	16.789	0	0	0	1	0	0	17.883	2.027	16.961	0	0	0	0	0	0	0	0	0	0	0	0	0	0	0	0	0	0	3
10296	102.96	0	0	0	0	0	0	10.917	-10.917	18.908	0	0	0	0	0	0	0	0	0	0	0	0	1	0	0	17.755	2.1475	16.785	0	0	0	1	0	0	17.761	2.1499	16.789	0	0	0	1	0	0	17.883	2.027	16.961	0	0	0	0	0	0	10.994	-10.994	19.042	0	0	0	0	0	0	0	0	0	2
10297	102.97	0	0	0	0	0	0	0	0	0	0	0	0	0	0	0	0	0	0	0	0	0	1	0	0	17.755	2.1475	16.785	0	0	0	1	0	0	17.761	2.1499	16.789	0	0	0	0	0	0	0	0	0	0	0	0	0	0	0	0	0	0	0	0	0	0	0	0	0	0	0	2
10298	102.98	0	0	0	0	0	0	10.917	-10.917	18.908	0	0	0	0	0	0	0	0	0	0	0	0	1	0	0	17.755	2.1475	16.785	0	0	0	1	0	0	17.761	2.1499	16.789	0	0	0	0	0	0	0	0	0	0	0	0	0	0	0	0	0	0	0	0	0	1	0	0	17.47	2.0148	16.554	2
10299	102.99	0	0	0	0	0	0	10.917	-10.917	18.908	0	0	0	0	0	0	0	0	0	0	0	0	1	0	0	17.755	2.1475	16.785	0	0	0	1	0	0	17.761	2.1499	16.789	0	0	0	1	0	0	17.883	2.027	16.961	0	0	0	0	0	0	0	0	0	0	0	0	0	0	0	0	0	0	2
10300	103	0	0	0	0	0	0	10.917	-10.917	18.908	0	0	0	0	0	0	0	0	0	0	0	0	1	0	0	17.755	2.1475	16.785	0	0	0	1	0	0	17.761	2.1499	16.789	0	0	0	1	0	0	17.883	2.027	16.961	0	0	0	0	0	0	0	0	0	0	0	0	0	0	0	0	0	0	2
10301	103.01	0	0	0	0	0	0	10.917	-10.917	18.908	0	0	0	0	0	0	0	0	0	0	0	0	1	0	0	17.755	2.1475	16.785	0	0	0	1	0	0	17.761	2.1499	16.789	0	0	0	0	0	0	0	0	0	0	0	0	0	0	0	10.994	-10.994	19.042	0	0	0	0	0	0	0	0	0	2
10302	103.02	0	0	0	0	0	0	10.917	-10.917	18.908	0	0	0	0	0	0	0	0	0	0	0	0	1	0	0	17.755	2.1475	16.785	0	0	0	1	0	0	17.761	2.1499	16.789	0	0	0	0	0	0	0	0	0	0	0	0	0	0	0	0	0	0	0	0	0	0	0	0	0	0	0	2
10303	103.03	0	0	0	0	0	0	0	0	0	0	0	0	0	0	0	0	0	0	0	0	0	1	0	0	17.755	2.1475	16.785	0	0	0	1	0	0	17.761	2.1499	16.789	0	0	0	0	0	0	0	0	0	0	0	0	0	0	0	10.994	-10.994	19.042	0	0	0	1	0	0	17.47	2.0148	16.554	2
10304	103.04	0	0	0	0	0	0	10.917	-10.917	18.908	0	0	0	0	0	0	0	0	0	0	0	0	1	0	0	17.755	2.1475	16.785	0	0	0	1	0	0	17.761	2.1499	16.789	0	0	0	0	0	0	0	0	0	0	0	0	0	-1	0	-2.0278	-17.891	16.968	0	0	0	0	0	0	0	0	0	2
10305	103.05	0	0	0	0	0	0	10.917	-10.917	18.908	0	0	0	0	0	0	0	0	0	0	0	0	1	0	0	17.755	2.1475	16.785	0	0	0	1	0	0	17.761	2.1499	16.789	0	0	0	0	0	0	0	0	0	0	0	0	0	0	0	0	0	0	0	0	0	1	0	0	17.47	2.0148	16.554	2
10306	103.06	0	0	0	0	0	0	10.917	-10.917	18.908	0	0	0	0	0	0	0	0	0	0	0	0	1	0	0	17.755	2.1475	16.785	0	0	0	1	0	0	17.761	2.1499	16.789	0	0	0	1	0	0	17.883	2.027	16.961	0	0	0	0	0	0	0	0	0	0	0	0	1	0	0	17.47	2.0148	16.554	2
10307	103.07	0	0	0	0	0	0	10.917	-10.917	18.908	0	0	0	0	0	0	0	0	0	0	0	0	1	0	0	17.755	2.1475	16.785	0	0	0	1	0	0	17.761	2.1499	16.789	0	0	0	0	0	0	0	0	0	0	0	0	0	-1	0	-2.0278	-17.891	16.968	0	0	0	0	0	0	0	0	0	2
10308	103.08	0	0	0	0	0	0	10.917	-10.917	18.908	0	0	0	0	0	0	0	0	0	0	0	0	1	0	0	17.755	2.1475	16.785	0	0	0	1	0	0	17.761	2.1499	16.789	0	0	0	0	0	0	0	0	0	0	0	0	0	0	0	0	0	0	0	0	0	1	0	0	17.47	2.0148	16.554	2
10309	103.09	0	0	0	0	0	0	10.917	-10.917	18.908	0	0	0	0	0	0	0	0	0	0	0	0	1	0	0	17.755	2.1475	16.785	0	0	0	1	0	0	17.761	2.1499	16.789	0	0	0	0	0	0	0	0	0	0	0	0	0	0	0	0	0	0	0	0	0	0	0	0	0	0	0	2
10310	103.1	0	0	0	0	0	0	10.917	-10.917	18.908	0	0	0	0	0	0	0	0	0	0	0	0	1	0	0	17.755	2.1475	16.785	0	0	0	1	0	0	17.761	2.1499	16.789	0	0	0	1	0	0	17.883	2.027	16.961	0	0	0	0	0	0	0	0	0	0	0	0	0	0	0	0	0	0	2
10311	103.11	0	0	0	0	0	0	10.917	-10.917	18.908	0	0	0	0	0	0	0	0	0	0	0	0	1	0	0	17.755	2.1475	16.785	0	0	0	1	0	0	17.761	2.1499	16.789	0	0	0	0	0	0	0	0	0	0	0	0	0	0	0	0	0	0	0	0	0	0	0	0	0	0	0	2
10312	103.12	0	0	0	0	0	0	10.917	-10.917	18.908	0	0	0	0	0	0	0	0	0	0	0	0	1	0	0	17.755	2.1475	16.785	0	0	0	1	0	0	17.761	2.1499	16.789	0	0	0	0	0	0	0	0	0	0	0	0	0	0	0	10.994	-10.994	19.042	0	0	0	0	0	0	0	0	0	2
10313	103.13	0	0	0	0	0	0	10.917	-10.917	18.908	0	0	0	0	0	0	0	0	0	0	0	0	1	0	0	17.755	2.1475	16.785	0	0	0	1	0	0	17.761	2.1499	16.789	0	0	0	1	0	0	17.883	2.027	16.961	0	0	0	0	0	0	0	0	0	0	0	0	1	0	0	17.47	2.0148	16.554	2
10314	103.14	0	0	0	0	0	0	0	0	0	0	0	0	0	0	0	0	0	0	0	0	0	1	0	0	17.755	2.1475	16.785	0	0	0	1	0	0	17.883	2.027	16.961	0	0	0	0	0	0	0	0	0	0	0	0	0	-1	0	-2.0278	-17.891	16.968	0	0	0	0	0	0	0	0	0	2
10315	103.15	0	0	0	0	0	0	10.917	-10.917	18.908	0	0	0	0	0	0	0	0	0	0	0	0	1	0	0	17.755	2.1475	16.785	0	0	0	1	0	0	17.761	2.1499	16.789	0	0	0	0	0	0	0	0	0	0	0	0	0	0	0	0	0	0	0	0	0	1	0	0	17.47	2.0148	16.554	2
10316	103.16	0	0	0	0	0	0	10.917	-10.917	18.908	0	0	0	0	0	0	0	0	0	0	0	0	1	0	0	17.755	2.1475	16.785	0	0	0	1	0	0	17.761	2.1499	16.789	0	0	0	0	0	0	0	0	0	0	0	0	0	0	0	0	0	0	0	0	0	0	0	0	0	0	0	2
10317	103.17	0	0	0	0	0	0	0	0	0	0	0	0	0	0	0	0	0	0	0	0	0	1	0	0	17.755	2.1475	16.785	0	0	0	1	0	0	17.761	2.1499	16.789	0	0	0	0	0	0	0	0	0	0	0	0	0	0	0	0	0	0	0	0	0	0	0	0	0	0	0	2
10318	103.18	0	0	0	0	0	0	0	0	0	0	0	0	0	0	0	0	0	0	0	0	0	1	0	0	17.755	2.1475	16.785	0	0	0	1	0	0	17.761	2.1499	16.789	0	0	0	1	0	0	17.883	2.027	16.961	0	0	0	0	0	0	0	0	0	0	0	0	1	0	0	17.47	2.0148	16.554	2
10319	103.19	0	0	0	0	0	0	0	0	0	0	0	0	0	0	0	0	0	0	0	0	0	1	0	0	17.755	2.1475	16.785	0	0	0	1	0	0	17.761	2.1499	16.789	0	0	0	0	0	0	0	0	0	0	0	0	0	0	0	0	0	0	0	0	0	0	0	0	0	0	0	2
10320	103.2	0	0	0	0	0	0	10.917	-10.917	18.908	0	0	0	0	0	0	0	0	0	0	0	0	1	0	0	17.755	2.1475	16.785	0	0	0	1	0	0	17.761	2.1499	16.789	0	0	0	1	0	0	17.883	2.027	16.961	0	0	0	0	0	0	10.994	-10.994	19.042	0	0	0	1	0	0	17.47	2.0148	16.554	2
10321	103.21	0	0	0	0	0	0	10.917	-10.917	18.908	0	0	0	0	0	0	0	0	0	0	0	0	1	0	0	17.755	2.1475	16.785	0	0	0	1	0	0	17.761	2.1499	16.789	0	0	0	0	0	0	0	0	0	0	0	0	0	0	0	0	0	0	0	0	0	0	0	0	0	0	0	2
10322	103.22	0	0	0	0	0	0	0	0	0	0	0	0	0	0	0	0	0	0	0	0	0	0	0	0	10.989	-10.989	19.033	0	0	0	1	0	0	17.761	2.1499	16.789	0	0	0	0	0	0	0	0	0	0	0	0	0	0	0	0	0	0	0	0	0	0	0	0	0	0	0	2
10323	103.23	0	0	0	0	0	0	10.917	-10.917	18.908	0	0	0	0	0	0	0	0	0	0	0	0	1	0	0	17.755	2.1475	16.785	0	0	0	1	0	0	17.761	2.1499	16.789	0	0	0	1	0	0	17.883	2.027	16.961	0	0	0	0	-1	0	-2.0278	-17.891	16.968	0	0	0	1	0	0	17.47	2.0148	16.554	2
10324	103.24	0	0	0	0	0	0	0	0	0	0	0	0	0	0	0	0	0	0	0	0	0	1	0	0	17.755	2.1475	16.785	0	0	0	1	0	0	17.761	2.1499	16.789	0	0	0	0	0	0	0	0	0	0	0	0	0	-1	0	-2.0278	-17.891	16.968	0	0	0	0	0	0	0	0	0	2
10325	103.25	0	0	0	0	0	0	10.917	-10.917	18.908	0	0	0	0	0	0	0	0	0	0	0	0	1	0	0	17.755	2.1475	16.785	0	0	0	1	0	0	17.761	2.1499	16.789	0	0	0	0	0	0	0	0	0	0	0	0	0	0	0	0	0	0	0	0	0	0	0	0	0	0	0	2
10326	103.26	0	0	0	0	0	0	0	0	0	0	0	0	0	0	0	0	0	0	0	0	0	1	0	0	17.755	2.1475	16.785	0	0	0	1	0	0	17.761	2.1499	16.789	0	0	0	0	0	0	0	0	0	0	0	0	0	0	0	0	0	0	0	0	0	1	0	0	17.47	2.0148	16.554	2
10327	103.27	0	0	0	0	0	0	0	0	0	0	0	0	0	0	0	0	0	0	0	0	0	1	0	0	17.755	2.1475	16.785	0	0	0	1	0	0	17.761	2.1499	16.789	0	0	0	1	0	0	17.883	2.027	16.961	0	0	0	0	0	0	0	0	0	0	0	0	0	0	0	0	0	0	2
10328	103.28	0	0	0	0	0	0	10.917	-10.917	18.908	0	0	0	0	0	0	0	0	0	0	0	0	1	0	0	17.755	2.1475	16.785	0	0	0	1	0	0	17.761	2.1499	16.789	0	0	0	1	0	0	17.883	2.027	16.961	0	0	0	0	0	0	10.994	-10.994	19.042	0	0	0	0	0	0	0	0	0	2
10329	103.29	0	0	0	0	0	0	0	0	0	0	0	0	0	0	0	0	0	0	0	0	0	0	0	0	20.079	19.73	19.907	0	0	0	1	0	0	17.761	2.1499	16.789	0	0	0	0	0	0	0	0	0	0	0	0	1	-1	0	7.5503	-27.469	31.921	0	0	0	0	0	0	0	0	0	2
10330	103.3	0	0	0	0	0	0	10.917	-10.917	18.908	0	0	0	0	0	0	0	0	0	0	0	0	1	0	0	17.755	2.1475	16.785	0	0	0	1	0	0	17.761	2.1499	16.789	0	0	0	0	0	0	0	0	0	0	0	0	0	0	0	0	0	0	0	0	0	0	0	0	0	0	0	2
10331	103.31	0	0	0	0	0	0	10.917	-10.917	18.908	0	0	0	0	0	0	0	0	0	0	0	0	1	0	0	17.755	2.1475	16.785	0	0	0	1	0	0	17.761	2.1499	16.789	0	0	0	1	0	0	17.883	2.027	16.961	0	0	0	0	-1	0	-2.0278	-17.891	16.968	0	0	0	0	0	0	0	0	0	2
10332	103.32	0	0	0	0	0	0	0	0	0	0	0	0	0	0	0	0	0	0	0	0	0	1	0	0	17.755	2.1475	16.785	0	0	0	1	0	0	17.761	2.1499	16.789	0	0	0	0	0	0	0	0	0	0	0	0	0	0	0	0	0	0	0	0	0	0	0	0	0	0	0	2
10333	103.33	0	0	0	0	0	0	10.917	-10.917	18.908	0	0	0	0	0	0	0	0	0	0	0	0	1	0	0	17.755	2.1475	16.785	0	0	0	1	0	0	17.761	2.1499	16.789	0	0	0	0	0	0	0	0	0	0	0	0	0	0	0	0	0	0	0	0	0	1	0	0	17.47	2.0148	16.554	2
10334	103.34	0	0	0	0	0	0	10.917	-10.917	18.908	0	0	0	0	0	0	0	0	0	0	0	0	1	0	0	17.755	2.1475	16.785	0	0	0	1	0	0	17.761	2.1499	16.789	0	0	0	0	0	0	0	0	0	0	0	0	0	0	0	0	0	0	0	0	0	0	0	0	0	0	0	2
10335	103.35	0	0	0	0	0	0	0	0	0	0	0	0	0	0	0	0	0	0	0	0	0	1	0	0	17.755	2.1475	16.785	0	0	0	1	0	0	17.761	2.1499	16.789	0	0	0	1	0	0	17.883	2.027	16.961	0	0	0	0	0	0	0	0	0	0	0	0	0	0	0	0	0	0	2
10336	103.36	0	0	0	0	0	0	10.917	-10.917	18.908	0	0	0	0	0	0	0	0	0	0	0	0	1	0	0	17.755	2.1475	16.785	0	0	0	1	0	0	17.761	2.1499	16.789	0	0	0	0	0	0	0	0	0	0	0	0	0	-1	0	-2.0278	-17.891	16.968	0	0	0	0	0	0	0	0	0	2
10337	103.37	0	0	0	0	0	0	10.917	-10.917	18.908	0	0	0	0	0	0	0	0	0	0	0	0	1	0	0	17.755	2.1475	16.785	0	0	0	1	0	0	17.761	2.1499	16.789	0	0	0	0	0	0	0	0	0	0	0	0	0	0	0	10.994	-10.994	19.042	0	0	0	1	0	0	17.47	2.0148	16.554	0
10338	103.38	0	0	0	0	0	0	10.917	-10.917	18.908	0	0	0	0	0	0	0	0	0	0	0	0	1	0	0	17.755	2.1475	16.785	0	0	0	1	0	0	17.761	2.1499	16.789	0	0	0	1	0	0	17.883	2.027	16.961	0	0	0	0	0	0	10.994	-10.994	19.042	0	0	0	1	0	0	17.47	2.0148	16.554	2
10339	103.39	0	0	0	0	0	0	0	0	0	0	0	0	0	0	0	0	0	0	0	0	0	1	0	0	17.755	2.1475	16.785	0	0	0	1	0	0	17.761	2.1499	16.789	0	0	0	0	0	0	0	0	0	0	0	0	0	-1	0	-2.0278	-17.891	16.968	0	0	0	0	0	0	0	0	0	2
10340	103.4	0	0	0	0	0	0	10.917	-10.917	18.908	0	0	0	0	0	0	0	0	0	0	0	0	1	0	0	17.755	2.1475	16.785	0	0	0	1	0	0	17.761	2.1499	16.789	0	0	0	1	0	0	17.883	2.027	16.961	0	0	0	0	0	0	10.994	-10.994	19.042	0	0	0	1	0	0	17.47	2.0148	16.554	2
10341	103.41	0	0	0	0	0	0	10.917	-10.917	18.908	0	0	0	0	0	0	0	0	0	0	0	0	1	0	0	17.755	2.1475	16.785	0	0	0	1	0	0	17.761	2.1499	16.789	0	0	0	1	0	0	17.883	2.027	16.961	0	0	0	0	0	0	0	0	0	0	0	0	1	0	0	17.47	2.0148	16.554	2
10342	103.42	0	0	0	0	0	0	0	0	0	0	0	0	0	0	0	0	0	0	0	0	0	1	0	0	17.755	2.1475	16.785	0	0	0	1	0	0	17.761	2.1499	16.789	0	0	0	1	0	0	17.883	2.027	16.961	0	0	0	1	-1	0	7.5503	-27.469	31.921	0	0	0	0	0	0	0	0	0	2
10343	103.43	0	0	0	0	0	0	0	0	0	0	0	0	0	0	0	0	0	0	0	0	0	1	0	0	17.755	2.1475	16.785	0	0	0	1	0	0	17.761	2.1499	16.789	0	0	0	1	0	0	17.883	2.027	16.961	0	0	0	0	0	0	10.994	-10.994	19.042	0	0	0	0	0	0	0	0	0	2
10344	103.44	0	0	0	0	0	0	10.917	-10.917	18.908	0	0	0	0	0	0	0	0	0	0	0	0	1	0	0	17.755	2.1475	16.785	0	0	0	1	0	0	17.761	2.1499	16.789	0	0	0	1	0	0	17.883	2.027	16.961	0	0	0	0	0	0	10.994	-10.994	19.042	0	0	0	0	0	0	0	0	0	2
10345	103.45	0	0	0	0	0	0	10.917	-10.917	18.908	0	0	0	0	0	0	0	0	0	0	0	0	1	0	0	17.755	2.1475	16.785	0	0	0	1	0	0	17.761	2.1499	16.789	0	0	0	0	0	0	0	0	0	0	0	0	0	0	0	0	0	0	0	0	0	1	0	0	17.47	2.0148	16.554	2
10346	103.46	0	0	0	0	0	0	0	0	0	0	0	0	0	0	0	0	0	0	0	0	0	1	0	0	17.755	2.1475	16.785	0	0	0	1	0	0	17.761	2.1499	16.789	0	0	0	1	0	0	17.883	2.027	16.961	0	0	0	0	-1	0	-2.0278	-17.891	16.968	0	0	0	1	0	0	17.47	2.0148	16.554	2
10347	103.47	0	0	0	0	0	0	10.917	-10.917	18.908	0	0	0	0	0	0	0	0	0	0	0	0	1	0	0	17.755	2.1475	16.785	0	0	0	1	0	0	17.761	2.1499	16.789	0	0	0	0	0	0	0	0	0	0	0	0	0	0	0	0	0	0	0	0	0	0	0	0	0	0	0	2
10348	103.48	0	0	0	0	0	0	0	0	0	0	0	0	0	0	0	0	0	0	0	0	0	1	0	0	17.755	2.1475	16.785	0	0	0	1	0	0	17.761	2.1499	16.789	0	0	0	1	0	0	17.883	2.027	16.961	0	0	0	0	0	0	0	0	0	0	0	0	1	0	0	17.47	2.0148	16.554	2
10349	103.49	0	0	0	0	0	0	0	0	0	0	0	0	0	0	0	0	0	0	0	0	0	1	0	0	17.755	2.1475	16.785	0	0	0	1	0	0	17.761	2.1499	16.789	0	0	0	0	0	0	0	0	0	0	0	0	0	0	0	0	0	0	0	0	0	1	0	0	17.47	2.0148	16.554	2
10350	103.5	0	0	0	0	0	0	10.917	-10.917	18.908	0	0	0	0	0	0	0	0	0	0	0	0	1	0	0	17.755	2.1475	16.785	0	0	0	1	0	0	17.761	2.1499	16.789	0	0	0	1	0	0	17.883	2.027	16.961	0	0	0	0	0	0	0	0	0	0	0	0	0	0	0	0	0	0	2
10351	103.51	0	0	0	0	0	0	0	0	0	0	0	0	0	0	0	0	0	0	0	0	0	0	0	0	10.989	-10.989	19.033	0	0	0	1	0	0	17.761	2.1499	16.789	0	0	0	0	0	0	0	0	0	0	0	0	0	-1	0	-2.0278	-17.891	16.968	0	0	0	1	0	0	17.47	2.0148	16.554	2
10352	103.52	0	0	0	0	0	0	10.917	-10.917	18.908	0	0	0	0	0	0	0	0	0	0	0	0	1	0	0	17.755	2.1475	16.785	0	0	0	1	0	0	17.761	2.1499	16.789	0	0	0	0	0	0	0	0	0	0	0	0	0	0	0	0	0	0	0	0	0	1	0	0	17.47	2.0148	16.554	2
10353	103.53	0	0	0	0	0	0	0	0	0	0	0	0	0	0	0	0	0	0	0	0	0	1	0	0	17.755	2.1475	16.785	0	0	0	1	0	0	17.761	2.1499	16.789	0	0	0	1	0	0	17.883	2.027	16.961	0	0	0	0	0	0	10.994	-10.994	19.042	0	0	0	0	0	0	0	0	0	2
10354	103.54	0	0	0	0	0	0	10.917	-10.917	18.908	0	0	0	0	0	0	0	0	0	0	0	0	1	0	0	17.755	2.1475	16.785	0	0	0	1	0	0	17.761	2.1499	16.789	0	0	0	0	0	0	0	0	0	0	0	0	0	0	0	0	0	0	0	0	0	0	0	0	0	0	0	2
10355	103.55	0	0	0	0	0	0	10.917	-10.917	18.908	0	0	0	0	0	0	0	0	0	0	0	0	1	0	0	17.755	2.1475	16.785	0	0	0	1	0	0	17.761	2.1499	16.789	0	0	0	0	0	0	0	0	0	0	0	0	0	0	0	0	0	0	0	0	0	1	0	0	17.47	2.0148	16.554	2
10356	103.56	0	0	0	0	0	0	10.917	-10.917	18.908	0	0	0	0	0	0	0	0	0	0	0	0	1	0	0	17.755	2.1475	16.785	0	0	0	1	0	0	17.761	2.1499	16.789	0	0	0	1	0	0	17.883	2.027	16.961	0	0	0	0	-1	0	-2.0278	-17.891	16.968	0	0	0	0	0	0	0	0	0	2
10357	103.57	0	0	0	0	0	0	0	0	0	0	0	0	0	0	0	0	0	0	0	0	0	1	0	0	17.755	2.1475	16.785	0	0	0	1	0	0	17.761	2.1499	16.789	0	0	0	1	0	0	17.883	2.027	16.961	0	0	0	0	0	0	0	0	0	0	0	0	0	0	0	0	0	0	2
10358	103.58	0	0	0	0	0	0	0	0	0	0	0	0	0	0	0	0	0	0	0	0	0	1	0	0	17.755	2.1475	16.785	0	0	0	1	0	0	17.761	2.1499	16.789	0	0	0	1	0	0	17.883	2.027	16.961	0	0	0	1	-1	0	7.5503	-27.469	31.921	0	0	0	0	0	0	0	0	0	0
10359	103.59	0	0	0	0	0	0	0	0	0	0	0	0	0	0	0	0	0	0	0	0	0	1	0	0	17.755	2.1475	16.785	0	0	0	1	0	0	17.761	2.1499	16.789	0	0	0	0	0	0	0	0	0	0	0	0	0	0	0	0	0	0	0	0	0	0	0	0	0	0	0	2
10360	103.6	0	0	0	0	0	0	0	0	0	0	0	0	0	0	0	0	0	0	0	0	0	1	0	0	17.755	2.1475	16.785	0	0	0	1	0	0	17.761	2.1499	16.789	0	0	0	1	0	0	17.883	2.027	16.961	0	0	0	0	0	0	0	0	0	0	0	0	1	0	0	17.47	2.0148	16.554	2
10361	103.61	0	0	0	0	0	0	10.917	-10.917	18.908	0	0	0	0	0	0	0	0	0	0	0	0	1	0	0	17.755	2.1475	16.785	0	0	0	1	0	0	17.761	2.1499	16.789	0	0	0	0	0	0	0	0	0	0	0	0	0	-1	0	-2.0278	-17.891	16.968	0	0	0	0	0	0	0	0	0	2
10362	103.62	0	0	0	0	0	0	0	0	0	0	0	0	0	0	0	0	0	0	0	0	0	1	0	0	17.755	2.1475	16.785	0	0	0	1	0	0	17.761	2.1499	16.789	0	0	0	0	0	0	0	0	0	0	0	0	0	-1	0	-2.0278	-17.891	16.968	0	0	0	1	0	0	17.47	2.0148	16.554	2
10363	103.63	0	0	0	0	0	0	10.917	-10.917	18.908	0	0	0	0	0	0	0	0	0	0	0	0	1	0	0	17.755	2.1475	16.785	0	0	0	1	0	0	17.761	2.1499	16.789	0	0	0	1	0	0	17.883	2.027	16.961	0	0	0	1	-1	0	7.5503	-27.469	31.921	0	0	0	1	0	0	17.47	2.0148	16.554	2
10364	103.64	0	0	0	0	0	0	10.917	-10.917	18.908	0	0	0	0	0	0	0	0	0	0	0	0	1	0	0	17.755	2.1475	16.785	0	0	0	1	0	0	17.761	2.1499	16.789	0	0	0	0	0	0	0	0	0	0	0	0	0	0	0	0	0	0	0	0	0	0	0	0	0	0	0	2
10365	103.65	0	0	0	0	0	0	10.917	-10.917	18.908	0	0	0	0	0	0	0	0	0	0	0	0	1	0	0	17.755	2.1475	16.785	0	0	0	1	0	0	17.761	2.1499	16.789	0	0	0	0	0	0	0	0	0	0	0	0	0	0	0	0	0	0	0	0	0	1	0	0	17.47	2.0148	16.554	2
10366	103.66	0	0	0	0	0	0	10.917	-10.917	18.908	0	0	0	0	0	0	0	0	0	0	0	0	1	0	0	17.755	2.1475	16.785	0	0	0	1	0	0	17.761	2.1499	16.789	0	0	0	0	0	0	0	0	0	0	0	0	0	0	0	0	0	0	0	0	0	0	0	0	0	0	0	2
10367	103.67	0	0	0	0	0	0	0	0	0	0	0	0	0	0	0	0	0	0	0	0	0	1	0	0	17.755	2.1475	16.785	0	0	0	1	0	0	17.761	2.1499	16.789	0	0	0	0	0	0	0	0	0	0	0	0	0	0	0	0	0	0	0	0	0	1	0	0	17.47	2.0148	16.554	2
10368	103.68	0	0	0	0	0	0	0	0	0	0	0	0	0	0	0	0	0	0	0	0	0	1	0	0	17.755	2.1475	16.785	0	0	0	1	0	0	17.761	2.1499	16.789	0	0	0	1	0	0	17.883	2.027	16.961	0	0	0	0	0	0	0	0	0	0	0	0	1	0	0	17.47	2.0148	16.554	2
10369	103.69	0	0	0	0	0	0	10.917	-10.917	18.908	0	0	0	0	0	0	0	0	0	0	0	0	1	0	0	17.755	2.1475	16.785	0	0	0	1	0	0	17.761	2.1499	16.789	0	0	0	0	0	0	0	0	0	0	0	0	0	-1	0	-2.0278	-17.891	16.968	0	0	0	0	0	0	0	0	0	2
10370	103.7	0	0	0	0	0	0	0	0	0	0	0	0	0	0	0	0	0	0	0	0	0	0	0	0	20.079	19.73	19.907	0	0	0	1	0	0	17.761	2.1499	16.789	0	0	0	0	0	0	0	0	0	0	0	0	0	0	0	0	0	0	0	0	0	1	0	0	17.47	2.0148	16.554	2
10371	103.71	0	0	0	0	0	0	10.917	-10.917	18.908	0	0	0	0	0	0	0	0	0	0	0	0	1	0	0	17.755	2.1475	16.785	0	0	0	1	0	0	17.761	2.1499	16.789	0	0	0	0	0	0	0	0	0	0	0	0	0	0	0	10.994	-10.994	19.042	0	0	0	1	0	0	17.47	2.0148	16.554	2
10372	103.72	0	0	0	0	0	0	10.917	-10.917	18.908	0	0	0	0	0	0	0	0	0	0	0	0	1	0	0	17.755	2.1475	16.785	0	0	0	1	0	0	17.761	2.1499	16.789	0	0	0	0	0	0	0	0	0	0	0	0	0	0	0	10.994	-10.994	19.042	0	0	0	1	0	0	17.47	2.0148	16.554	2
10373	103.73	0	0	0	0	0	0	10.917	-10.917	18.908	0	0	0	0	0	0	0	0	0	0	0	0	1	0	0	17.755	2.1475	16.785	0	0	0	1	0	0	17.761	2.1499	16.789	0	0	0	0	0	0	0	0	0	0	0	0	0	0	0	0	0	0	0	0	0	1	0	0	17.47	2.0148	16.554	2
10374	103.74	0	0	0	0	0	0	10.917	-10.917	18.908	0	0	0	0	0	0	0	0	0	0	0	0	0	0	0	20.079	19.73	19.907	0	0	0	1	0	0	17.761	2.1499	16.789	0	0	0	0	0	0	0	0	0	0	0	0	0	0	0	0	0	0	0	0	0	1	0	0	17.47	2.0148	16.554	2
10375	103.75	0	0	0	0	0	0	0	0	0	0	0	0	0	0	0	0	0	0	0	0	0	0	0	0	20.079	19.73	19.907	0	0	0	1	0	0	17.761	2.1499	16.789	0	0	0	0	0	0	0	0	0	0	0	0	0	0	0	0	0	0	0	0	0	1	0	0	17.47	2.0148	16.554	2
10376	103.76	0	0	0	0	0	0	0	0	0	0	0	0	0	0	0	0	0	0	0	0	0	1	0	0	17.755	2.1475	16.785	0	0	0	1	0	0	17.761	2.1499	16.789	0	0	0	1	0	0	17.883	2.027	16.961	0	0	0	0	0	0	0	0	0	0	0	0	1	0	0	17.47	2.0148	16.554	2
10377	103.77	0	0	0	0	0	0	10.917	-10.917	18.908	0	0	0	0	0	0	0	0	0	0	0	0	1	0	0	17.755	2.1475	16.785	0	0	0	1	0	0	17.761	2.1499	16.789	0	0	0	0	0	0	0	0	0	0	0	0	0	0	0	0	0	0	0	0	0	0	0	0	0	0	0	2
10378	103.78	0	0	0	0	0	0	10.917	-10.917	18.908	0	0	0	0	0	0	0	0	0	0	0	0	1	0	0	17.755	2.1475	16.785	0	0	0	1	0	0	17.761	2.1499	16.789	0	0	0	0	0	0	0	0	0	0	0	0	0	0	0	10.994	-10.994	19.042	0	0	0	1	0	0	17.47	2.0148	16.554	2
10379	103.79	0	0	0	0	0	0	0	0	0	0	0	0	0	0	0	0	0	0	0	0	0	1	0	0	17.755	2.1475	16.785	0	0	0	1	0	0	17.761	2.1499	16.789	0	0	0	0	0	0	0	0	0	0	0	0	0	-1	0	-2.0278	-17.891	16.968	0	0	0	0	0	0	0	0	0	2
10380	103.8	0	0	0	0	0	0	0	0	0	0	0	0	0	0	0	0	0	0	0	0	0	1	0	0	17.755	2.1475	16.785	0	0	0	1	0	0	17.761	2.1499	16.789	0	0	0	0	0	0	0	0	0	0	0	0	0	0	0	10.994	-10.994	19.042	0	0	0	1	0	0	17.47	2.0148	16.554	2
10381	103.81	0	0	0	0	0	0	0	0	0	0	0	0	0	0	0	0	0	0	0	0	0	1	0	0	17.755	2.1475	16.785	0	0	0	1	0	0	17.761	2.1499	16.789	0	0	0	0	0	0	0	0	0	0	0	0	0	0	0	0	0	0	0	0	0	1	0	0	17.47	2.0148	16.554	2
10382	103.82	0	0	0	0	0	0	0	0	0	0	0	0	0	0	0	0	0	0	0	0	0	1	0	0	17.755	2.1475	16.785	0	0	0	1	0	0	17.761	2.1499	16.789	0	0	0	1	0	0	17.883	2.027	16.961	0	0	0	0	-1	0	-2.0278	-17.891	16.968	0	0	0	0	0	0	0	0	0	2
10383	103.83	0	0	0	0	0	0	10.917	-10.917	18.908	0	0	0	0	0	0	0	0	0	0	0	0	0	0	0	20.079	19.73	19.907	0	0	0	1	0	0	17.761	2.1499	16.789	0	0	0	1	0	0	17.883	2.027	16.961	0	0	0	0	0	0	0	0	0	0	0	0	0	0	0	0	0	0	2
10384	103.84	0	0	0	0	0	0	0	0	0	0	0	0	0	0	0	0	0	0	0	0	0	1	0	0	17.755	2.1475	16.785	0	0	0	1	0	0	17.761	2.1499	16.789	0	0	0	0	0	0	0	0	0	0	0	0	0	-1	0	-2.0278	-17.891	16.968	0	0	0	0	0	0	0	0	0	2
10385	103.85	0	0	0	0	0	0	10.917	-10.917	18.908	0	0	0	0	0	0	0	0	0	0	0	0	1	0	0	17.755	2.1475	16.785	0	0	0	1	0	0	17.761	2.1499	16.789	0	0	0	1	0	0	17.883	2.027	16.961	0	0	0	0	0	0	0	0	0	0	0	0	0	0	0	0	0	0	2
10386	103.86	0	0	0	0	0	0	0	0	0	0	0	0	0	0	0	0	0	0	0	0	0	1	0	0	17.755	2.1475	16.785	0	0	0	1	0	0	17.761	2.1499	16.789	0	0	0	1	0	0	17.883	2.027	16.961	0	0	0	0	0	0	0	0	0	0	0	0	1	0	0	17.47	2.0148	16.554	2
10387	103.87	0	0	0	0	0	0	0	0	0	0	0	0	0	0	0	0	0	0	0	0	0	1	0	0	17.755	2.1475	16.785	0	0	0	1	0	0	17.761	2.1499	16.789	0	0	0	0	0	0	0	0	0	0	0	0	0	0	0	0	0	0	0	0	0	1	0	0	17.47	2.0148	16.554	2
10388	103.88	0	0	0	0	0	0	10.917	-10.917	18.908	0	0	0	0	0	0	0	0	0	0	0	0	1	0	0	17.755	2.1475	16.785	0	0	0	1	0	0	17.761	2.1499	16.789	0	0	0	1	0	0	17.883	2.027	16.961	0	0	0	0	0	0	10.994	-10.994	19.042	0	0	0	1	0	0	17.47	2.0148	16.554	2
10389	103.89	0	0	0	0	0	0	10.917	-10.917	18.908	0	0	0	0	0	0	0	0	0	0	0	0	1	0	0	17.755	2.1475	16.785	0	0	0	1	0	0	17.761	2.1499	16.789	0	0	0	0	0	0	0	0	0	0	0	0	0	0	0	10.994	-10.994	19.042	0	0	0	0	0	0	0	0	0	2
10390	103.9	0	0	0	0	0	0	10.917	-10.917	18.908	0	0	0	0	0	0	0	0	0	0	0	0	1	0	0	17.755	2.1475	16.785	0	0	0	1	0	0	17.761	2.1499	16.789	0	0	0	0	0	0	0	0	0	0	0	0	0	0	0	10.994	-10.994	19.042	0	0	0	1	0	0	17.47	2.0148	16.554	2
10391	103.91	0	0	0	0	0	0	0	0	0	0	0	0	0	0	0	0	0	0	0	0	0	1	0	0	17.755	2.1475	16.785	0	0	0	1	0	0	17.761	2.1499	16.789	0	0	0	0	0	0	0	0	0	0	0	0	0	0	0	0	0	0	0	0	0	1	0	0	17.47	2.0148	16.554	2
10392	103.92	0	0	0	0	0	0	10.917	-10.917	18.908	0	0	0	0	0	0	0	0	0	0	0	0	1	0	0	17.755	2.1475	16.785	0	0	0	1	0	0	17.761	2.1499	16.789	0	0	0	0	0	0	0	0	0	0	0	0	0	0	0	10.994	-10.994	19.042	0	0	0	0	0	0	0	0	0	2
10393	103.93	0	0	0	0	0	0	10.917	-10.917	18.908	0	0	0	0	0	0	0	0	0	0	0	0	1	0	0	17.755	2.1475	16.785	0	0	0	1	0	0	17.761	2.1499	16.789	0	0	0	0	0	0	0	0	0	0	0	0	1	-1	0	7.5503	-27.469	31.921	0	0	0	1	0	0	17.47	2.0148	16.554	2
10394	103.94	0	0	0	0	0	0	0	0	0	0	0	0	0	0	0	0	0	0	0	0	0	0	0	0	20.079	19.73	19.907	0	0	0	1	0	0	17.761	2.1499	16.789	0	0	0	0	0	0	0	0	0	0	0	0	0	0	0	0	0	0	0	0	0	0	0	0	0	0	0	2
10395	103.95	0	0	0	0	0	0	0	0	0	0	0	0	0	0	0	0	0	0	0	0	0	1	0	0	17.755	2.1475	16.785	0	0	0	1	0	0	17.761	2.1499	16.789	0	0	0	0	0	0	0	0	0	0	0	0	0	0	0	0	0	0	0	0	0	1	0	0	17.47	2.0148	16.554	2
10396	103.96	0	0	0	0	0	0	10.917	-10.917	18.908	0	0	0	0	0	0	0	0	0	0	0	0	1	0	0	17.755	2.1475	16.785	0	0	0	1	0	0	17.761	2.1499	16.789	0	0	0	0	0	0	0	0	0	0	0	0	0	0	0	10.994	-10.994	19.042	0	0	0	1	0	0	17.47	2.0148	16.554	2
10397	103.97	0	0	0	0	0	0	0	0	0	0	0	0	0	0	0	0	0	0	0	0	0	1	0	0	17.755	2.1475	16.785	0	0	0	1	0	0	17.761	2.1499	16.789	0	0	0	0	0	0	0	0	0	0	0	0	0	0	0	0	0	0	0	0	0	0	0	0	0	0	0	2
10398	103.98	0	0	0	0	0	0	10.917	-10.917	18.908	0	0	0	0	0	0	0	0	0	0	0	0	1	0	0	17.755	2.1475	16.785	0	0	0	1	0	0	17.761	2.1499	16.789	0	0	0	0	0	0	0	0	0	0	0	0	0	0	0	0	0	0	0	0	0	1	0	0	17.47	2.0148	16.554	2
10399	103.99	0	0	0	0	0	0	0	0	0	0	0	0	0	0	0	0	0	0	0	0	0	1	0	0	17.755	2.1475	16.785	0	0	0	1	0	0	17.761	2.1499	16.789	0	0	0	0	0	0	0	0	0	0	0	0	0	-1	0	-2.0278	-17.891	16.968	0	0	0	0	0	0	0	0	0	2
10400	104	0	0	0	0	0	0	10.917	-10.917	18.908	0	0	0	0	0	0	0	0	0	0	0	0	0	0	0	20.079	19.73	19.907	0	0	0	1	0	0	17.761	2.1499	16.789	0	0	0	0	0	0	0	0	0	0	0	0	0	0	0	10.994	-10.994	19.042	0	0	0	1	0	0	17.47	2.0148	16.554	2
10401	104.01	0	0	0	0	0	0	10.917	-10.917	18.908	0	0	0	0	0	0	0	0	0	0	0	0	1	0	0	17.755	2.1475	16.785	0	0	0	1	0	0	17.761	2.1499	16.789	0	0	0	1	0	0	17.883	2.027	16.961	0	0	0	0	-1	0	-2.0278	-17.891	16.968	0	0	0	0	0	0	0	0	0	0
10402	104.02	0	0	0	0	0	0	10.917	-10.917	18.908	0	0	0	0	0	0	0	0	0	0	0	0	1	0	0	17.755	2.1475	16.785	0	0	0	1	0	0	17.761	2.1499	16.789	0	0	0	0	0	0	0	0	0	0	0	0	0	0	0	10.994	-10.994	19.042	0	0	0	0	0	0	0	0	0	2
10403	104.03	0	0	0	0	0	0	10.917	-10.917	18.908	0	0	0	0	0	0	0	0	0	0	0	0	1	0	0	17.755	2.1475	16.785	0	0	0	1	0	0	17.761	2.1499	16.789	0	0	0	1	0	0	17.883	2.027	16.961	0	0	0	0	0	0	10.994	-10.994	19.042	0	0	0	1	0	0	17.47	2.0148	16.554	2
10404	104.04	0	0	0	0	0	0	0	0	0	0	0	0	0	0	0	0	0	0	0	0	0	1	0	0	17.755	2.1475	16.785	0	0	0	1	0	0	17.761	2.1499	16.789	0	0	0	0	0	0	0	0	0	0	0	0	0	-1	0	-2.0278	-17.891	16.968	0	0	0	0	0	0	0	0	0	2
10405	104.05	0	0	0	0	0	0	10.917	-10.917	18.908	0	0	0	0	0	0	0	0	0	0	0	0	1	0	0	17.755	2.1475	16.785	0	0	0	1	0	0	17.761	2.1499	16.789	0	0	0	0	0	0	0	0	0	0	0	0	0	0	0	10.994	-10.994	19.042	0	0	0	0	0	0	0	0	0	2
10406	104.06	0	0	0	0	0	0	0	0	0	0	0	0	0	0	0	0	0	0	0	0	0	1	0	0	17.755	2.1475	16.785	0	0	0	1	0	0	17.761	2.1499	16.789	0	0	0	0	0	0	0	0	0	0	0	0	0	0	0	10.994	-10.994	19.042	0	0	0	1	0	0	17.47	2.0148	16.554	2
10407	104.07	0	0	0	0	0	0	10.917	-10.917	18.908	0	0	0	0	0	0	0	0	0	0	0	0	1	0	0	17.755	2.1475	16.785	0	0	0	1	0	0	17.761	2.1499	16.789	0	0	0	0	0	0	0	0	0	0	0	0	0	0	0	10.994	-10.994	19.042	0	0	0	1	0	0	17.47	2.0148	16.554	2
10408	104.08	0	0	0	0	0	0	0	0	0	0	0	0	0	0	0	0	0	0	0	0	0	1	0	0	17.755	2.1475	16.785	0	0	0	1	0	0	17.761	2.1499	16.789	0	0	0	1	0	0	17.883	2.027	16.961	0	0	0	1	-1	0	7.5503	-27.469	31.921	0	0	0	0	0	0	0	0	0	2
10409	104.09	0	0	0	0	0	0	0	0	0	0	0	0	0	0	0	0	0	0	0	0	0	1	0	0	17.755	2.1475	16.785	0	0	0	1	0	0	17.761	2.1499	16.789	0	0	0	0	0	0	0	0	0	0	0	0	0	0	0	0	0	0	0	0	0	0	0	0	0	0	0	2
10410	104.1	0	0	0	0	0	0	10.917	-10.917	18.908	0	0	0	0	0	0	0	0	0	0	0	0	1	0	0	17.755	2.1475	16.785	0	0	0	1	0	0	17.761	2.1499	16.789	0	0	0	1	0	0	17.883	2.027	16.961	0	0	0	0	-1	0	-2.0278	-17.891	16.968	0	0	0	0	0	0	0	0	0	2
10411	104.11	0	0	0	0	0	0	0	0	0	0	0	0	0	0	0	0	0	0	0	0	0	1	0	0	17.755	2.1475	16.785	0	0	0	1	0	0	17.761	2.1499	16.789	0	0	0	0	0	0	0	0	0	0	0	0	0	-1	0	-2.0278	-17.891	16.968	0	0	0	0	0	0	0	0	0	2
10412	104.12	0	0	0	0	0	0	10.917	-10.917	18.908	0	0	0	0	0	0	0	0	0	0	0	0	1	0	0	17.755	2.1475	16.785	0	0	0	1	0	0	17.761	2.1499	16.789	0	0	0	0	0	0	0	0	0	0	0	0	0	0	0	10.994	-10.994	19.042	0	0	0	0	0	0	0	0	0	2
10413	104.13	0	0	0	0	0	0	0	0	0	0	0	0	0	0	0	0	0	0	0	0	0	0	0	0	20.079	19.73	19.907	0	0	0	1	0	0	17.761	2.1499	16.789	0	0	0	0	0	0	0	0	0	0	0	0	0	-1	0	-2.0278	-17.891	16.968	0	0	0	1	0	0	17.47	2.0148	16.554	2
10414	104.14	0	0	0	0	0	0	10.917	-10.917	18.908	0	0	0	0	0	0	0	0	0	0	0	0	1	0	0	17.755	2.1475	16.785	0	0	0	1	0	0	17.761	2.1499	16.789	0	0	0	0	0	0	0	0	0	0	0	0	0	0	0	0	0	0	0	0	0	0	0	0	0	0	0	2
10415	104.15	0	0	0	0	0	0	10.917	-10.917	18.908	0	0	0	0	0	0	0	0	0	0	0	0	1	0	0	17.755	2.1475	16.785	0	0	0	1	0	0	17.761	2.1499	16.789	0	0	0	0	0	0	0	0	0	0	0	0	0	0	0	10.994	-10.994	19.042	0	0	0	1	0	0	17.47	2.0148	16.554	2
10416	104.16	0	0	0	0	0	0	0	0	0	0	0	0	0	0	0	0	0	0	0	0	0	1	0	0	17.755	2.1475	16.785	0	0	0	1	0	0	17.761	2.1499	16.789	0	0	0	0	0	0	0	0	0	0	0	0	0	0	0	0	0	0	0	0	0	0	0	0	0	0	0	2
10417	104.17	0	0	0	0	0	0	10.917	-10.917	18.908	0	0	0	0	0	0	0	0	0	0	0	0	1	0	0	17.755	2.1475	16.785	0	0	0	1	0	0	17.761	2.1499	16.789	0	0	0	0	0	0	0	0	0	0	0	0	0	0	0	0	0	0	0	0	0	0	0	0	0	0	0	2
10418	104.18	0	0	0	0	0	0	0	0	0	0	0	0	0	0	0	0	0	0	0	0	0	1	0	0	17.755	2.1475	16.785	0	0	0	1	0	0	17.761	2.1499	16.789	0	0	0	0	0	0	0	0	0	0	0	0	0	0	0	10.994	-10.994	19.042	0	0	0	1	0	0	17.47	2.0148	16.554	2
10419	104.19	0	0	0	0	0	0	10.917	-10.917	18.908	0	0	0	0	0	0	0	0	0	0	0	0	1	0	0	17.755	2.1475	16.785	0	0	0	1	0	0	17.761	2.1499	16.789	0	0	0	0	0	0	0	0	0	0	0	0	0	0	0	0	0	0	0	0	0	0	0	0	0	0	0	2
10420	104.2	0	0	0	0	0	0	0	0	0	0	0	0	0	0	0	0	0	0	0	0	0	1	0	0	17.755	2.1475	16.785	0	0	0	1	0	0	17.761	2.1499	16.789	0	0	0	1	0	0	17.883	2.027	16.961	0	0	0	0	0	0	0	0	0	0	0	0	0	0	0	0	0	0	2
10421	104.21	0	0	0	0	0	0	10.917	-10.917	18.908	0	0	0	0	0	0	0	0	0	0	0	0	0	0	0	20.079	19.73	19.907	0	0	0	1	0	0	17.761	2.1499	16.789	0	0	0	0	0	0	0	0	0	0	0	0	0	-1	0	-2.0278	-17.891	16.968	0	0	0	1	0	0	17.47	2.0148	16.554	2
10422	104.22	0	0	0	0	0	0	10.917	-10.917	18.908	0	0	0	0	0	0	0	0	0	0	0	0	1	0	0	17.755	2.1475	16.785	0	0	0	1	0	0	17.761	2.1499	16.789	0	0	0	0	0	0	0	0	0	0	0	0	0	0	0	0	0	0	0	0	0	0	0	0	0	0	0	2
10423	104.23	0	0	0	0	0	0	0	0	0	0	0	0	0	0	0	0	0	0	0	0	0	0	0	0	20.079	19.73	19.907	0	0	0	1	0	0	17.761	2.1499	16.789	0	0	0	1	0	0	17.883	2.027	16.961	0	0	0	0	0	0	10.994	-10.994	19.042	0	0	0	1	0	0	17.47	2.0148	16.554	2
10424	104.24	0	0	0	0	0	0	0	0	0	0	0	0	0	0	0	0	0	0	0	0	0	1	0	0	17.755	2.1475	16.785	0	0	0	1	0	0	17.761	2.1499	16.789	0	0	0	0	0	0	0	0	0	0	0	0	0	0	0	0	0	0	0	0	0	0	0	0	0	0	0	2
10425	104.25	0	0	0	0	0	0	10.917	-10.917	18.908	0	0	0	0	0	0	0	0	0	0	0	0	1	0	0	17.755	2.1475	16.785	0	0	0	1	0	0	17.761	2.1499	16.789	0	0	0	1	0	0	17.883	2.027	16.961	0	0	0	1	-1	0	7.5503	-27.469	31.921	0	0	0	0	0	0	0	0	0	2
10426	104.26	0	0	0	0	0	0	10.917	-10.917	18.908	0	0	0	0	0	0	0	0	0	0	0	0	1	0	0	17.755	2.1475	16.785	0	0	0	1	0	0	17.761	2.1499	16.789	0	0	0	0	0	0	0	0	0	0	0	0	0	-1	0	-2.0278	-17.891	16.968	0	0	0	0	0	0	0	0	0	2
10427	104.27	0	0	0	0	0	0	10.917	-10.917	18.908	0	0	0	0	0	0	0	0	0	0	0	0	1	0	0	17.755	2.1475	16.785	0	0	0	1	0	0	17.761	2.1499	16.789	0	0	0	0	0	0	0	0	0	0	0	0	0	0	0	0	0	0	0	0	0	0	0	0	0	0	0	2
10428	104.28	0	0	0	0	0	0	0	0	0	0	0	0	0	0	0	0	0	0	0	0	0	1	0	0	17.755	2.1475	16.785	0	0	0	1	0	0	17.761	2.1499	16.789	0	0	0	1	0	0	17.883	2.027	16.961	0	0	0	0	0	0	0	0	0	0	0	0	1	0	0	17.47	2.0148	16.554	2
10429	104.29	0	0	0	0	0	0	0	0	0	0	0	0	0	0	0	0	0	0	0	0	0	1	0	0	17.755	2.1475	16.785	0	0	0	1	0	0	17.761	2.1499	16.789	0	0	0	0	0	0	0	0	0	0	0	0	0	0	0	0	0	0	0	0	0	1	0	0	17.47	2.0148	16.554	2
10430	104.3	0	0	0	0	0	0	10.917	-10.917	18.908	0	0	0	0	0	0	0	0	0	0	0	0	1	0	0	17.755	2.1475	16.785	0	0	0	1	0	0	17.761	2.1499	16.789	0	0	0	0	0	0	0	0	0	0	0	0	0	-1	0	-2.0278	-17.891	16.968	0	0	0	1	0	0	17.47	2.0148	16.554	2
10431	104.31	0	0	0	0	0	0	10.917	-10.917	18.908	0	0	0	0	0	0	0	0	0	0	0	0	1	0	0	17.757	2.1494	16.786	0	0	0	1	0	0	17.761	2.1499	16.789	0	0	0	1	0	0	17.883	2.027	16.961	0	0	0	0	0	0	0	0	0	0	0	0	1	0	0	17.47	2.0148	16.554	2
10432	104.32	0	0	0	0	0	0	0	0	0	0	0	0	0	0	0	0	0	0	0	0	0	1	0	0	17.755	2.1475	16.785	0	0	0	1	0	0	17.761	2.1499	16.789	0	0	0	0	0	0	0	0	0	0	0	0	0	0	0	10.994	-10.994	19.042	0	0	0	1	0	0	17.47	2.0148	16.554	2
10433	104.33	0	0	0	0	0	0	10.917	-10.917	18.908	0	0	0	0	0	0	0	0	0	0	0	0	1	0	0	17.755	2.1475	16.785	0	0	0	1	0	0	17.761	2.1499	16.789	0	0	0	1	0	0	17.883	2.027	16.961	0	0	0	0	0	0	0	0	0	0	0	0	0	0	0	0	0	0	2
10434	104.34	0	0	0	0	0	0	10.917	-10.917	18.908	0	0	0	0	0	0	0	0	0	0	0	0	1	0	0	17.755	2.1475	16.785	0	0	0	1	0	0	17.761	2.1499	16.789	0	0	0	0	0	0	0	0	0	0	0	0	0	-1	0	-2.0278	-17.891	16.968	0	0	0	0	0	0	0	0	0	2
10435	104.35	0	0	0	0	0	0	0	0	0	0	0	0	0	0	0	0	0	0	0	0	0	1	0	0	17.755	2.1475	16.785	0	0	0	1	0	0	17.761	2.1499	16.789	0	0	0	1	0	0	17.883	2.027	16.961	0	0	0	1	-1	0	7.5503	-27.469	31.921	0	0	0	1	0	0	17.47	2.0148	16.554	2
10436	104.36	0	0	0	0	0	0	0	0	0	0	0	0	0	0	0	0	0	0	0	0	0	1	0	0	17.755	2.1475	16.785	0	0	0	1	0	0	17.761	2.1499	16.789	0	0	0	1	0	0	17.883	2.027	16.961	0	0	0	0	-1	0	-2.0278	-17.891	16.968	0	0	0	0	0	0	0	0	0	2
10437	104.37	0	0	0	0	0	0	0	0	0	0	0	0	0	0	0	0	0	0	0	0	0	1	0	0	17.755	2.1475	16.785	0	0	0	1	0	0	17.761	2.1499	16.789	0	0	0	1	0	0	17.883	2.027	16.961	0	0	0	0	0	0	0	0	0	0	0	0	1	0	0	17.47	2.0148	16.554	2
10438	104.38	0	0	0	0	0	0	0	0	0	0	0	0	0	0	0	0	0	0	0	0	0	1	0	0	17.755	2.1475	16.785	0	0	0	1	0	0	17.761	2.1499	16.789	0	0	0	0	0	0	0	0	0	0	0	0	0	0	0	0	0	0	0	0	0	1	0	0	17.47	2.0148	16.554	2
10439	104.39	0	0	0	0	0	0	10.917	-10.917	18.908	0	0	0	0	0	0	0	0	0	0	0	0	0	0	0	10.989	-10.989	19.033	0	0	0	1	0	0	17.761	2.1499	16.789	0	0	0	0	0	0	0	0	0	0	0	0	0	0	0	0	0	0	0	0	0	0	0	0	0	0	0	2
10440	104.4	0	0	0	0	0	0	0	0	0	0	0	0	0	0	0	0	0	0	0	0	0	0	0	0	20.079	19.73	19.907	0	0	0	1	0	0	17.761	2.1499	16.789	0	0	0	0	0	0	0	0	0	0	0	0	0	0	0	10.994	-10.994	19.042	0	0	0	1	0	0	17.47	2.0148	16.554	2
10441	104.41	0	0	0	0	0	0	10.917	-10.917	18.908	0	0	0	0	0	0	0	0	0	0	0	0	1	0	0	17.755	2.1475	16.785	0	0	0	1	0	0	17.761	2.1499	16.789	0	0	0	0	0	0	0	0	0	0	0	0	0	0	0	0	0	0	0	0	0	0	0	0	0	0	0	2
10442	104.42	0	0	0	0	0	0	10.917	-10.917	18.908	0	0	0	0	0	0	0	0	0	0	0	0	1	0	0	17.755	2.1475	16.785	0	0	0	1	0	0	17.761	2.1499	16.789	0	0	0	0	0	0	0	0	0	0	0	0	0	-1	0	-2.0278	-17.891	16.968	0	0	0	1	0	0	17.47	2.0148	16.554	2
10443	104.43	0	0	0	0	0	0	0	0	0	0	0	0	0	0	0	0	0	0	0	0	0	1	0	0	17.755	2.1475	16.785	0	0	0	1	0	0	17.761	2.1499	16.789	0	0	0	1	0	0	17.883	2.027	16.961	0	0	0	0	-1	0	-2.0278	-17.891	16.968	0	0	0	0	0	0	0	0	0	2
10444	104.44	0	0	0	0	0	0	10.917	-10.917	18.908	0	0	0	0	0	0	0	0	0	0	0	0	1	0	0	17.755	2.1475	16.785	0	0	0	1	0	0	17.761	2.1499	16.789	0	0	0	0	0	0	0	0	0	0	0	0	0	-1	0	-2.0278	-17.891	16.968	0	0	0	0	0	0	0	0	0	2
10445	104.45	0	0	0	0	0	0	0	0	0	0	0	0	0	0	0	0	0	0	0	0	0	1	0	0	17.755	2.1475	16.785	0	0	0	1	0	0	17.761	2.1499	16.789	0	0	0	1	0	0	17.883	2.027	16.961	0	0	0	0	0	0	10.994	-10.994	19.042	0	0	0	1	0	0	17.47	2.0148	16.554	2
10446	104.46	0	0	0	0	0	0	10.917	-10.917	18.908	0	0	0	0	0	0	0	0	0	0	0	0	1	0	0	17.755	2.1475	16.785	0	0	0	1	0	0	17.761	2.1499	16.789	0	0	0	0	0	0	0	0	0	0	0	0	0	-1	0	-2.0278	-17.891	16.968	0	0	0	0	0	0	0	0	0	2
10447	104.47	0	0	0	0	0	0	0	0	0	0	0	0	0	0	0	0	0	0	0	0	0	0	0	0	10.989	-10.989	19.033	0	0	0	1	0	0	17.761	2.1499	16.789	0	0	0	1	0	0	17.883	2.027	16.961	0	0	0	0	0	0	0	0	0	0	0	0	0	0	0	0	0	0	2
10448	104.48	0	0	0	0	0	0	10.917	-10.917	18.908	0	0	0	0	0	0	0	0	0	0	0	0	1	0	0	17.755	2.1475	16.785	0	0	0	1	0	0	17.761	2.1499	16.789	0	0	0	0	0	0	0	0	0	0	0	0	0	0	0	10.994	-10.994	19.042	0	0	0	1	0	0	17.47	2.0148	16.554	2
10449	104.49	0	0	0	0	0	0	0	0	0	0	0	0	0	0	0	0	0	0	0	0	0	1	0	0	17.755	2.1475	16.785	0	0	0	1	0	0	17.761	2.1499	16.789	0	0	0	1	0	0	17.883	2.027	16.961	0	0	0	0	0	0	0	0	0	0	0	0	0	0	0	0	0	0	2
10450	104.5	0	0	0	0	0	0	10.917	-10.917	18.908	0	0	0	0	0	0	0	0	0	0	0	0	1	0	0	17.755	2.1475	16.785	0	0	0	1	0	0	17.761	2.1499	16.789	0	0	0	1	0	0	17.883	2.027	16.961	0	0	0	0	0	0	0	0	0	0	0	0	1	0	0	17.47	2.0148	16.554	2
10451	104.51	0	0	0	0	0	0	0	0	0	0	0	0	0	0	0	0	0	0	0	0	0	1	0	0	17.755	2.1475	16.785	0	0	0	1	0	0	17.761	2.1499	16.789	0	0	0	0	0	0	0	0	0	0	0	0	0	0	0	0	0	0	0	0	0	1	0	0	17.47	2.0148	16.554	2
10452	104.52	0	0	0	0	0	0	10.917	-10.917	18.908	0	0	0	0	0	0	0	0	0	0	0	0	1	0	0	17.755	2.1475	16.785	0	0	0	1	0	0	17.761	2.1499	16.789	0	0	0	1	0	0	17.883	2.027	16.961	0	0	0	0	-1	0	-2.0278	-17.891	16.968	0	0	0	0	0	0	0	0	0	2
10453	104.53	0	0	0	0	0	0	0	0	0	0	0	0	0	0	0	0	0	0	0	0	0	1	0	0	17.755	2.1475	16.785	0	0	0	1	0	0	17.761	2.1499	16.789	0	0	0	1	0	0	17.883	2.027	16.961	0	0	0	0	0	0	0	0	0	0	0	0	1	0	0	17.47	2.0148	16.554	2
10454	104.54	0	0	0	0	0	0	0	0	0	0	0	0	0	0	0	0	0	0	0	0	0	1	0	0	17.755	2.1475	16.785	0	0	0	1	0	0	17.761	2.1499	16.789	0	0	0	1	0	0	17.883	2.027	16.961	0	0	0	1	-1	0	7.5503	-27.469	31.921	0	0	0	0	0	0	0	0	0	2
10455	104.55	0	0	0	0	0	0	0	0	0	0	0	0	0	0	0	0	0	0	0	0	0	1	0	0	17.755	2.1475	16.785	0	0	0	1	0	0	17.761	2.1499	16.789	0	0	0	1	0	0	17.883	2.027	16.961	0	0	0	0	0	0	0	0	0	0	0	0	0	0	0	0	0	0	2
10456	104.56	0	0	0	0	0	0	0	0	0	0	0	0	0	0	0	0	0	0	0	0	0	1	0	0	17.755	2.1475	16.785	0	0	0	1	0	0	17.761	2.1499	16.789	0	0	0	1	0	0	17.883	2.027	16.961	0	0	0	1	-1	0	7.5503	-27.469	31.921	0	0	0	0	0	0	0	0	0	2
10457	104.57	0	0	0	0	0	0	0	0	0	0	0	0	0	0	0	0	0	0	0	0	0	1	0	0	17.755	2.1475	16.785	0	0	0	1	0	0	17.761	2.1499	16.789	0	0	0	0	0	0	0	0	0	0	0	0	0	0	0	0	0	0	0	0	0	0	0	0	0	0	0	2
10458	104.58	0	0	0	0	0	0	10.917	-10.917	18.908	0	0	0	0	0	0	0	0	0	0	0	0	1	0	0	17.755	2.1475	16.785	0	0	0	1	0	0	17.761	2.1499	16.789	0	0	0	1	0	0	17.883	2.027	16.961	0	0	0	0	0	0	0	0	0	0	0	0	1	0	0	17.47	2.0148	16.554	2
10459	104.59	0	0	0	0	0	0	0	0	0	0	0	0	0	0	0	0	0	0	0	0	0	1	0	0	17.755	2.1475	16.785	0	0	0	1	0	0	17.761	2.1499	16.789	0	0	0	0	0	0	0	0	0	0	0	0	0	0	0	10.994	-10.994	19.042	0	0	0	0	0	0	0	0	0	2
10460	104.6	0	0	0	0	0	0	10.917	-10.917	18.908	0	0	0	0	0	0	0	0	0	0	0	0	1	0	0	17.755	2.1475	16.785	0	0	0	1	0	0	17.761	2.1499	16.789	0	0	0	1	0	0	17.883	2.027	16.961	0	0	0	0	-1	0	-2.0278	-17.891	16.968	0	0	0	0	0	0	0	0	0	2
10461	104.61	0	0	0	0	0	0	10.917	-10.917	18.908	0	0	0	0	0	0	0	0	0	0	0	0	1	0	0	17.755	2.1475	16.785	0	0	0	1	0	0	17.761	2.1499	16.789	0	0	0	1	0	0	17.883	2.027	16.961	0	0	0	0	0	0	0	0	0	0	0	0	0	0	0	0	0	0	2
10462	104.62	0	0	0	0	0	0	0	0	0	0	0	0	0	0	0	0	0	0	0	0	0	1	0	0	17.755	2.1475	16.785	0	0	0	1	0	0	17.761	2.1499	16.789	0	0	0	0	0	0	0	0	0	0	0	0	0	0	0	0	0	0	0	0	0	0	0	0	0	0	0	2
10463	104.63	0	0	0	0	0	0	10.917	-10.917	18.908	0	0	0	0	0	0	0	0	0	0	0	0	1	0	0	17.755	2.1475	16.785	0	0	0	1	0	0	17.761	2.1499	16.789	0	0	0	1	0	0	17.883	2.027	16.961	0	0	0	0	0	0	10.994	-10.994	19.042	0	0	0	1	0	0	17.47	2.0148	16.554	2
10464	104.64	0	0	0	0	0	0	0	0	0	0	0	0	0	0	0	0	0	0	0	0	0	1	0	0	17.755	2.1475	16.785	0	0	0	1	0	0	17.761	2.1499	16.789	0	0	0	0	0	0	0	0	0	0	0	0	0	-1	0	-2.0278	-17.891	16.968	0	0	0	0	0	0	0	0	0	2
10465	104.65	0	0	0	0	0	0	10.917	-10.917	18.908	0	0	0	0	0	0	0	0	0	0	0	0	1	0	0	17.755	2.1475	16.785	0	0	0	1	0	0	17.761	2.1499	16.789	0	0	0	1	0	0	17.883	2.027	16.961	0	0	0	0	-1	0	-2.0278	-17.891	16.968	0	0	0	1	0	0	17.47	2.0148	16.554	0
10466	104.66	0	0	0	0	0	0	10.917	-10.917	18.908	0	0	0	0	0	0	0	0	0	0	0	0	1	0	0	17.755	2.1475	16.785	0	0	0	1	0	0	17.761	2.1499	16.789	0	0	0	0	0	0	0	0	0	0	0	0	0	0	0	0	0	0	0	0	0	0	0	0	0	0	0	2
10467	104.67	0	0	0	0	0	0	0	0	0	0	0	0	0	0	0	0	0	0	0	0	0	1	0	0	17.755	2.1475	16.785	0	0	0	1	0	0	17.761	2.1499	16.789	0	0	0	0	0	0	0	0	0	0	0	0	0	0	0	0	0	0	0	0	0	1	0	0	17.47	2.0148	16.554	2
10468	104.68	0	0	0	0	0	0	0	0	0	0	0	0	0	0	0	0	0	0	0	0	0	1	0	0	17.755	2.1475	16.785	0	0	0	1	0	0	17.761	2.1499	16.789	0	0	0	0	0	0	0	0	0	0	0	0	0	0	0	10.994	-10.994	19.042	0	0	0	1	0	0	17.47	2.0148	16.554	2
10469	104.69	0	0	0	0	0	0	10.917	-10.917	18.908	0	0	0	0	0	0	0	0	0	0	0	0	1	0	0	17.755	2.1475	16.785	0	0	0	1	0	0	17.761	2.1499	16.789	0	0	0	1	0	0	17.883	2.027	16.961	0	0	0	0	-1	0	-2.0278	-17.891	16.968	0	0	0	0	0	0	0	0	0	2
10470	104.7	0	0	0	0	0	0	10.917	-10.917	18.908	0	0	0	0	0	0	0	0	0	0	0	0	1	0	0	17.755	2.1475	16.785	0	0	0	1	0	0	17.761	2.1499	16.789	0	0	0	0	0	0	0	0	0	0	0	0	0	0	0	0	0	0	0	0	0	0	0	0	0	0	0	2
10471	104.71	0	0	0	0	0	0	0	0	0	0	0	0	0	0	0	0	0	0	0	0	0	1	0	0	17.755	2.1475	16.785	0	0	0	1	0	0	17.883	2.027	16.961	0	0	0	0	0	0	0	0	0	0	0	0	0	-1	0	-2.0278	-17.891	16.968	0	0	0	1	0	0	17.47	2.0148	16.554	2
10472	104.72	0	0	0	0	0	0	10.917	-10.917	18.908	0	0	0	0	0	0	0	0	0	0	0	0	1	0	0	17.755	2.1475	16.785	0	0	0	1	0	0	17.761	2.1499	16.789	0	0	0	0	0	0	0	0	0	0	0	0	0	0	0	0	0	0	0	0	0	0	0	0	0	0	0	2
10473	104.73	0	0	0	0	0	0	10.917	-10.917	18.908	0	0	0	0	0	0	0	0	0	0	0	0	1	0	0	17.755	2.1475	16.785	0	0	0	1	0	0	17.761	2.1499	16.789	0	0	0	1	0	0	17.883	2.027	16.961	0	0	0	0	0	0	10.994	-10.994	19.042	0	0	0	0	0	0	0	0	0	2
10474	104.74	0	0	0	0	0	0	0	0	0	0	0	0	0	0	0	0	0	0	0	0	0	1	0	0	17.755	2.1475	16.785	0	0	0	1	0	0	17.761	2.1499	16.789	0	0	0	0	0	0	0	0	0	0	0	0	0	0	0	0	0	0	0	0	0	0	0	0	0	0	0	2
10475	104.75	0	0	0	0	0	0	0	0	0	0	0	0	0	0	0	0	0	0	0	0	0	1	0	0	17.755	2.1475	16.785	0	0	0	1	0	0	17.761	2.1499	16.789	0	0	0	1	0	0	17.883	2.027	16.961	0	0	0	0	0	0	0	0	0	0	0	0	1	0	0	17.47	2.0148	16.554	2
10476	104.76	0	0	0	0	0	0	0	0	0	0	0	0	0	0	0	0	0	0	0	0	0	1	0	0	17.755	2.1475	16.785	0	0	0	1	0	0	17.761	2.1499	16.789	0	0	0	0	0	0	0	0	0	0	0	0	0	0	0	0	0	0	0	0	0	0	0	0	0	0	0	2
10477	104.77	0	0	0	0	0	0	10.917	-10.917	18.908	0	0	0	0	0	0	0	0	0	0	0	0	1	0	0	17.755	2.1475	16.785	0	0	0	1	0	0	17.761	2.1499	16.789	0	0	0	0	0	0	0	0	0	0	0	0	0	0	0	0	0	0	0	0	0	0	0	0	0	0	0	2
10478	104.78	0	0	0	0	0	0	0	0	0	0	0	0	0	0	0	0	0	0	0	0	0	1	0	0	17.755	2.1475	16.785	0	0	0	1	0	0	17.761	2.1499	16.789	0	0	0	1	0	0	17.883	2.027	16.961	0	0	0	0	-1	0	-2.0278	-17.891	16.968	0	0	0	1	0	0	17.47	2.0148	16.554	2
10479	104.79	0	0	0	0	0	0	10.917	-10.917	18.908	0	0	0	0	0	0	0	0	0	0	0	0	1	0	0	17.755	2.1475	16.785	0	0	0	1	0	0	17.761	2.1499	16.789	0	0	0	0	0	0	0	0	0	0	0	0	0	0	0	0	0	0	0	0	0	0	0	0	0	0	0	2
10480	104.8	0	0	0	0	0	0	10.917	-10.917	18.908	0	0	0	0	0	0	0	0	0	0	0	0	1	0	0	17.755	2.1475	16.785	0	0	0	1	0	0	17.761	2.1499	16.789	0	0	0	1	0	0	17.883	2.027	16.961	0	0	0	0	0	0	10.994	-10.994	19.042	0	0	0	0	0	0	0	0	0	2
10481	104.81	0	0	0	0	0	0	0	0	0	0	0	0	0	0	0	0	0	0	0	0	0	1	0	0	17.755	2.1475	16.785	0	0	0	1	0	0	17.761	2.1499	16.789	0	0	0	1	0	0	17.883	2.027	16.961	0	0	0	0	-1	0	-2.0278	-17.891	16.968	0	0	0	1	0	0	17.47	2.0148	16.554	2
10482	104.82	0	0	0	0	0	0	10.917	-10.917	18.908	0	0	0	0	0	0	0	0	0	0	0	0	1	0	0	17.755	2.1475	16.785	0	0	0	1	0	0	17.761	2.1499	16.789	0	0	0	0	0	0	0	0	0	0	0	0	1	-1	0	7.5503	-27.469	31.921	0	0	0	0	0	0	0	0	0	2
10483	104.83	0	0	0	0	0	0	10.917	-10.917	18.908	0	0	0	0	0	0	0	0	0	0	0	0	0	0	0	20.079	19.73	19.907	0	0	0	1	0	0	17.761	2.1499	16.789	0	0	0	1	0	0	17.883	2.027	16.961	0	0	0	0	0	0	0	0	0	0	0	0	1	0	0	17.47	2.0148	16.554	2
10484	104.84	0	0	0	0	0	0	10.917	-10.917	18.908	0	0	0	0	0	0	0	0	0	0	0	0	1	0	0	17.755	2.1475	16.785	0	0	0	1	0	0	17.761	2.1499	16.789	0	0	0	0	0	0	0	0	0	0	0	0	0	-1	0	-2.0278	-17.891	16.968	0	0	0	0	0	0	0	0	0	2
10485	104.85	0	0	0	0	0	0	10.917	-10.917	18.908	0	0	0	0	0	0	0	0	0	0	0	0	0	0	0	20.079	19.73	19.907	0	0	0	1	0	0	17.761	2.1499	16.789	0	0	0	0	0	0	0	0	0	0	0	0	0	-1	0	-2.0278	-17.891	16.968	0	0	0	1	0	0	17.47	2.0148	16.554	2
10486	104.86	0	0	0	0	0	0	10.917	-10.917	18.908	0	0	0	0	0	0	0	0	0	0	0	0	1	0	0	17.755	2.1475	16.785	0	0	0	1	0	0	17.761	2.1499	16.789	0	0	0	1	0	0	17.883	2.027	16.961	0	0	0	0	0	0	10.994	-10.994	19.042	0	0	0	0	0	0	0	0	0	3
10487	104.87	0	0	0	0	0	0	10.917	-10.917	18.908	0	0	0	0	0	0	0	0	0	0	0	0	1	0	0	17.755	2.1475	16.785	0	0	0	1	0	0	17.761	2.1499	16.789	0	0	0	0	0	0	0	0	0	0	0	0	0	0	0	0	0	0	0	0	0	0	0	0	0	0	0	2
10488	104.88	0	0	0	0	0	0	10.917	-10.917	18.908	0	0	0	0	0	0	0	0	0	0	0	0	1	0	0	17.755	2.1475	16.785	0	0	0	1	0	0	17.761	2.1499	16.789	0	0	0	1	0	0	17.883	2.027	16.961	0	0	0	0	0	0	10.994	-10.994	19.042	0	0	0	1	0	0	17.47	2.0148	16.554	2
10489	104.89	0	0	0	0	0	0	0	0	0	0	0	0	0	0	0	0	0	0	0	0	0	1	0	0	17.755	2.1475	16.785	0	0	0	1	0	0	17.761	2.1499	16.789	0	0	0	0	0	0	0	0	0	0	0	0	0	0	0	0	0	0	0	0	0	0	0	0	0	0	0	2
10490	104.9	0	0	0	0	0	0	0	0	0	0	0	0	0	0	0	0	0	0	0	0	0	1	0	0	17.755	2.1475	16.785	0	0	0	1	0	0	17.761	2.1499	16.789	0	0	0	1	0	0	17.883	2.027	16.961	0	0	0	0	0	0	10.994	-10.994	19.042	0	0	0	0	0	0	0	0	0	2
10491	104.91	0	0	0	0	0	0	0	0	0	0	0	0	0	0	0	0	0	0	0	0	0	1	0	0	17.755	2.1475	16.785	0	0	0	1	0	0	17.761	2.1499	16.789	0	0	0	0	0	0	0	0	0	0	0	0	0	-1	0	-2.0278	-17.891	16.968	0	0	0	0	0	0	0	0	0	2
10492	104.92	0	0	0	0	0	0	10.917	-10.917	18.908	0	0	0	0	0	0	0	0	0	0	0	0	1	0	0	17.755	2.1475	16.785	0	0	0	1	0	0	17.761	2.1499	16.789	0	0	0	0	0	0	0	0	0	0	0	0	0	-1	0	-2.0278	-17.891	16.968	0	0	0	0	0	0	0	0	0	2
10493	104.93	0	0	0	0	0	0	10.917	-10.917	18.908	0	0	0	0	0	0	0	0	0	0	0	0	1	0	0	17.755	2.1475	16.785	0	0	0	1	0	0	17.761	2.1499	16.789	0	0	0	1	0	0	17.883	2.027	16.961	0	0	0	0	-1	0	-2.0278	-17.891	16.968	0	0	0	1	0	0	17.47	2.0148	16.554	2
10494	104.94	0	0	0	0	0	0	10.917	-10.917	18.908	0	0	0	0	0	0	0	0	0	0	0	0	1	0	0	17.755	2.1475	16.785	0	0	0	1	0	0	17.761	2.1499	16.789	0	0	0	0	0	0	0	0	0	0	0	0	0	-1	0	-2.0278	-17.891	16.968	0	0	0	0	0	0	0	0	0	2
10495	104.95	0	0	0	0	0	0	0	0	0	0	0	0	0	0	0	0	0	0	0	0	0	1	0	0	17.755	2.1475	16.785	0	0	0	1	0	0	17.761	2.1499	16.789	0	0	0	1	0	0	17.883	2.027	16.961	0	0	0	0	0	0	0	0	0	0	0	0	1	0	0	17.47	2.0148	16.554	2
10496	104.96	0	0	0	0	0	0	10.917	-10.917	18.908	0	0	0	0	0	0	0	0	0	0	0	0	1	0	0	17.755	2.1475	16.785	0	0	0	1	0	0	17.761	2.1499	16.789	0	0	0	0	0	0	0	0	0	0	0	0	0	0	0	0	0	0	0	0	0	0	0	0	0	0	0	2
10497	104.97	0	0	0	0	0	0	0	0	0	0	0	0	0	0	0	0	0	0	0	0	0	1	0	0	17.755	2.1475	16.785	0	0	0	1	0	0	17.761	2.1499	16.789	0	0	0	0	0	0	0	0	0	0	0	0	0	0	0	0	0	0	0	0	0	0	0	0	0	0	0	2
10498	104.98	0	0	0	0	0	0	0	0	0	0	0	0	0	0	0	0	0	0	0	0	0	1	0	0	17.755	2.1475	16.785	0	0	0	1	0	0	17.761	2.1499	16.789	0	0	0	0	0	0	0	0	0	0	0	0	0	0	0	0	0	0	0	0	0	1	0	0	17.47	2.0148	16.554	2
10499	104.99	0	0	0	0	0	0	10.917	-10.917	18.908	0	0	0	0	0	0	0	0	0	0	0	0	1	0	0	17.755	2.1475	16.785	0	0	0	1	0	0	17.761	2.1499	16.789	0	0	0	0	0	0	0	0	0	0	0	0	0	0	0	0	0	0	0	0	0	0	0	0	0	0	0	2
10500	105	0	0	0	0	0	0	10.917	-10.917	18.908	0	0	0	0	0	0	0	0	0	0	0	0	0	0	0	20.079	19.73	19.907	0	0	0	1	0	0	17.761	2.1499	16.789	0	0	0	1	0	0	17.883	2.027	16.961	0	0	0	0	-1	0	-2.0278	-17.891	16.968	0	0	0	1	0	0	17.47	2.0148	16.554	2
10501	105.01	0	0	0	0	0	0	10.917	-10.917	18.908	0	0	0	0	0	0	0	0	0	0	0	0	1	0	0	17.755	2.1475	16.785	0	0	0	1	0	0	17.761	2.1499	16.789	0	0	0	0	0	0	0	0	0	0	0	0	0	0	0	10.994	-10.994	19.042	0	0	0	0	0	0	0	0	0	2
10502	105.02	0	0	0	0	0	0	0	0	0	0	0	0	0	0	0	0	0	0	0	0	0	1	0	0	17.755	2.1475	16.785	0	0	0	1	0	0	17.761	2.1499	16.789	0	0	0	1	0	0	17.883	2.027	16.961	0	0	0	0	0	0	0	0	0	0	0	0	0	0	0	0	0	0	2
10503	105.03	0	0	0	0	0	0	0	0	0	0	0	0	0	0	0	0	0	0	0	0	0	1	0	0	17.755	2.1475	16.785	0	0	0	1	0	0	17.761	2.1499	16.789	0	0	0	1	0	0	17.883	2.027	16.961	0	0	0	0	0	0	10.994	-10.994	19.042	0	0	0	1	0	0	17.47	2.0148	16.554	2
10504	105.04	0	0	0	0	0	0	10.917	-10.917	18.908	0	0	0	0	0	0	0	0	0	0	0	0	1	0	0	17.755	2.1475	16.785	0	0	0	1	0	0	17.761	2.1499	16.789	0	0	0	0	0	0	0	0	0	0	0	0	0	0	0	0	0	0	0	0	0	0	0	0	0	0	0	2
10505	105.05	0	0	0	0	0	0	10.917	-10.917	18.908	0	0	0	0	0	0	0	0	0	0	0	0	1	0	0	17.755	2.1475	16.785	0	0	0	1	0	0	17.761	2.1499	16.789	0	0	0	1	0	0	17.883	2.027	16.961	0	0	0	1	-1	0	7.5503	-27.469	31.921	0	0	0	1	0	0	17.47	2.0148	16.554	2
10506	105.06	0	0	0	0	0	0	10.917	-10.917	18.908	0	0	0	0	0	0	0	0	0	0	0	0	1	0	0	17.755	2.1475	16.785	0	0	0	1	0	0	17.761	2.1499	16.789	0	0	0	1	0	0	17.883	2.027	16.961	0	0	0	0	0	0	10.994	-10.994	19.042	0	0	0	1	0	0	17.47	2.0148	16.554	2
10507	105.07	0	0	0	0	0	0	10.917	-10.917	18.908	0	0	0	0	0	0	0	0	0	0	0	0	1	0	0	17.755	2.1475	16.785	0	0	0	1	0	0	17.761	2.1499	16.789	0	0	0	0	0	0	0	0	0	0	0	0	1	-1	0	7.5503	-27.469	31.921	0	0	0	1	0	0	17.47	2.0148	16.554	2
10508	105.08	0	0	0	0	0	0	10.917	-10.917	18.908	0	0	0	0	0	0	0	0	0	0	0	0	1	0	0	17.755	2.1475	16.785	0	0	0	1	0	0	17.761	2.1499	16.789	0	0	0	1	0	0	17.883	2.027	16.961	0	0	0	0	0	0	10.994	-10.994	19.042	0	0	0	1	0	0	17.47	2.0148	16.554	2
10509	105.09	0	0	0	0	0	0	10.917	-10.917	18.908	0	0	0	0	0	0	0	0	0	0	0	0	0	0	0	10.989	-10.989	19.033	0	0	0	1	0	0	17.761	2.1499	16.789	0	0	0	1	0	0	17.883	2.027	16.961	0	0	0	0	-1	0	-2.0278	-17.891	16.968	0	0	0	0	0	0	0	0	0	2
10510	105.1	0	0	0	0	-1	0	-2.0364	-17.814	16.888	0	0	0	0	0	0	0	0	0	0	0	0	1	0	0	17.755	2.1475	16.785	0	0	0	1	0	0	17.761	2.1499	16.789	0	0	0	1	0	0	17.883	2.027	16.961	0	0	0	0	-1	0	-2.0278	-17.891	16.968	0	0	0	0	0	0	0	0	0	2
10511	105.11	0	0	0	0	0	0	10.917	-10.917	18.908	0	0	0	1	0	0	17.816	2.0366	16.89	0	0	0	0	0	0	10.989	-10.989	19.033	0	0	0	1	0	0	17.761	2.1499	16.789	0	0	0	0	0	0	0	0	0	0	0	0	0	0	0	0	0	0	0	0	0	1	0	0	17.47	2.0148	16.554	2
10512	105.12	0	0	0	0	0	0	10.917	-10.917	18.908	0	0	0	0	0	0	0	0	0	0	0	0	1	0	0	17.755	2.1475	16.785	0	0	0	1	0	0	17.761	2.1499	16.789	0	0	0	1	0	0	17.883	2.027	16.961	0	0	0	0	-1	0	-2.0278	-17.891	16.968	0	0	0	0	0	0	0	0	0	2
10513	105.13	0	0	0	0	0	0	0	0	0	0	0	0	0	0	0	0	0	0	0	0	0	1	0	0	17.755	2.1475	16.785	0	0	0	1	0	0	17.761	2.1499	16.789	0	0	0	1	0	0	17.883	2.027	16.961	0	0	0	0	0	0	0	0	0	0	0	0	0	0	0	0	0	0	2
10514	105.14	0	0	0	0	0	0	0	0	0	0	0	0	0	0	0	0	0	0	0	0	0	1	0	0	17.755	2.1475	16.785	0	0	0	1	0	0	17.761	2.1499	16.789	0	0	0	0	0	0	0	0	0	0	0	0	0	0	0	0	0	0	0	0	0	0	0	0	0	0	0	2
10515	105.15	0	0	0	0	0	0	10.917	-10.917	18.908	0	0	0	0	0	0	0	0	0	0	0	0	1	0	0	17.755	2.1475	16.785	0	0	0	1	0	0	17.761	2.1499	16.789	0	0	0	1	0	0	17.883	2.027	16.961	0	0	0	0	0	0	10.994	-10.994	19.042	0	0	0	1	0	0	17.47	2.0148	16.554	2
10516	105.16	0	0	0	0	0	0	10.917	-10.917	18.908	0	0	0	0	0	0	0	0	0	0	0	0	1	0	0	17.755	2.1475	16.785	0	0	0	1	0	0	17.761	2.1499	16.789	0	0	0	0	0	0	0	0	0	0	0	0	0	0	0	10.994	-10.994	19.042	0	0	0	0	0	0	0	0	0	2
10517	105.17	0	0	0	0	0	0	0	0	0	0	0	0	0	0	0	0	0	0	0	0	0	1	0	0	17.755	2.1475	16.785	0	0	0	1	0	0	17.761	2.1499	16.789	0	0	0	0	0	0	0	0	0	0	0	0	0	-1	0	-2.0278	-17.891	16.968	0	0	0	0	0	0	0	0	0	2
10518	105.18	0	0	0	0	0	0	10.917	-10.917	18.908	0	0	0	0	0	0	0	0	0	0	0	0	1	0	0	17.755	2.1475	16.785	0	0	0	1	0	0	17.761	2.1499	16.789	0	0	0	0	0	0	0	0	0	0	0	0	0	0	0	0	0	0	0	0	0	1	0	0	17.47	2.0148	16.554	2
10519	105.19	0	0	0	0	0	0	10.917	-10.917	18.908	0	0	0	0	0	0	0	0	0	0	0	0	1	0	0	17.755	2.1475	16.785	0	0	0	1	0	0	17.761	2.1499	16.789	0	0	0	0	0	0	0	0	0	0	0	0	0	0	0	0	0	0	0	0	0	0	0	0	0	0	0	2
10520	105.2	0	0	0	0	0	0	0	0	0	0	0	0	0	0	0	0	0	0	0	0	0	1	0	0	17.755	2.1475	16.785	0	0	0	1	0	0	17.761	2.1499	16.789	0	0	0	1	0	0	17.883	2.027	16.961	0	0	0	0	0	0	0	0	0	0	0	0	1	0	0	17.47	2.0148	16.554	2
10521	105.21	0	0	0	0	0	0	10.917	-10.917	18.908	0	0	0	0	0	0	0	0	0	0	0	0	1	0	0	17.755	2.1475	16.785	0	0	0	1	0	0	17.761	2.1499	16.789	0	0	0	0	0	0	0	0	0	0	0	0	0	0	0	0	0	0	0	0	0	0	0	0	0	0	0	2
10522	105.22	0	0	0	0	0	0	0	0	0	0	0	0	0	0	0	0	0	0	0	0	0	1	0	0	17.755	2.1475	16.785	0	0	0	1	0	0	17.761	2.1499	16.789	0	0	0	0	0	0	0	0	0	0	0	0	0	-1	0	-2.0278	-17.891	16.968	0	0	0	1	0	0	17.47	2.0148	16.554	2
10523	105.23	0	0	0	0	0	0	10.917	-10.917	18.908	0	0	0	0	0	0	0	0	0	0	0	0	1	0	0	17.755	2.1475	16.785	0	0	0	1	0	0	17.761	2.1499	16.789	0	0	0	1	0	0	17.883	2.027	16.961	0	0	0	0	-1	0	-2.0278	-17.891	16.968	0	0	0	1	0	0	17.47	2.0148	16.554	2
10524	105.24	0	0	0	0	0	0	10.917	-10.917	18.908	0	0	0	0	0	0	0	0	0	0	0	0	1	0	0	17.755	2.1475	16.785	0	0	0	1	0	0	17.761	2.1499	16.789	0	0	0	0	0	0	0	0	0	0	0	0	0	-1	0	-2.0278	-17.891	16.968	0	0	0	0	0	0	0	0	0	2
10525	105.25	0	0	0	0	0	0	10.917	-10.917	18.908	0	0	0	0	0	0	0	0	0	0	0	0	1	0	0	17.755	2.1475	16.785	0	0	0	1	0	0	17.761	2.1499	16.789	0	0	0	1	0	0	17.883	2.027	16.961	0	0	0	0	0	0	0	0	0	0	0	0	1	0	0	17.47	2.0148	16.554	2
10526	105.26	0	0	0	0	0	0	0	0	0	0	0	0	0	0	0	0	0	0	0	0	0	1	0	0	17.755	2.1475	16.785	0	0	0	1	0	0	17.761	2.1499	16.789	0	0	0	0	0	0	0	0	0	0	0	0	0	-1	0	-2.0278	-17.891	16.968	0	0	0	1	0	0	17.47	2.0148	16.554	2
10527	105.27	0	0	0	0	0	0	10.917	-10.917	18.908	0	0	0	0	0	0	0	0	0	0	0	0	1	0	0	17.755	2.1475	16.785	0	0	0	1	0	0	17.761	2.1499	16.789	0	0	0	0	0	0	0	0	0	0	0	0	0	-1	0	-2.0278	-17.891	16.968	0	0	0	0	0	0	0	0	0	2
10528	105.28	0	0	0	0	0	0	0	0	0	0	0	0	0	0	0	0	0	0	0	0	0	1	0	0	17.755	2.1475	16.785	0	0	0	1	0	0	17.761	2.1499	16.789	0	0	0	1	0	0	17.883	2.027	16.961	0	0	0	0	0	0	0	0	0	0	0	0	1	0	0	17.47	2.0148	16.554	2
10529	105.29	0	0	0	0	0	0	10.917	-10.917	18.908	0	0	0	0	0	0	0	0	0	0	0	0	1	0	0	17.755	2.1475	16.785	0	0	0	1	0	0	17.761	2.1499	16.789	0	0	0	0	0	0	0	0	0	0	0	0	0	-1	0	-2.0278	-17.891	16.968	0	0	0	0	0	0	0	0	0	0
10530	105.3	0	0	0	0	0	0	0	0	0	0	0	0	0	0	0	0	0	0	0	0	0	1	0	0	17.755	2.1475	16.785	0	0	0	1	0	0	17.761	2.1499	16.789	0	0	0	1	0	0	17.883	2.027	16.961	0	0	0	0	-1	0	-2.0278	-17.891	16.968	0	0	0	1	0	0	17.47	2.0148	16.554	2
10531	105.31	0	0	0	0	0	0	10.917	-10.917	18.908	0	0	0	0	0	0	0	0	0	0	0	0	1	0	0	17.755	2.1475	16.785	0	0	0	1	0	0	17.761	2.1499	16.789	0	0	0	0	0	0	0	0	0	0	0	0	0	0	0	0	0	0	0	0	0	0	0	0	0	0	0	2
10532	105.32	0	0	0	0	0	0	0	0	0	0	0	0	0	0	0	0	0	0	0	0	0	1	0	0	17.755	2.1475	16.785	0	0	0	1	0	0	17.761	2.1499	16.789	0	0	0	0	0	0	0	0	0	0	0	0	0	0	0	0	0	0	0	0	0	0	0	0	0	0	0	2
10533	105.33	0	0	0	0	0	0	0	0	0	0	0	0	0	0	0	0	0	0	0	0	0	1	0	0	17.755	2.1475	16.785	0	0	0	1	0	0	17.761	2.1499	16.789	0	0	0	1	0	0	17.883	2.027	16.961	0	0	0	0	0	0	0	0	0	0	0	0	1	0	0	17.47	2.0148	16.554	2
10534	105.34	0	0	0	0	0	0	10.917	-10.917	18.908	0	0	0	0	0	0	0	0	0	0	0	0	1	0	0	17.755	2.1475	16.785	0	0	0	1	0	0	17.761	2.1499	16.789	0	0	0	0	0	0	0	0	0	0	0	0	0	-1	0	-2.0278	-17.891	16.968	0	0	0	0	0	0	0	0	0	2
10535	105.35	0	0	0	0	0	0	10.917	-10.917	18.908	0	0	0	0	0	0	0	0	0	0	0	0	1	0	0	17.755	2.1475	16.785	0	0	0	1	0	0	17.761	2.1499	16.789	0	0	0	1	0	0	17.883	2.027	16.961	0	0	0	0	0	0	0	0	0	0	0	0	1	0	0	17.47	2.0148	16.554	2
10536	105.36	0	0	0	0	0	0	10.917	-10.917	18.908	0	0	0	0	0	0	0	0	0	0	0	0	1	0	0	17.755	2.1475	16.785	0	0	0	1	0	0	17.883	2.027	16.961	0	0	0	0	0	0	0	0	0	0	0	0	0	-1	0	-2.0278	-17.891	16.968	0	0	0	1	0	0	17.47	2.0148	16.554	2
10537	105.37	0	0	0	0	0	0	10.917	-10.917	18.908	0	0	0	0	0	0	0	0	0	0	0	0	1	0	0	17.755	2.1475	16.785	0	0	0	1	0	0	17.761	2.1499	16.789	0	0	0	0	0	0	0	0	0	0	0	0	0	0	0	0	0	0	0	0	0	0	0	0	0	0	0	2
10538	105.38	0	0	0	0	0	0	0	0	0	0	0	0	0	0	0	0	0	0	0	0	0	1	0	0	17.755	2.1475	16.785	0	0	0	1	0	0	17.883	2.027	16.961	0	0	0	1	0	0	17.883	2.027	16.961	0	0	0	0	0	0	0	0	0	0	0	0	1	0	0	17.47	2.0148	16.554	2
10539	105.39	0	0	0	0	0	0	10.917	-10.917	18.908	0	0	0	0	0	0	0	0	0	0	0	0	1	0	0	17.755	2.1475	16.785	0	0	0	1	0	0	17.883	2.027	16.961	0	0	0	1	0	0	17.883	2.027	16.961	0	0	0	0	-1	0	-2.0278	-17.891	16.968	0	0	0	0	0	0	0	0	0	2
10540	105.4	0	0	0	0	0	0	10.917	-10.917	18.908	0	0	0	0	0	0	0	0	0	0	0	0	0	0	0	20.079	19.73	19.907	0	0	0	1	0	0	17.761	2.1499	16.789	0	0	0	1	0	0	17.883	2.027	16.961	0	0	0	0	0	0	0	0	0	0	0	0	1	0	0	17.47	2.0148	16.554	2
10541	105.41	0	0	0	0	0	0	0	0	0	0	0	0	0	0	0	0	0	0	0	0	0	1	0	0	17.755	2.1475	16.785	0	0	0	1	0	0	17.761	2.1499	16.789	0	0	0	0	0	0	0	0	0	0	0	0	0	0	0	0	0	0	0	0	0	1	0	0	17.47	2.0148	16.554	2
10542	105.42	0	0	0	0	0	0	0	0	0	0	0	0	0	0	0	0	0	0	0	0	0	1	0	0	17.755	2.1475	16.785	0	0	0	1	0	0	17.761	2.1499	16.789	0	0	0	0	0	0	0	0	0	0	0	0	0	0	0	0	0	0	0	0	0	0	0	0	0	0	0	2
10543	105.43	0	0	0	0	0	0	0	0	0	0	0	0	0	0	0	0	0	0	0	0	0	1	0	0	17.755	2.1475	16.785	0	0	0	1	0	0	17.761	2.1499	16.789	0	0	0	1	0	0	17.883	2.027	16.961	0	0	0	0	-1	0	-2.0278	-17.891	16.968	0	0	0	0	0	0	0	0	0	2
10544	105.44	0	0	0	0	0	0	0	0	0	0	0	0	0	0	0	0	0	0	0	0	0	0	0	0	10.989	-10.989	19.033	0	0	0	1	0	0	17.761	2.1499	16.789	0	0	0	0	0	0	0	0	0	0	0	0	0	-1	0	-2.0278	-17.891	16.968	0	0	0	0	0	0	0	0	0	2
10545	105.45	0	0	0	0	0	0	10.917	-10.917	18.908	0	0	0	0	0	0	0	0	0	0	0	0	1	0	0	17.755	2.1475	16.785	0	0	0	1	0	0	17.761	2.1499	16.789	0	0	0	0	0	0	0	0	0	0	0	0	0	0	0	0	0	0	0	0	0	0	0	0	0	0	0	2
10546	105.46	0	0	0	0	0	0	10.917	-10.917	18.908	0	0	0	0	0	0	0	0	0	0	0	0	1	0	0	17.755	2.1475	16.785	0	0	0	1	0	0	17.761	2.1499	16.789	0	0	0	1	0	0	17.883	2.027	16.961	0	0	0	0	-1	0	-2.0278	-17.891	16.968	0	0	0	1	0	0	17.47	2.0148	16.554	2
10547	105.47	0	0	0	0	0	0	10.917	-10.917	18.908	0	0	0	0	0	0	0	0	0	0	0	0	1	0	0	17.755	2.1475	16.785	0	0	0	1	0	0	17.761	2.1499	16.789	0	0	0	0	0	0	0	0	0	0	0	0	0	0	0	0	0	0	0	0	0	0	0	0	0	0	0	2
10548	105.48	0	0	0	0	0	0	10.917	-10.917	18.908	0	0	0	0	0	0	0	0	0	0	0	0	1	0	0	17.755	2.1475	16.785	0	0	0	1	0	0	17.761	2.1499	16.789	0	0	0	0	0	0	0	0	0	0	0	0	1	-1	0	7.5503	-27.469	31.921	0	0	0	0	0	0	0	0	0	2
10549	105.49	0	0	0	0	0	0	10.917	-10.917	18.908	0	0	0	0	0	0	0	0	0	0	0	0	1	0	0	17.755	2.1475	16.785	0	0	0	1	0	0	17.761	2.1499	16.789	0	0	0	1	0	0	17.883	2.027	16.961	0	0	0	0	0	0	0	0	0	0	0	0	1	0	0	17.47	2.0148	16.554	2
10550	105.5	0	0	0	0	0	0	10.917	-10.917	18.908	0	0	0	0	0	0	0	0	0	0	0	0	1	0	0	17.755	2.1475	16.785	0	0	0	1	0	0	17.761	2.1499	16.789	0	0	0	1	0	0	17.883	2.027	16.961	0	0	0	0	0	0	0	0	0	0	0	0	1	0	0	17.47	2.0148	16.554	2
10551	105.51	0	0	0	0	0	0	0	0	0	0	0	0	0	0	0	0	0	0	0	0	0	1	0	0	17.755	2.1475	16.785	0	0	0	1	0	0	17.761	2.1499	16.789	0	0	0	0	0	0	0	0	0	0	0	0	0	0	0	0	0	0	0	0	0	0	0	0	0	0	0	2
10552	105.52	0	0	0	0	0	0	10.917	-10.917	18.908	0	0	0	0	0	0	0	0	0	0	0	0	1	0	0	17.755	2.1475	16.785	0	0	0	1	0	0	17.761	2.1499	16.789	0	0	0	0	0	0	0	0	0	0	0	0	1	-1	0	7.5503	-27.469	31.921	0	0	0	1	0	0	17.47	2.0148	16.554	2
10553	105.53	0	0	0	0	0	0	10.917	-10.917	18.908	0	0	0	0	0	0	0	0	0	0	0	0	1	0	0	17.755	2.1475	16.785	0	0	0	1	0	0	17.761	2.1499	16.789	0	0	0	1	0	0	17.883	2.027	16.961	0	0	0	0	-1	0	-2.0278	-17.891	16.968	0	0	0	0	0	0	0	0	0	2
10554	105.54	0	0	0	0	0	0	10.917	-10.917	18.908	0	0	0	0	0	0	0	0	0	0	0	0	1	0	0	17.755	2.1475	16.785	0	0	0	1	0	0	17.761	2.1499	16.789	0	0	0	0	0	0	0	0	0	0	0	0	0	-1	0	-2.0278	-17.891	16.968	0	0	0	0	0	0	0	0	0	2
10555	105.55	0	0	0	0	0	0	10.917	-10.917	18.908	0	0	0	0	0	0	0	0	0	0	0	0	1	0	0	17.755	2.1475	16.785	0	0	0	1	0	0	17.761	2.1499	16.789	0	0	0	0	0	0	0	0	0	0	0	0	0	0	0	0	0	0	0	0	0	1	0	0	17.47	2.0148	16.554	2
10556	105.56	0	0	0	0	0	0	0	0	0	0	0	0	0	0	0	0	0	0	0	0	0	0	0	0	20.079	19.73	19.907	0	0	0	1	0	0	17.761	2.1499	16.789	0	0	0	0	0	0	0	0	0	0	0	0	1	-1	0	7.5503	-27.469	31.921	0	0	0	0	0	0	0	0	0	2
10557	105.57	0	0	0	0	0	0	0	0	0	0	0	0	0	0	0	0	0	0	0	0	0	1	0	0	17.755	2.1475	16.785	0	0	0	1	0	0	17.761	2.1499	16.789	0	0	0	1	0	0	17.883	2.027	16.961	0	0	0	0	0	0	0	0	0	0	0	0	1	0	0	17.47	2.0148	16.554	2
10558	105.58	0	0	0	0	0	0	10.917	-10.917	18.908	0	0	0	0	0	0	0	0	0	0	0	0	1	0	0	17.755	2.1475	16.785	0	0	0	1	0	0	17.761	2.1499	16.789	0	0	0	1	0	0	17.883	2.027	16.961	0	0	0	0	0	0	0	0	0	0	0	0	1	0	0	17.47	2.0148	16.554	2
10559	105.59	0	0	0	0	0	0	0	0	0	0	0	0	0	0	0	0	0	0	0	0	0	1	0	0	17.755	2.1475	16.785	0	0	0	1	0	0	17.883	2.027	16.961	0	0	0	0	0	0	0	0	0	0	0	0	0	0	0	10.994	-10.994	19.042	0	0	0	0	0	0	0	0	0	2
10560	105.6	0	0	0	0	0	0	10.917	-10.917	18.908	0	0	0	0	0	0	0	0	0	0	0	0	1	0	0	17.755	2.1475	16.785	0	0	0	1	0	0	17.761	2.1499	16.789	0	0	0	1	0	0	17.883	2.027	16.961	0	0	0	0	0	0	0	0	0	0	0	0	1	0	0	17.47	2.0148	16.554	2
10561	105.61	0	0	0	0	0	0	0	0	0	0	0	0	0	0	0	0	0	0	0	0	0	1	0	0	17.755	2.1475	16.785	0	0	0	1	0	0	17.761	2.1499	16.789	0	0	0	0	0	0	0	0	0	0	0	0	0	0	0	10.994	-10.994	19.042	0	0	0	0	0	0	0	0	0	2
10562	105.62	0	0	0	0	0	0	0	0	0	0	0	0	0	0	0	0	0	0	0	0	0	1	0	0	17.755	2.1475	16.785	0	0	0	1	0	0	17.761	2.1499	16.789	0	0	0	0	0	0	0	0	0	0	0	0	0	0	0	0	0	0	0	0	0	1	0	0	17.47	2.0148	16.554	2
10563	105.63	0	0	0	0	0	0	0	0	0	0	0	0	0	0	0	0	0	0	0	0	0	1	0	0	17.755	2.1475	16.785	0	0	0	1	0	0	17.761	2.1499	16.789	0	0	0	1	0	0	17.883	2.027	16.961	0	0	0	0	0	0	0	0	0	0	0	0	1	0	0	17.47	2.0148	16.554	2
10564	105.64	0	0	0	0	0	0	0	0	0	0	0	0	0	0	0	0	0	0	0	0	0	1	0	0	17.755	2.1475	16.785	0	0	0	1	0	0	17.761	2.1499	16.789	0	0	0	1	0	0	17.883	2.027	16.961	0	0	0	0	-1	0	-2.0278	-17.891	16.968	0	0	0	1	0	0	17.47	2.0148	16.554	2
10565	105.65	0	0	0	0	0	0	10.917	-10.917	18.908	0	0	0	0	0	0	0	0	0	0	0	0	1	0	0	17.755	2.1475	16.785	0	0	0	1	0	0	17.761	2.1499	16.789	0	0	0	0	0	0	0	0	0	0	0	0	0	0	0	0	0	0	0	0	0	1	0	0	17.47	2.0148	16.554	2
10566	105.66	0	0	0	0	0	0	0	0	0	0	0	0	0	0	0	0	0	0	0	0	0	0	0	0	20.079	19.73	19.907	0	0	0	1	0	0	17.761	2.1499	16.789	0	0	0	0	0	0	0	0	0	0	0	0	0	0	0	0	0	0	0	0	0	0	0	0	0	0	0	2
10567	105.67	0	0	0	0	0	0	10.917	-10.917	18.908	0	0	0	0	0	0	0	0	0	0	0	0	1	0	0	17.755	2.1475	16.785	0	0	0	1	0	0	17.761	2.1499	16.789	0	0	0	0	0	0	0	0	0	0	0	0	0	0	0	0	0	0	0	0	0	1	0	0	17.47	2.0148	16.554	2
10568	105.68	0	0	0	0	0	0	10.917	-10.917	18.908	0	0	0	0	0	0	0	0	0	0	0	0	1	0	0	17.755	2.1475	16.785	0	0	0	1	0	0	17.761	2.1499	16.789	0	0	0	1	0	0	17.883	2.027	16.961	0	0	0	0	0	0	0	0	0	0	0	0	0	0	0	0	0	0	3
10569	105.69	0	0	0	0	0	0	0	0	0	0	0	0	0	0	0	0	0	0	0	0	0	1	0	0	17.755	2.1475	16.785	0	0	0	1	0	0	17.883	2.027	16.961	0	0	0	0	0	0	0	0	0	0	0	0	0	0	0	0	0	0	0	0	0	0	0	0	0	0	0	2
10570	105.7	0	0	0	0	0	0	0	0	0	0	0	0	0	0	0	0	0	0	0	0	0	0	0	0	20.079	19.73	19.907	0	0	0	1	0	0	17.761	2.1499	16.789	0	0	0	1	0	0	17.883	2.027	16.961	0	0	0	0	0	0	0	0	0	0	0	0	1	0	0	17.47	2.0148	16.554	2
10571	105.71	0	0	0	0	0	0	0	0	0	0	0	0	0	0	0	0	0	0	0	0	0	1	0	0	17.755	2.1475	16.785	0	0	0	1	0	0	17.761	2.1499	16.789	0	0	0	0	0	0	0	0	0	0	0	0	0	0	0	10.994	-10.994	19.042	0	0	0	1	0	0	17.47	2.0148	16.554	2
10572	105.72	0	0	0	0	0	0	0	0	0	0	0	0	0	0	0	0	0	0	0	0	0	1	0	0	17.755	2.1475	16.785	0	0	0	1	0	0	17.761	2.1499	16.789	0	0	0	1	0	0	17.883	2.027	16.961	0	0	0	0	0	0	0	0	0	0	0	0	0	0	0	0	0	0	2
10573	105.73	0	0	0	0	0	0	0	0	0	0	0	0	0	0	0	0	0	0	0	0	0	1	0	0	17.755	2.1475	16.785	0	0	0	1	0	0	17.761	2.1499	16.789	0	0	0	1	0	0	17.883	2.027	16.961	0	0	0	0	-1	0	-2.0278	-17.891	16.968	0	0	0	1	0	0	17.47	2.0148	16.554	2
10574	105.74	0	0	0	0	0	0	10.917	-10.917	18.908	0	0	0	0	0	0	0	0	0	0	0	0	1	0	0	17.755	2.1475	16.785	0	0	0	1	0	0	17.761	2.1499	16.789	0	0	0	0	0	0	0	0	0	0	0	0	0	0	0	0	0	0	0	0	0	1	0	0	17.47	2.0148	16.554	2
10575	105.75	0	0	0	0	0	0	0	0	0	0	0	0	0	0	0	0	0	0	0	0	0	1	0	0	17.755	2.1475	16.785	0	0	0	1	0	0	17.761	2.1499	16.789	0	0	0	0	0	0	0	0	0	0	0	0	0	0	0	0	0	0	0	0	0	0	0	0	0	0	0	2
10576	105.76	0	0	0	0	0	0	0	0	0	0	0	0	0	0	0	0	0	0	0	0	0	0	0	0	20.079	19.73	19.907	0	0	0	1	0	0	17.761	2.1499	16.789	0	0	0	1	0	0	17.883	2.027	16.961	0	0	0	0	0	0	0	0	0	0	0	0	1	0	0	17.47	2.0148	16.554	2
10577	105.77	0	0	0	0	0	0	10.917	-10.917	18.908	0	0	0	0	0	0	0	0	0	0	0	0	0	0	0	10.989	-10.989	19.033	0	0	0	1	0	0	17.761	2.1499	16.789	0	0	0	0	0	0	0	0	0	0	0	0	0	0	0	0	0	0	0	0	0	0	0	0	0	0	0	3
10578	105.78	0	0	0	0	0	0	10.917	-10.917	18.908	0	0	0	0	0	0	0	0	0	0	0	0	1	0	0	17.755	2.1475	16.785	0	0	0	1	0	0	17.761	2.1499	16.789	0	0	0	1	0	0	17.883	2.027	16.961	0	0	0	0	0	0	0	0	0	0	0	0	0	0	0	0	0	0	2
10579	105.79	0	0	0	0	0	0	10.917	-10.917	18.908	0	0	0	0	0	0	0	0	0	0	0	0	1	0	0	17.755	2.1475	16.785	0	0	0	1	0	0	17.761	2.1499	16.789	0	0	0	0	0	0	0	0	0	0	0	0	0	-1	0	-2.0278	-17.891	16.968	0	0	0	0	0	0	0	0	0	2
10580	105.8	0	0	0	0	0	0	10.917	-10.917	18.908	0	0	0	0	0	0	0	0	0	0	0	0	1	0	0	17.755	2.1475	16.785	0	0	0	1	0	0	17.761	2.1499	16.789	0	0	0	0	0	0	0	0	0	0	0	0	0	0	0	0	0	0	0	0	0	1	0	0	17.47	2.0148	16.554	2
10581	105.81	0	0	0	0	0	0	10.917	-10.917	18.908	0	0	0	0	0	0	0	0	0	0	0	0	1	0	0	17.755	2.1475	16.785	0	0	0	1	0	0	17.761	2.1499	16.789	0	0	0	0	0	0	0	0	0	0	0	0	0	0	0	0	0	0	0	0	0	1	0	0	17.47	2.0148	16.554	2
10582	105.82	0	0	0	0	0	0	10.917	-10.917	18.908	0	0	0	0	0	0	0	0	0	0	0	0	1	0	0	17.755	2.1475	16.785	0	0	0	1	0	0	17.761	2.1499	16.789	0	0	0	0	0	0	0	0	0	0	0	0	0	0	0	10.994	-10.994	19.042	0	0	0	0	0	0	0	0	0	2
10583	105.83	0	0	0	0	0	0	0	0	0	0	0	0	0	0	0	0	0	0	0	0	0	1	0	0	17.755	2.1475	16.785	0	0	0	1	0	0	17.761	2.1499	16.789	0	0	0	0	0	0	0	0	0	0	0	0	0	0	0	0	0	0	0	0	0	0	0	0	0	0	0	2
10584	105.84	0	0	0	0	0	0	10.917	-10.917	18.908	0	0	0	0	0	0	0	0	0	0	0	0	0	0	0	10.989	-10.989	19.033	0	0	0	1	0	0	17.761	2.1499	16.789	0	0	0	0	0	0	0	0	0	0	0	0	0	0	0	0	0	0	0	0	0	1	0	0	17.47	2.0148	16.554	2
10585	105.85	0	0	0	0	0	0	0	0	0	0	0	0	0	0	0	0	0	0	0	0	0	1	0	0	17.755	2.1475	16.785	0	0	0	1	0	0	17.761	2.1499	16.789	0	0	0	1	0	0	17.883	2.027	16.961	0	0	0	0	0	0	0	0	0	0	0	0	1	0	0	17.47	2.0148	16.554	2
10586	105.86	0	0	0	0	0	0	0	0	0	0	0	0	0	0	0	0	0	0	0	0	0	1	0	0	17.755	2.1475	16.785	0	0	0	1	0	0	17.761	2.1499	16.789	0	0	0	0	0	0	0	0	0	0	0	0	0	-1	0	-2.0278	-17.891	16.968	0	0	0	1	0	0	17.47	2.0148	16.554	2
10587	105.87	0	0	0	0	0	0	0	0	0	0	0	0	0	0	0	0	0	0	0	0	0	1	0	0	17.755	2.1475	16.785	0	0	0	1	0	0	17.761	2.1499	16.789	0	0	0	0	0	0	0	0	0	0	0	0	0	-1	0	-2.0278	-17.891	16.968	0	0	0	0	0	0	0	0	0	2
10588	105.88	0	0	0	0	0	0	10.917	-10.917	18.908	0	0	0	0	0	0	0	0	0	0	0	0	1	0	0	17.755	2.1475	16.785	0	0	0	1	0	0	17.761	2.1499	16.789	0	0	0	0	0	0	0	0	0	0	0	0	0	0	0	0	0	0	0	0	0	1	0	0	17.47	2.0148	16.554	2
10589	105.89	0	0	0	0	0	0	0	0	0	0	0	0	0	0	0	0	0	0	0	0	0	1	0	0	17.755	2.1475	16.785	0	0	0	1	0	0	17.761	2.1499	16.789	0	0	0	0	0	0	0	0	0	0	0	0	0	-1	0	-2.0278	-17.891	16.968	0	0	0	0	0	0	0	0	0	2
10590	105.9	0	0	0	0	0	0	10.917	-10.917	18.908	0	0	0	0	0	0	0	0	0	0	0	0	0	0	0	20.079	19.73	19.907	0	0	0	1	0	0	17.761	2.1499	16.789	0	0	0	1	0	0	17.883	2.027	16.961	0	0	0	0	0	0	0	0	0	0	0	0	1	0	0	17.47	2.0148	16.554	2
10591	105.91	0	0	0	0	0	0	0	0	0	0	0	0	0	0	0	0	0	0	0	0	0	1	0	0	17.755	2.1475	16.785	0	0	0	1	0	0	17.761	2.1499	16.789	0	0	0	0	0	0	0	0	0	0	0	0	0	-1	0	-2.0278	-17.891	16.968	0	0	0	1	0	0	17.47	2.0148	16.554	2
10592	105.92	0	0	0	0	0	0	0	0	0	0	0	0	0	0	0	0	0	0	0	0	0	0	0	0	10.989	-10.989	19.033	0	0	0	1	0	0	17.761	2.1499	16.789	0	0	0	0	0	0	0	0	0	0	0	0	0	0	0	10.994	-10.994	19.042	0	0	0	1	0	0	17.47	2.0148	16.554	2
10593	105.93	0	0	0	0	0	0	10.917	-10.917	18.908	0	0	0	0	0	0	0	0	0	0	0	0	1	0	0	17.755	2.1475	16.785	0	0	0	1	0	0	17.761	2.1499	16.789	0	0	0	1	0	0	17.883	2.027	16.961	0	0	0	0	0	0	10.994	-10.994	19.042	0	0	0	1	0	0	17.47	2.0148	16.554	0
10594	105.94	0	0	0	0	0	0	10.917	-10.917	18.908	0	0	0	0	0	0	0	0	0	0	0	0	1	0	0	17.755	2.1475	16.785	0	0	0	1	0	0	17.761	2.1499	16.789	0	0	0	0	0	0	0	0	0	0	0	0	0	0	0	0	0	0	0	0	0	0	0	0	0	0	0	2
10595	105.95	0	0	0	0	0	0	10.917	-10.917	18.908	0	0	0	0	0	0	0	0	0	0	0	0	1	0	0	17.755	2.1475	16.785	0	0	0	1	0	0	17.761	2.1499	16.789	0	0	0	0	0	0	0	0	0	0	0	0	0	0	0	0	0	0	0	0	0	1	0	0	17.47	2.0148	16.554	2
10596	105.96	0	0	0	0	0	0	10.917	-10.917	18.908	0	0	0	0	0	0	0	0	0	0	0	0	1	0	0	17.755	2.1475	16.785	0	0	0	1	0	0	17.761	2.1499	16.789	0	0	0	1	0	0	17.883	2.027	16.961	0	0	0	0	0	0	0	0	0	0	0	0	0	0	0	0	0	0	2
10597	105.97	0	0	0	0	0	0	0	0	0	0	0	0	0	0	0	0	0	0	0	0	0	1	0	0	17.755	2.1475	16.785	0	0	0	1	0	0	17.761	2.1499	16.789	0	0	0	0	0	0	0	0	0	0	0	0	0	0	0	0	0	0	0	0	0	1	0	0	17.47	2.0148	16.554	2
10598	105.98	0	0	0	0	0	0	0	0	0	0	0	0	0	0	0	0	0	0	0	0	0	0	0	0	20.079	19.73	19.907	0	0	0	1	0	0	17.761	2.1499	16.789	0	0	0	1	0	0	17.883	2.027	16.961	0	0	0	0	0	0	0	0	0	0	0	0	1	0	0	17.47	2.0148	16.554	2
10599	105.99	0	0	0	0	0	0	0	0	0	0	0	0	0	0	0	0	0	0	0	0	0	1	0	0	17.755	2.1475	16.785	0	0	0	1	0	0	17.761	2.1499	16.789	0	0	0	1	0	0	17.883	2.027	16.961	0	0	0	0	0	0	0	0	0	0	0	0	0	0	0	0	0	0	2
10600	106	0	0	0	0	0	0	0	0	0	0	0	0	0	0	0	0	0	0	0	0	0	1	0	0	17.755	2.1475	16.785	0	0	0	1	0	0	17.761	2.1499	16.789	0	0	0	1	0	0	17.883	2.027	16.961	0	0	0	0	0	0	0	0	0	0	0	0	1	0	0	17.47	2.0148	16.554	2
10601	106.01	0	0	0	0	0	0	0	0	0	0	0	0	0	0	0	0	0	0	0	0	0	1	0	0	17.755	2.1475	16.785	0	0	0	1	0	0	17.761	2.1499	16.789	0	0	0	1	0	0	17.883	2.027	16.961	0	0	0	0	0	0	10.994	-10.994	19.042	0	0	0	0	0	0	0	0	0	2
10602	106.02	0	0	0	0	0	0	10.917	-10.917	18.908	0	0	0	0	0	0	0	0	0	0	0	0	1	0	0	17.755	2.1475	16.785	0	0	0	1	0	0	17.761	2.1499	16.789	0	0	0	0	0	0	0	0	0	0	0	0	1	-1	0	7.5503	-27.469	31.921	0	0	0	0	0	0	0	0	0	2
10603	106.03	0	0	0	0	0	0	0	0	0	0	0	0	0	0	0	0	0	0	0	0	0	1	0	0	17.755	2.1475	16.785	0	0	0	1	0	0	17.761	2.1499	16.789	0	0	0	1	0	0	17.883	2.027	16.961	0	0	0	0	0	0	10.994	-10.994	19.042	0	0	0	1	0	0	17.47	2.0148	16.554	2
10604	106.04	0	0	0	0	0	0	10.917	-10.917	18.908	0	0	0	0	0	0	0	0	0	0	0	0	1	0	0	17.755	2.1475	16.785	0	0	0	1	0	0	17.761	2.1499	16.789	0	0	0	0	0	0	0	0	0	0	0	0	0	0	0	0	0	0	0	0	0	0	0	0	0	0	0	2
10605	106.05	0	0	0	0	0	0	0	0	0	0	0	0	1	0	0	17.821	2.0372	16.895	0	0	0	1	0	0	17.755	2.1475	16.785	0	0	0	1	0	0	17.761	2.1499	16.789	0	0	0	0	0	0	0	0	0	0	0	0	0	0	0	10.994	-10.994	19.042	0	0	0	1	0	0	17.47	2.0148	16.554	2
10606	106.06	0	0	0	0	0	0	0	0	0	0	0	0	0	0	0	0	0	0	0	0	0	1	0	0	17.755	2.1475	16.785	0	0	0	1	0	0	17.761	2.1499	16.789	0	0	0	0	0	0	0	0	0	0	0	0	0	0	0	0	0	0	0	0	0	1	0	0	17.47	2.0148	16.554	2
10607	106.07	0	0	0	0	0	0	10.917	-10.917	18.908	0	0	0	0	0	0	0	0	0	0	0	0	1	0	0	17.755	2.1475	16.785	0	0	0	1	0	0	17.761	2.1499	16.789	0	0	0	0	0	0	0	0	0	0	0	0	0	0	0	10.994	-10.994	19.042	0	0	0	1	0	0	17.47	2.0148	16.554	2
10608	106.08	0	0	0	0	0	0	0	0	0	0	0	0	0	0	0	0	0	0	0	0	0	1	0	0	17.755	2.1475	16.785	0	0	0	1	0	0	17.761	2.1499	16.789	0	0	0	1	0	0	17.883	2.027	16.961	0	0	0	0	0	0	10.994	-10.994	19.042	0	0	0	1	0	0	17.47	2.0148	16.554	2
10609	106.09	0	0	0	0	0	0	10.917	-10.917	18.908	0	0	0	0	0	0	0	0	0	0	0	0	1	0	0	17.755	2.1475	16.785	0	0	0	1	0	0	17.761	2.1499	16.789	0	0	0	0	0	0	0	0	0	0	0	0	0	0	0	10.994	-10.994	19.042	0	0	0	0	0	0	0	0	0	2
10610	106.1	0	0	0	0	0	0	10.917	-10.917	18.908	0	0	0	0	0	0	0	0	0	0	0	0	1	0	0	17.755	2.1475	16.785	0	0	0	1	0	0	17.761	2.1499	16.789	0	0	0	0	0	0	0	0	0	0	0	0	0	0	0	10.994	-10.994	19.042	0	0	0	1	0	0	17.47	2.0148	16.554	2
10611	106.11	0	0	0	0	0	0	0	0	0	0	0	0	0	0	0	0	0	0	0	0	0	1	0	0	17.755	2.1475	16.785	0	0	0	1	0	0	17.761	2.1499	16.789	0	0	0	0	0	0	0	0	0	0	0	0	0	0	0	0	0	0	0	0	0	1	0	0	17.47	2.0148	16.554	2
10612	106.12	0	0	0	0	0	0	0	0	0	0	0	0	0	0	0	0	0	0	0	0	0	1	0	0	17.755	2.1475	16.785	0	0	0	1	0	0	17.761	2.1499	16.789	0	0	0	1	0	0	17.883	2.027	16.961	0	0	0	0	0	0	10.994	-10.994	19.042	0	0	0	0	0	0	0	0	0	2
10613	106.13	0	0	0	0	0	0	10.917	-10.917	18.908	0	0	0	0	0	0	0	0	0	0	0	0	1	0	0	17.755	2.1475	16.785	0	0	0	1	0	0	17.761	2.1499	16.789	0	0	0	0	0	0	0	0	0	0	0	0	0	0	0	0	0	0	0	0	0	1	0	0	17.47	2.0148	16.554	2
10614	106.14	0	0	0	0	0	0	0	0	0	0	0	0	0	0	0	0	0	0	0	0	0	1	0	0	17.755	2.1475	16.785	0	0	0	1	0	0	17.761	2.1499	16.789	0	0	0	1	0	0	17.883	2.027	16.961	0	0	0	0	0	0	10.994	-10.994	19.042	0	0	0	0	0	0	0	0	0	2
10615	106.15	0	0	0	0	0	0	10.917	-10.917	18.908	0	0	0	0	0	0	0	0	0	0	0	0	1	0	0	17.755	2.1475	16.785	0	0	0	1	0	0	17.761	2.1499	16.789	0	0	0	1	0	0	17.883	2.027	16.961	0	0	0	0	0	0	10.994	-10.994	19.042	0	0	0	1	0	0	17.47	2.0148	16.554	2
10616	106.16	0	0	0	0	0	0	10.917	-10.917	18.908	0	0	0	0	0	0	0	0	0	0	0	0	1	0	0	17.755	2.1475	16.785	0	0	0	1	0	0	17.761	2.1499	16.789	0	0	0	0	0	0	0	0	0	0	0	0	0	-1	0	-2.0278	-17.891	16.968	0	0	0	0	0	0	0	0	0	2
10617	106.17	0	0	0	0	0	0	0	0	0	0	0	0	0	0	0	0	0	0	0	0	0	1	0	0	17.755	2.1475	16.785	0	0	0	1	0	0	17.761	2.1499	16.789	0	0	0	0	0	0	0	0	0	0	0	0	0	0	0	0	0	0	0	0	0	1	0	0	17.47	2.0148	16.554	2
10618	106.18	0	0	0	0	0	0	0	0	0	0	0	0	0	0	0	0	0	0	0	0	0	1	0	0	17.755	2.1475	16.785	0	0	0	1	0	0	17.761	2.1499	16.789	0	0	0	0	0	0	0	0	0	0	0	0	0	0	0	0	0	0	0	0	0	1	0	0	17.47	2.0148	16.554	2
10619	106.19	0	0	0	0	0	0	0	0	0	0	0	0	0	0	0	0	0	0	0	0	0	1	0	0	17.755	2.1475	16.785	0	0	0	1	0	0	17.761	2.1499	16.789	0	0	0	0	0	0	0	0	0	0	0	0	0	0	0	10.994	-10.994	19.042	0	0	0	0	0	0	0	0	0	2
10620	106.2	0	0	0	0	0	0	0	0	0	0	0	0	0	0	0	0	0	0	0	0	0	1	0	0	17.755	2.1475	16.785	0	0	0	1	0	0	17.761	2.1499	16.789	0	0	0	1	0	0	17.883	2.027	16.961	0	0	0	0	-1	0	-2.0278	-17.891	16.968	0	0	0	1	0	0	17.47	2.0148	16.554	2
10621	106.21	0	0	0	0	0	0	10.917	-10.917	18.908	0	0	0	0	0	0	0	0	0	0	0	0	1	0	0	17.755	2.1475	16.785	0	0	0	1	0	0	17.761	2.1499	16.789	0	0	0	0	0	0	0	0	0	0	0	0	0	0	0	0	0	0	0	0	0	1	0	0	17.47	2.0148	16.554	2
10622	106.22	0	0	0	0	0	0	0	0	0	0	0	0	0	0	0	0	0	0	0	0	0	1	0	0	17.755	2.1475	16.785	0	0	0	1	0	0	17.761	2.1499	16.789	0	0	0	1	0	0	17.883	2.027	16.961	0	0	0	0	0	0	10.994	-10.994	19.042	0	0	0	1	0	0	17.47	2.0148	16.554	2
10623	106.23	0	0	0	0	0	0	0	0	0	0	0	0	0	0	0	0	0	0	0	0	0	1	0	0	17.755	2.1475	16.785	0	0	0	1	0	0	17.761	2.1499	16.789	0	0	0	1	0	0	17.883	2.027	16.961	0	0	0	0	0	0	0	0	0	0	0	0	1	0	0	17.47	2.0148	16.554	2
10624	106.24	0	0	0	0	0	0	10.917	-10.917	18.908	0	0	0	0	0	0	0	0	0	0	0	0	1	0	0	17.755	2.1475	16.785	0	0	0	1	0	0	17.761	2.1499	16.789	0	0	0	0	0	0	0	0	0	0	0	0	0	0	0	0	0	0	0	0	0	0	0	0	0	0	0	2
10625	106.25	0	0	0	0	0	0	10.917	-10.917	18.908	0	0	0	0	0	0	0	0	0	0	0	0	1	0	0	17.755	2.1475	16.785	0	0	0	1	0	0	17.761	2.1499	16.789	0	0	0	1	0	0	17.883	2.027	16.961	0	0	0	0	0	0	10.994	-10.994	19.042	0	0	0	1	0	0	17.47	2.0148	16.554	2
10626	106.26	0	0	0	0	0	0	0	0	0	0	0	0	0	0	0	0	0	0	0	0	0	1	0	0	17.755	2.1475	16.785	0	0	0	1	0	0	17.761	2.1499	16.789	0	0	0	1	0	0	17.883	2.027	16.961	0	0	0	0	-1	0	-2.0278	-17.891	16.968	0	0	0	1	0	0	17.47	2.0148	16.554	2
10627	106.27	0	0	0	0	0	0	10.917	-10.917	18.908	0	0	0	0	0	0	0	0	0	0	0	0	1	0	0	17.755	2.1475	16.785	0	0	0	1	0	0	17.761	2.1499	16.789	0	0	0	0	0	0	0	0	0	0	0	0	0	-1	0	-2.0278	-17.891	16.968	0	0	0	1	0	0	17.47	2.0148	16.554	2
10628	106.28	0	0	0	0	0	0	10.917	-10.917	18.908	0	0	0	0	0	0	0	0	0	0	0	0	1	0	0	17.755	2.1475	16.785	0	0	0	1	0	0	17.761	2.1499	16.789	0	0	0	1	0	0	17.883	2.027	16.961	0	0	0	0	0	0	0	0	0	0	0	0	1	0	0	17.47	2.0148	16.554	2
10629	106.29	0	0	0	0	0	0	10.917	-10.917	18.908	0	0	0	0	0	0	0	0	0	0	0	0	1	0	0	17.755	2.1475	16.785	0	0	0	1	0	0	17.761	2.1499	16.789	0	0	0	0	0	0	0	0	0	0	0	0	0	0	0	10.994	-10.994	19.042	0	0	0	0	0	0	0	0	0	2
10630	106.3	0	0	0	0	0	0	10.917	-10.917	18.908	0	0	0	0	0	0	0	0	0	0	0	0	1	0	0	17.755	2.1475	16.785	0	0	0	1	0	0	17.761	2.1499	16.789	0	0	0	0	0	0	0	0	0	0	0	0	0	0	0	0	0	0	0	0	0	1	0	0	17.47	2.0148	16.554	2
10631	106.31	0	0	0	0	0	0	10.917	-10.917	18.908	0	0	0	0	0	0	0	0	0	0	0	0	1	0	0	17.755	2.1475	16.785	0	0	0	1	0	0	17.761	2.1499	16.789	0	0	0	0	0	0	0	0	0	0	0	0	0	0	0	0	0	0	0	0	0	0	0	0	0	0	0	2
10632	106.32	0	0	0	0	0	0	10.917	-10.917	18.908	0	0	0	0	0	0	0	0	0	0	0	0	1	0	0	17.755	2.1475	16.785	0	0	0	1	0	0	17.761	2.1499	16.789	0	0	0	1	0	0	17.883	2.027	16.961	0	0	0	0	0	0	0	0	0	0	0	0	0	0	0	0	0	0	2
10633	106.33	0	0	0	0	0	0	0	0	0	0	0	0	0	0	0	0	0	0	0	0	0	1	0	0	17.755	2.1475	16.785	0	0	0	1	0	0	17.761	2.1499	16.789	0	0	0	0	0	0	0	0	0	0	0	0	0	0	0	0	0	0	0	0	0	1	0	0	17.47	2.0148	16.554	2
10634	106.34	0	0	0	0	0	0	0	0	0	0	0	0	0	0	0	0	0	0	0	0	0	1	0	0	17.755	2.1475	16.785	0	0	0	1	0	0	17.761	2.1499	16.789	0	0	0	0	0	0	0	0	0	0	0	0	0	0	0	0	0	0	0	0	0	1	0	0	17.47	2.0148	16.554	2
10635	106.35	0	0	0	0	0	0	0	0	0	0	0	0	0	0	0	0	0	0	0	0	0	1	0	0	17.755	2.1475	16.785	0	0	0	1	0	0	17.761	2.1499	16.789	0	0	0	0	0	0	0	0	0	0	0	0	0	0	0	10.994	-10.994	19.042	0	0	0	0	0	0	0	0	0	2
10636	106.36	0	0	0	0	0	0	10.917	-10.917	18.908	0	0	0	0	0	0	0	0	0	0	0	0	1	0	0	17.755	2.1475	16.785	0	0	0	1	0	0	17.761	2.1499	16.789	0	0	0	0	0	0	0	0	0	0	0	0	1	-1	0	7.5503	-27.469	31.921	0	0	0	1	0	0	17.47	2.0148	16.554	2
10637	106.37	0	0	0	0	0	0	10.917	-10.917	18.908	0	0	0	0	0	0	0	0	0	0	0	0	1	0	0	17.755	2.1475	16.785	0	0	0	1	0	0	17.761	2.1499	16.789	0	0	0	0	0	0	0	0	0	0	0	0	0	0	0	0	0	0	0	0	0	1	0	0	17.47	2.0148	16.554	2
10638	106.38	0	0	0	0	0	0	10.917	-10.917	18.908	0	0	0	0	0	0	0	0	0	0	0	0	1	0	0	17.755	2.1475	16.785	0	0	0	1	0	0	17.761	2.1499	16.789	0	0	0	0	0	0	0	0	0	0	0	0	0	0	0	10.994	-10.994	19.042	0	0	0	1	0	0	17.47	2.0148	16.554	2
10639	106.39	0	0	0	0	0	0	10.917	-10.917	18.908	0	0	0	0	0	0	0	0	0	0	0	0	1	0	0	17.755	2.1475	16.785	0	0	0	1	0	0	17.761	2.1499	16.789	0	0	0	0	0	0	0	0	0	0	0	0	0	0	0	0	0	0	0	0	0	1	0	0	17.47	2.0148	16.554	2
10640	106.4	0	0	0	0	0	0	0	0	0	0	0	0	0	0	0	0	0	0	0	0	0	1	0	0	17.755	2.1475	16.785	0	0	0	1	0	0	17.761	2.1499	16.789	0	0	0	1	0	0	17.883	2.027	16.961	0	0	0	1	-1	0	7.5503	-27.469	31.921	0	0	0	1	0	0	17.47	2.0148	16.554	2
10641	106.41	0	0	0	0	0	0	10.917	-10.917	18.908	0	0	0	0	0	0	0	0	0	0	0	0	1	0	0	17.755	2.1475	16.785	0	0	0	1	0	0	17.761	2.1499	16.789	0	0	0	0	0	0	0	0	0	0	0	0	0	0	0	0	0	0	0	0	0	0	0	0	0	0	0	2
10642	106.42	0	0	0	0	0	0	10.917	-10.917	18.908	0	0	0	0	0	0	0	0	0	0	0	0	1	0	0	17.755	2.1475	16.785	0	0	0	1	0	0	17.761	2.1499	16.789	0	0	0	0	0	0	0	0	0	0	0	0	0	0	0	10.994	-10.994	19.042	0	0	0	1	0	0	17.47	2.0148	16.554	2
10643	106.43	0	0	0	0	0	0	10.917	-10.917	18.908	0	0	0	0	0	0	0	0	0	0	0	0	1	0	0	17.755	2.1475	16.785	0	0	0	1	0	0	17.761	2.1499	16.789	0	0	0	0	0	0	0	0	0	0	0	0	0	0	0	0	0	0	0	0	0	1	0	0	17.47	2.0148	16.554	2
10644	106.44	0	0	0	0	0	0	10.917	-10.917	18.908	0	0	0	0	0	0	0	0	0	0	0	0	1	0	0	17.755	2.1475	16.785	0	0	0	1	0	0	17.761	2.1499	16.789	0	0	0	0	0	0	0	0	0	0	0	0	0	0	0	10.994	-10.994	19.042	0	0	0	1	0	0	17.47	2.0148	16.554	2
10645	106.45	0	0	0	0	0	0	0	0	0	0	0	0	0	0	0	0	0	0	0	0	0	1	0	0	17.755	2.1475	16.785	0	0	0	1	0	0	17.761	2.1499	16.789	0	0	0	0	0	0	0	0	0	0	0	0	0	-1	0	-2.0278	-17.891	16.968	0	0	0	1	0	0	17.47	2.0148	16.554	2
10646	106.46	0	0	0	0	0	0	10.917	-10.917	18.908	0	0	0	0	0	0	0	0	0	0	0	0	1	0	0	17.755	2.1475	16.785	0	0	0	1	0	0	17.761	2.1499	16.789	0	0	0	0	0	0	0	0	0	0	0	0	0	0	0	0	0	0	0	0	0	1	0	0	17.47	2.0148	16.554	2
10647	106.47	0	0	0	0	0	0	0	0	0	0	0	0	0	0	0	0	0	0	0	0	0	1	0	0	17.755	2.1475	16.785	0	0	0	1	0	0	17.761	2.1499	16.789	0	0	0	1	0	0	17.883	2.027	16.961	0	0	0	0	-1	0	-2.0278	-17.891	16.968	0	0	0	1	0	0	17.47	2.0148	16.554	2
10648	106.48	0	0	0	0	0	0	0	0	0	0	0	0	0	0	0	0	0	0	0	0	0	1	0	0	17.755	2.1475	16.785	0	0	0	1	0	0	17.761	2.1499	16.789	0	0	0	0	0	0	0	0	0	0	0	0	0	0	0	10.994	-10.994	19.042	0	0	0	1	0	0	17.47	2.0148	16.554	2
10649	106.49	0	0	0	0	0	0	10.917	-10.917	18.908	0	0	0	0	0	0	0	0	0	0	0	0	1	0	0	17.755	2.1475	16.785	0	0	0	1	0	0	17.761	2.1499	16.789	0	0	0	0	0	0	0	0	0	0	0	0	0	0	0	0	0	0	0	0	0	0	0	0	0	0	0	2
10650	106.5	0	0	0	0	0	0	10.917	-10.917	18.908	0	0	0	0	0	0	0	0	0	0	0	0	1	0	0	17.755	2.1475	16.785	0	0	0	1	0	0	17.761	2.1499	16.789	0	0	0	1	0	0	17.883	2.027	16.961	0	0	0	0	0	0	10.994	-10.994	19.042	0	0	0	1	0	0	17.47	2.0148	16.554	2
10651	106.51	0	0	0	0	0	0	10.917	-10.917	18.908	0	0	0	0	0	0	0	0	0	0	0	0	1	0	0	17.755	2.1475	16.785	0	0	0	1	0	0	17.761	2.1499	16.789	0	0	0	0	0	0	0	0	0	0	0	0	0	0	0	0	0	0	0	0	0	1	0	0	17.47	2.0148	16.554	2
10652	106.52	0	0	0	0	0	0	10.917	-10.917	18.908	0	0	0	1	0	0	17.816	2.0366	16.89	0	0	0	1	0	0	17.755	2.1475	16.785	0	0	0	1	0	0	17.761	2.1499	16.789	0	0	0	0	0	0	0	0	0	0	0	0	0	0	0	0	0	0	0	0	0	0	0	0	0	0	0	2
10653	106.53	0	0	0	0	0	0	10.917	-10.917	18.908	0	0	0	0	0	0	0	0	0	0	0	0	1	0	0	17.755	2.1475	16.785	0	0	0	1	0	0	17.761	2.1499	16.789	0	0	0	0	0	0	0	0	0	0	0	0	0	-1	0	-2.0278	-17.891	16.968	0	0	0	1	0	0	17.47	2.0148	16.554	2
10654	106.54	0	0	0	0	0	0	0	0	0	0	0	0	0	0	0	0	0	0	0	0	0	1	0	0	17.755	2.1475	16.785	0	0	0	1	0	0	17.761	2.1499	16.789	0	0	0	0	0	0	0	0	0	0	0	0	0	0	0	0	0	0	0	0	0	0	0	0	0	0	0	2
10655	106.55	0	0	0	0	0	0	0	0	0	0	0	0	0	0	0	0	0	0	0	0	0	1	0	0	17.755	2.1475	16.785	0	0	0	1	0	0	17.761	2.1499	16.789	0	0	0	0	0	0	0	0	0	0	0	0	0	0	0	10.994	-10.994	19.042	0	0	0	1	0	0	17.47	2.0148	16.554	2
10656	106.56	0	0	0	0	0	0	10.917	-10.917	18.908	0	0	0	0	0	0	0	0	0	0	0	0	1	0	0	17.755	2.1475	16.785	0	0	0	1	0	0	17.761	2.1499	16.789	0	0	0	0	0	0	0	0	0	0	0	0	1	-1	0	7.5503	-27.469	31.921	0	0	0	1	0	0	17.47	2.0148	16.554	2
10657	106.57	0	0	0	0	0	0	0	0	0	0	0	0	0	0	0	0	0	0	0	0	0	1	0	0	17.755	2.1475	16.785	0	0	0	1	0	0	17.761	2.1499	16.789	0	0	0	0	0	0	0	0	0	0	0	0	0	0	0	10.994	-10.994	19.042	0	0	0	0	0	0	0	0	0	0
10658	106.58	0	0	0	0	0	0	10.917	-10.917	18.908	0	0	0	0	0	0	0	0	0	0	0	0	1	0	0	17.755	2.1475	16.785	0	0	0	1	0	0	17.761	2.1499	16.789	0	0	0	0	0	0	0	0	0	0	0	0	0	-1	0	-2.0278	-17.891	16.968	0	0	0	1	0	0	17.47	2.0148	16.554	2
10659	106.59	0	0	0	0	0	0	10.917	-10.917	18.908	0	0	0	0	0	0	0	0	0	0	0	0	1	0	0	17.757	2.1494	16.786	0	0	0	1	0	0	17.761	2.1499	16.789	0	0	0	0	0	0	0	0	0	0	0	0	0	-1	0	-2.0278	-17.891	16.968	0	0	0	1	0	0	17.47	2.0148	16.554	2
10660	106.6	0	0	0	0	0	0	0	0	0	0	0	0	0	0	0	0	0	0	0	0	0	1	0	0	17.755	2.1475	16.785	0	0	0	1	0	0	17.761	2.1499	16.789	0	0	0	0	0	0	0	0	0	0	0	0	0	0	0	0	0	0	0	0	0	1	0	0	17.47	2.0148	16.554	2
10661	106.61	0	0	0	0	0	0	0	0	0	0	0	0	0	0	0	0	0	0	0	0	0	1	0	0	17.755	2.1475	16.785	0	0	0	1	0	0	17.761	2.1499	16.789	0	0	0	1	0	0	17.883	2.027	16.961	0	0	0	0	-1	0	-2.0278	-17.891	16.968	0	0	0	0	0	0	0	0	0	2
10662	106.62	0	0	0	0	0	0	0	0	0	0	0	0	0	0	0	0	0	0	0	0	0	1	0	0	17.755	2.1475	16.785	0	0	0	1	0	0	17.761	2.1499	16.789	0	0	0	0	0	0	0	0	0	0	0	0	0	0	0	0	0	0	0	0	0	1	0	0	17.47	2.0148	16.554	2
10663	106.63	0	0	0	0	0	0	10.917	-10.917	18.908	0	0	0	0	0	0	0	0	0	0	0	0	1	0	0	17.755	2.1475	16.785	0	0	0	1	0	0	17.761	2.1499	16.789	0	0	0	1	0	0	17.883	2.027	16.961	0	0	0	0	0	0	10.994	-10.994	19.042	0	0	0	1	0	0	17.47	2.0148	16.554	2
10664	106.64	0	0	0	0	0	0	10.917	-10.917	18.908	0	0	0	0	0	0	0	0	0	0	0	0	1	0	0	17.755	2.1475	16.785	0	0	0	1	0	0	17.761	2.1499	16.789	0	0	0	0	0	0	0	0	0	0	0	0	0	0	0	0	0	0	0	0	0	0	0	0	0	0	0	2
10665	106.65	0	0	0	0	0	0	0	0	0	0	0	0	0	0	0	0	0	0	0	0	0	1	0	0	17.755	2.1475	16.785	0	0	0	1	0	0	17.761	2.1499	16.789	0	0	0	1	0	0	17.883	2.027	16.961	0	0	0	0	0	0	0	0	0	0	0	0	1	0	0	17.47	2.0148	16.554	2
10666	106.66	0	0	0	0	0	0	10.917	-10.917	18.908	0	0	0	0	0	0	0	0	0	0	0	0	1	0	0	17.755	2.1475	16.785	0	0	0	1	0	0	17.761	2.1499	16.789	0	0	0	0	0	0	0	0	0	0	0	0	0	0	0	0	0	0	0	0	0	1	0	0	17.47	2.0148	16.554	2
10667	106.67	0	0	0	0	0	0	10.917	-10.917	18.908	0	0	0	0	0	0	0	0	0	0	0	0	1	0	0	17.755	2.1475	16.785	0	0	0	1	0	0	17.761	2.1499	16.789	0	0	0	1	0	0	17.883	2.027	16.961	0	0	0	0	0	0	0	0	0	0	0	0	1	0	0	17.47	2.0148	16.554	2
10668	106.68	0	0	0	0	0	0	10.917	-10.917	18.908	0	0	0	0	0	0	0	0	0	0	0	0	1	0	0	17.755	2.1475	16.785	0	0	0	1	0	0	17.761	2.1499	16.789	0	0	0	0	0	0	0	0	0	0	0	0	0	0	0	0	0	0	0	0	0	1	0	0	17.47	2.0148	16.554	2
10669	106.69	0	0	0	0	0	0	0	0	0	0	0	0	0	0	0	0	0	0	0	0	0	1	0	0	17.755	2.1475	16.785	0	0	0	1	0	0	17.761	2.1499	16.789	0	0	0	1	0	0	17.883	2.027	16.961	0	0	0	0	0	0	0	0	0	0	0	0	1	0	0	17.47	2.0148	16.554	2
10670	106.7	0	0	0	0	0	0	10.917	-10.917	18.908	0	0	0	0	0	0	0	0	0	0	0	0	0	0	0	20.079	19.73	19.907	0	0	0	1	0	0	17.761	2.1499	16.789	0	0	0	0	0	0	0	0	0	0	0	0	1	-1	0	7.5503	-27.469	31.921	0	0	0	1	0	0	17.47	2.0148	16.554	2
10671	106.71	0	0	0	0	0	0	10.917	-10.917	18.908	0	0	0	0	0	0	0	0	0	0	0	0	1	0	0	17.755	2.1475	16.785	0	0	0	1	0	0	17.761	2.1499	16.789	0	0	0	0	0	0	0	0	0	0	0	0	0	0	0	0	0	0	0	0	0	1	0	0	17.47	2.0148	16.554	2
10672	106.72	0	0	0	0	0	0	10.917	-10.917	18.908	0	0	0	0	0	0	0	0	0	0	0	0	1	0	0	17.755	2.1475	16.785	0	0	0	1	0	0	17.761	2.1499	16.789	0	0	0	0	0	0	0	0	0	0	0	0	0	0	0	0	0	0	0	0	0	1	0	0	17.47	2.0148	16.554	2
10673	106.73	0	0	0	0	0	0	10.917	-10.917	18.908	0	0	0	0	0	0	0	0	0	0	0	0	1	0	0	17.755	2.1475	16.785	0	0	0	1	0	0	17.761	2.1499	16.789	0	0	0	0	0	0	0	0	0	0	0	0	0	0	0	0	0	0	0	0	0	1	0	0	17.47	2.0148	16.554	2
10674	106.74	0	0	0	0	0	0	0	0	0	0	0	0	0	0	0	0	0	0	0	0	0	1	0	0	17.755	2.1475	16.785	0	0	0	1	0	0	17.761	2.1499	16.789	0	0	0	1	0	0	17.883	2.027	16.961	0	0	0	0	-1	0	-2.0278	-17.891	16.968	0	0	0	1	0	0	17.47	2.0148	16.554	2
10675	106.75	0	0	0	0	0	0	10.917	-10.917	18.908	0	0	0	0	0	0	0	0	0	0	0	0	1	0	0	17.755	2.1475	16.785	0	0	0	1	0	0	17.761	2.1499	16.789	0	0	0	0	0	0	0	0	0	0	0	0	1	-1	0	7.5503	-27.469	31.921	0	0	0	1	0	0	17.47	2.0148	16.554	2
10676	106.76	0	0	0	0	0	0	0	0	0	0	0	0	0	0	0	0	0	0	0	0	0	1	0	0	17.755	2.1475	16.785	0	0	0	1	0	0	17.761	2.1499	16.789	0	0	0	1	0	0	17.883	2.027	16.961	0	0	0	0	-1	0	-2.0278	-17.891	16.968	0	0	0	1	0	0	17.47	2.0148	16.554	2
10677	106.77	0	0	0	0	0	0	10.917	-10.917	18.908	0	0	0	0	0	0	0	0	0	0	0	0	1	0	0	17.755	2.1475	16.785	0	0	0	1	0	0	17.761	2.1499	16.789	0	0	0	0	0	0	0	0	0	0	0	0	0	0	0	0	0	0	0	0	0	0	0	0	0	0	0	2
10678	106.78	0	0	0	0	0	0	10.917	-10.917	18.908	0	0	0	0	0	0	0	0	0	0	0	0	1	0	0	17.755	2.1475	16.785	0	0	0	1	0	0	17.761	2.1499	16.789	0	0	0	1	0	0	17.883	2.027	16.961	0	0	0	0	0	0	10.994	-10.994	19.042	0	0	0	1	0	0	17.47	2.0148	16.554	2
10679	106.79	0	0	0	0	0	0	10.917	-10.917	18.908	0	0	0	0	0	0	0	0	0	0	0	0	1	0	0	17.755	2.1475	16.785	0	0	0	1	0	0	17.761	2.1499	16.789	0	0	0	0	0	0	0	0	0	0	0	0	0	0	0	0	0	0	0	0	0	0	0	0	0	0	0	2
10680	106.8	0	0	0	0	0	0	10.917	-10.917	18.908	0	0	0	0	0	0	0	0	0	0	0	0	1	0	0	17.755	2.1475	16.785	0	0	0	1	0	0	17.761	2.1499	16.789	0	0	0	0	0	0	0	0	0	0	0	0	0	0	0	10.994	-10.994	19.042	0	0	0	1	0	0	17.47	2.0148	16.554	2
10681	106.81	0	0	0	0	0	0	10.917	-10.917	18.908	0	0	0	0	0	0	0	0	0	0	0	0	1	0	0	17.755	2.1475	16.785	0	0	0	1	0	0	17.761	2.1499	16.789	0	0	0	0	0	0	0	0	0	0	0	0	0	0	0	0	0	0	0	0	0	1	0	0	17.47	2.0148	16.554	2
10682	106.82	0	0	0	0	0	0	10.917	-10.917	18.908	0	0	0	0	0	0	0	0	0	0	0	0	1	0	0	17.755	2.1475	16.785	0	0	0	1	0	0	17.761	2.1499	16.789	0	0	0	0	0	0	0	0	0	0	0	0	0	0	0	0	0	0	0	0	0	1	0	0	17.47	2.0148	16.554	2
10683	106.83	0	0	0	0	0	0	10.917	-10.917	18.908	0	0	0	0	0	0	0	0	0	0	0	0	1	0	0	17.755	2.1475	16.785	0	0	0	1	0	0	17.761	2.1499	16.789	0	0	0	0	0	0	0	0	0	0	0	0	0	0	0	10.994	-10.994	19.042	0	0	0	1	0	0	17.47	2.0148	16.554	2
10684	106.84	0	0	0	0	0	0	0	0	0	0	0	0	0	0	0	0	0	0	0	0	0	1	0	0	17.755	2.1475	16.785	0	0	0	1	0	0	17.761	2.1499	16.789	0	0	0	0	0	0	0	0	0	0	0	0	0	0	0	10.994	-10.994	19.042	0	0	0	0	0	0	0	0	0	2
10685	106.85	0	0	0	0	0	0	10.917	-10.917	18.908	0	0	0	0	0	0	0	0	0	0	0	0	1	0	0	17.755	2.1475	16.785	0	0	0	1	0	0	17.761	2.1499	16.789	0	0	0	0	0	0	0	0	0	0	0	0	1	-1	0	7.5503	-27.469	31.921	0	0	0	1	0	0	17.47	2.0148	16.554	2
10686	106.86	0	0	0	0	0	0	10.917	-10.917	18.908	0	0	0	0	0	0	0	0	0	0	0	0	1	0	0	17.755	2.1475	16.785	0	0	0	1	0	0	17.761	2.1499	16.789	0	0	0	0	0	0	0	0	0	0	0	0	0	0	0	0	0	0	0	0	0	1	0	0	17.47	2.0148	16.554	2
10687	106.87	0	0	0	0	0	0	10.917	-10.917	18.908	0	0	0	0	0	0	0	0	0	0	0	0	1	0	0	17.755	2.1475	16.785	0	0	0	1	0	0	17.761	2.1499	16.789	0	0	0	0	0	0	0	0	0	0	0	0	0	0	0	0	0	0	0	0	0	1	0	0	17.47	2.0148	16.554	2
10688	106.88	0	0	0	0	0	0	0	0	0	0	0	0	0	0	0	0	0	0	0	0	0	1	0	0	17.755	2.1475	16.785	0	0	0	1	0	0	17.761	2.1499	16.789	0	0	0	0	0	0	0	0	0	0	0	0	0	0	0	10.994	-10.994	19.042	0	0	0	1	0	0	17.47	2.0148	16.554	2
10689	106.89	0	0	0	0	0	0	0	0	0	0	0	0	0	0	0	0	0	0	0	0	0	1	0	0	17.755	2.1475	16.785	0	0	0	1	0	0	17.883	2.027	16.961	0	0	0	1	0	0	17.883	2.027	16.961	0	0	0	0	-1	0	-2.0278	-17.891	16.968	0	0	0	1	0	0	17.47	2.0148	16.554	2
10690	106.9	0	0	0	0	0	0	10.917	-10.917	18.908	0	0	0	0	0	0	0	0	0	0	0	0	1	0	0	17.755	2.1475	16.785	0	0	0	1	0	0	17.761	2.1499	16.789	0	0	0	0	0	0	0	0	0	0	0	0	0	0	0	10.994	-10.994	19.042	0	0	0	1	0	0	17.47	2.0148	16.554	2
10691	106.91	0	0	0	0	0	0	10.917	-10.917	18.908	0	0	0	0	0	0	0	0	0	0	0	0	1	0	0	17.755	2.1475	16.785	0	0	0	1	0	0	17.761	2.1499	16.789	0	0	0	0	0	0	0	0	0	0	0	0	0	0	0	0	0	0	0	0	0	0	0	0	0	0	0	2
10692	106.92	0	0	0	0	0	0	0	0	0	0	0	0	0	0	0	0	0	0	0	0	0	1	0	0	17.755	2.1475	16.785	0	0	0	1	0	0	17.761	2.1499	16.789	0	0	0	0	0	0	0	0	0	0	0	0	0	0	0	10.994	-10.994	19.042	0	0	0	1	0	0	17.47	2.0148	16.554	2
10693	106.93	0	0	0	0	0	0	10.917	-10.917	18.908	0	0	0	0	0	0	0	0	0	0	0	0	1	0	0	17.755	2.1475	16.785	0	0	0	1	0	0	17.761	2.1499	16.789	0	0	0	0	0	0	0	0	0	0	0	0	0	0	0	10.994	-10.994	19.042	0	0	0	1	0	0	17.47	2.0148	16.554	2
10694	106.94	0	0	0	0	0	0	10.917	-10.917	18.908	0	0	0	0	0	0	0	0	0	0	0	0	1	0	0	17.755	2.1475	16.785	0	0	0	1	0	0	17.761	2.1499	16.789	0	0	0	1	0	0	17.883	2.027	16.961	0	0	0	0	0	0	0	0	0	0	0	0	1	0	0	17.47	2.0148	16.554	2
10695	106.95	0	0	0	0	0	0	10.917	-10.917	18.908	0	0	0	0	0	0	0	0	0	0	0	0	1	0	0	17.755	2.1475	16.785	0	0	0	1	0	0	17.761	2.1499	16.789	0	0	0	1	0	0	17.883	2.027	16.961	0	0	0	1	-1	0	7.5503	-27.469	31.921	0	0	0	1	0	0	17.47	2.0148	16.554	2
10696	106.96	0	0	0	0	0	0	0	0	0	0	0	0	0	0	0	0	0	0	0	0	0	0	0	0	20.079	19.73	19.907	0	0	0	1	0	0	17.761	2.1499	16.789	0	0	0	0	0	0	0	0	0	0	0	0	1	-1	0	7.5503	-27.469	31.921	0	0	0	1	0	0	17.47	2.0148	16.554	2
10697	106.97	0	0	0	0	0	0	0	0	0	0	0	0	0	0	0	0	0	0	0	0	0	1	0	0	17.755	2.1475	16.785	0	0	0	1	0	0	17.761	2.1499	16.789	0	0	0	0	0	0	0	0	0	0	0	0	0	0	0	10.994	-10.994	19.042	0	0	0	0	0	0	0	0	0	2
10698	106.98	0	0	0	0	0	0	0	0	0	0	0	0	0	0	0	0	0	0	0	0	0	1	0	0	17.755	2.1475	16.785	0	0	0	1	0	0	17.761	2.1499	16.789	0	0	0	0	0	0	0	0	0	0	0	0	0	0	0	10.994	-10.994	19.042	0	0	0	1	0	0	17.47	2.0148	16.554	2
10699	106.99	0	0	0	0	0	0	0	0	0	0	0	0	0	0	0	0	0	0	0	0	0	1	0	0	17.755	2.1475	16.785	0	0	0	1	0	0	17.761	2.1499	16.789	0	0	0	0	0	0	0	0	0	0	0	0	0	-1	0	-2.0278	-17.891	16.968	0	0	0	0	0	0	0	0	0	2
10700	107	0	0	0	0	0	0	0	0	0	0	0	0	0	0	0	0	0	0	0	0	0	1	0	0	17.755	2.1475	16.785	0	0	0	1	0	0	17.761	2.1499	16.789	0	0	0	0	0	0	0	0	0	0	0	0	0	0	0	0	0	0	0	0	0	1	0	0	17.47	2.0148	16.554	2
10701	107.01	0	0	0	0	0	0	0	0	0	0	0	0	0	0	0	0	0	0	0	0	0	1	0	0	17.755	2.1475	16.785	0	0	0	1	0	0	17.761	2.1499	16.789	0	0	0	0	0	0	0	0	0	0	0	0	1	-1	0	7.5503	-27.469	31.921	0	0	0	1	0	0	17.47	2.0148	16.554	2
10702	107.02	0	0	0	0	0	0	10.917	-10.917	18.908	0	0	0	0	0	0	0	0	0	0	0	0	0	0	0	20.079	19.73	19.907	0	0	0	1	0	0	17.761	2.1499	16.789	0	0	0	0	0	0	0	0	0	0	0	0	0	0	0	0	0	0	0	0	0	1	0	0	17.47	2.0148	16.554	2
10703	107.03	0	0	0	0	0	0	0	0	0	0	0	0	0	0	0	0	0	0	0	0	0	1	0	0	17.755	2.1475	16.785	0	0	0	1	0	0	17.883	2.027	16.961	0	0	0	1	0	0	17.883	2.027	16.961	0	0	0	1	-1	0	7.5503	-27.469	31.921	0	0	0	1	0	0	17.47	2.0148	16.554	2
10704	107.04	0	0	0	0	0	0	0	0	0	0	0	0	0	0	0	0	0	0	0	0	0	1	0	0	17.755	2.1475	16.785	0	0	0	1	0	0	17.761	2.1499	16.789	0	0	0	0	0	0	0	0	0	0	0	0	0	0	0	10.994	-10.994	19.042	0	0	0	1	0	0	17.47	2.0148	16.554	2
10705	107.05	0	0	0	0	0	0	0	0	0	0	0	0	0	0	0	0	0	0	0	0	0	1	0	0	17.755	2.1475	16.785	0	0	0	1	0	0	17.761	2.1499	16.789	0	0	0	1	0	0	17.883	2.027	16.961	0	0	0	0	0	0	10.994	-10.994	19.042	0	0	0	1	0	0	17.47	2.0148	16.554	2
10706	107.06	0	0	0	0	0	0	0	0	0	0	0	0	0	0	0	0	0	0	0	0	0	1	0	0	17.755	2.1475	16.785	0	0	0	1	0	0	17.761	2.1499	16.789	0	0	0	0	0	0	0	0	0	0	0	0	0	0	0	0	0	0	0	0	0	0	0	0	0	0	0	2
10707	107.07	0	0	0	0	0	0	10.917	-10.917	18.908	0	0	0	0	0	0	0	0	0	0	0	0	1	0	0	17.755	2.1475	16.785	0	0	0	1	0	0	17.761	2.1499	16.789	0	0	0	0	0	0	0	0	0	0	0	0	0	0	0	10.994	-10.994	19.042	0	0	0	0	0	0	0	0	0	2
10708	107.08	0	0	0	0	0	0	0	0	0	0	0	0	0	0	0	0	0	0	0	0	0	1	0	0	17.755	2.1475	16.785	0	0	0	1	0	0	17.761	2.1499	16.789	0	0	0	0	0	0	0	0	0	0	0	0	0	0	0	0	0	0	0	0	0	1	0	0	17.47	2.0148	16.554	2
10709	107.09	0	0	0	0	0	0	0	0	0	0	0	0	0	0	0	0	0	0	0	0	0	1	0	0	17.755	2.1475	16.785	0	0	0	1	0	0	17.761	2.1499	16.789	0	0	0	0	0	0	0	0	0	0	0	0	0	-1	0	-2.0278	-17.891	16.968	0	0	0	1	0	0	17.47	2.0148	16.554	2
10710	107.1	0	0	0	0	0	0	0	0	0	0	0	0	0	0	0	0	0	0	0	0	0	1	0	0	17.755	2.1475	16.785	0	0	0	1	0	0	17.761	2.1499	16.789	0	0	0	0	0	0	0	0	0	0	0	0	0	0	0	0	0	0	0	0	0	1	0	0	17.47	2.0148	16.554	2
10711	107.11	0	0	0	0	0	0	0	0	0	0	0	0	0	0	0	0	0	0	0	0	0	1	0	0	17.755	2.1475	16.785	0	0	0	1	0	0	17.761	2.1499	16.789	0	0	0	0	0	0	0	0	0	0	0	0	0	0	0	10.994	-10.994	19.042	0	0	0	1	0	0	17.47	2.0148	16.554	2
10712	107.12	0	0	0	0	0	0	0	0	0	0	0	0	0	0	0	0	0	0	0	0	0	1	0	0	17.755	2.1475	16.785	0	0	0	1	0	0	17.761	2.1499	16.789	0	0	0	0	0	0	0	0	0	0	0	0	0	-1	0	-2.0278	-17.891	16.968	0	0	0	0	0	0	0	0	0	2
10713	107.13	0	0	0	0	0	0	0	0	0	0	0	0	0	0	0	0	0	0	0	0	0	1	0	0	17.755	2.1475	16.785	0	0	0	1	0	0	17.761	2.1499	16.789	0	0	0	1	0	0	17.883	2.027	16.961	0	0	0	0	0	0	0	0	0	0	0	0	1	0	0	17.47	2.0148	16.554	2
10714	107.14	0	0	0	0	0	0	10.917	-10.917	18.908	0	0	0	0	0	0	0	0	0	0	0	0	1	0	0	17.755	2.1475	16.785	0	0	0	1	0	0	17.761	2.1499	16.789	0	0	0	0	0	0	0	0	0	0	0	0	0	0	0	10.994	-10.994	19.042	0	0	0	0	0	0	0	0	0	2
10715	107.15	0	0	0	0	0	0	10.917	-10.917	18.908	0	0	0	0	0	0	0	0	0	0	0	0	1	0	0	17.755	2.1475	16.785	0	0	0	1	0	0	17.761	2.1499	16.789	0	0	0	1	0	0	17.883	2.027	16.961	0	0	0	0	0	0	10.994	-10.994	19.042	0	0	0	1	0	0	17.47	2.0148	16.554	2
10716	107.16	0	0	0	0	0	0	10.917	-10.917	18.908	0	0	0	0	0	0	0	0	0	0	0	0	1	0	0	17.755	2.1475	16.785	0	0	0	1	0	0	17.761	2.1499	16.789	0	0	0	0	0	0	0	0	0	0	0	0	0	-1	0	-2.0278	-17.891	16.968	0	0	0	1	0	0	17.47	2.0148	16.554	2
10717	107.17	0	0	0	0	0	0	0	0	0	0	0	0	0	0	0	0	0	0	0	0	0	1	0	0	17.755	2.1475	16.785	0	0	0	1	0	0	17.761	2.1499	16.789	0	0	0	0	0	0	0	0	0	0	0	0	0	0	0	10.994	-10.994	19.042	0	0	0	0	0	0	0	0	0	2
10718	107.18	0	0	0	0	0	0	10.917	-10.917	18.908	0	0	0	0	0	0	0	0	0	0	0	0	1	0	0	17.755	2.1475	16.785	0	0	0	1	0	0	17.761	2.1499	16.789	0	0	0	0	0	0	0	0	0	0	0	0	0	-1	0	-2.0278	-17.891	16.968	0	0	0	1	0	0	17.47	2.0148	16.554	2
10719	107.19	0	0	0	0	0	0	0	0	0	0	0	0	0	0	0	0	0	0	0	0	0	1	0	0	17.755	2.1475	16.785	0	0	0	1	0	0	17.761	2.1499	16.789	0	0	0	0	0	0	0	0	0	0	0	0	0	0	0	0	0	0	0	0	0	0	0	0	0	0	0	2
10720	107.2	0	0	0	0	0	0	0	0	0	0	0	0	0	0	0	0	0	0	0	0	0	1	0	0	17.755	2.1475	16.785	0	0	0	1	0	0	17.761	2.1499	16.789	0	0	0	0	0	0	0	0	0	0	0	0	0	-1	0	-2.0278	-17.891	16.968	0	0	0	1	0	0	17.47	2.0148	16.554	2
10721	107.21	0	0	0	0	0	0	0	0	0	0	0	0	0	0	0	0	0	0	0	0	0	1	0	0	17.755	2.1475	16.785	0	0	0	1	0	0	17.761	2.1499	16.789	0	0	0	0	0	0	0	0	0	0	0	0	0	0	0	0	0	0	0	0	0	1	0	0	17.47	2.0148	16.554	0
10722	107.22	0	0	0	0	0	0	0	0	0	0	0	0	0	0	0	0	0	0	0	0	0	1	0	0	17.755	2.1475	16.785	0	0	0	1	0	0	17.761	2.1499	16.789	0	0	0	0	0	0	0	0	0	0	0	0	1	-1	0	7.5503	-27.469	31.921	0	0	0	0	0	0	0	0	0	2
10723	107.23	0	0	0	0	0	0	10.917	-10.917	18.908	0	0	0	0	0	0	0	0	0	0	0	0	0	0	0	20.079	19.73	19.907	0	0	0	1	0	0	17.761	2.1499	16.789	0	0	0	1	0	0	17.883	2.027	16.961	0	0	0	1	-1	0	7.5503	-27.469	31.921	0	0	0	0	0	0	0	0	0	2
10724	107.24	0	0	0	0	0	0	0	0	0	0	0	0	0	0	0	0	0	0	0	0	0	1	0	0	17.755	2.1475	16.785	0	0	0	1	0	0	17.761	2.1499	16.789	0	0	0	0	0	0	0	0	0	0	0	0	0	0	0	0	0	0	0	0	0	0	0	0	0	0	0	2
10725	107.25	0	0	0	0	0	0	0	0	0	0	0	0	0	0	0	0	0	0	0	0	0	1	0	0	17.755	2.1475	16.785	0	0	0	1	0	0	17.761	2.1499	16.789	0	0	0	1	0	0	17.883	2.027	16.961	0	0	0	0	0	0	0	0	0	0	0	0	0	0	0	0	0	0	2
10726	107.26	0	0	0	0	0	0	10.917	-10.917	18.908	0	0	0	0	0	0	0	0	0	0	0	0	1	0	0	17.755	2.1475	16.785	0	0	0	1	0	0	17.761	2.1499	16.789	0	0	0	1	0	0	17.883	2.027	16.961	0	0	0	0	0	0	0	0	0	0	0	0	1	0	0	17.47	2.0148	16.554	2
10727	107.27	0	0	0	0	0	0	0	0	0	0	0	0	0	0	0	0	0	0	0	0	0	1	0	0	17.755	2.1475	16.785	0	0	0	1	0	0	17.761	2.1499	16.789	0	0	0	0	0	0	0	0	0	0	0	0	0	0	0	10.994	-10.994	19.042	0	0	0	1	0	0	17.47	2.0148	16.554	2
10728	107.28	0	0	0	0	0	0	10.917	-10.917	18.908	0	0	0	0	0	0	0	0	0	0	0	0	1	0	0	17.755	2.1475	16.785	0	0	0	1	0	0	17.761	2.1499	16.789	0	0	0	0	0	0	0	0	0	0	0	0	0	0	0	0	0	0	0	0	0	1	0	0	17.47	2.0148	16.554	2
10729	107.29	0	0	0	0	0	0	10.917	-10.917	18.908	0	0	0	0	0	0	0	0	0	0	0	0	1	0	0	17.755	2.1475	16.785	0	0	0	1	0	0	17.761	2.1499	16.789	0	0	0	0	0	0	0	0	0	0	0	0	0	0	0	0	0	0	0	0	0	0	0	0	0	0	0	2
10730	107.3	0	0	0	0	0	0	0	0	0	0	0	0	0	0	0	0	0	0	0	0	0	1	0	0	17.755	2.1475	16.785	0	0	0	1	0	0	17.761	2.1499	16.789	0	0	0	1	0	0	17.883	2.027	16.961	0	0	0	0	0	0	0	0	0	0	0	0	1	0	0	17.47	2.0148	16.554	2
10731	107.31	0	0	0	0	0	0	10.917	-10.917	18.908	0	0	0	0	0	0	0	0	0	0	0	0	1	0	0	17.755	2.1475	16.785	0	0	0	1	0	0	17.761	2.1499	16.789	0	0	0	0	0	0	0	0	0	0	0	0	0	0	0	0	0	0	0	0	0	1	0	0	17.47	2.0148	16.554	2
10732	107.32	0	0	0	0	0	0	0	0	0	0	0	0	0	0	0	0	0	0	0	0	0	1	0	0	17.755	2.1475	16.785	0	0	0	1	0	0	17.761	2.1499	16.789	0	0	0	0	0	0	0	0	0	0	0	0	1	-1	0	7.5503	-27.469	31.921	0	0	0	0	0	0	0	0	0	2
10733	107.33	0	0	0	0	0	0	0	0	0	0	0	0	0	0	0	0	0	0	0	0	0	1	0	0	17.755	2.1475	16.785	0	0	0	1	0	0	17.761	2.1499	16.789	0	0	0	1	0	0	17.883	2.027	16.961	0	0	0	0	0	0	10.994	-10.994	19.042	0	0	0	0	0	0	0	0	0	2
10734	107.34	0	0	0	0	0	0	10.917	-10.917	18.908	0	0	0	0	0	0	0	0	0	0	0	0	1	0	0	17.755	2.1475	16.785	0	0	0	1	0	0	17.761	2.1499	16.789	0	0	0	0	0	0	0	0	0	0	0	0	0	0	0	0	0	0	0	0	0	0	0	0	0	0	0	2
10735	107.35	0	0	0	0	0	0	10.917	-10.917	18.908	0	0	0	0	0	0	0	0	0	0	0	0	1	0	0	17.755	2.1475	16.785	0	0	0	1	0	0	17.761	2.1499	16.789	0	0	0	0	0	0	0	0	0	0	0	0	0	0	0	10.994	-10.994	19.042	0	0	0	1	0	0	17.47	2.0148	16.554	2
10736	107.36	0	0	0	0	0	0	0	0	0	0	0	0	0	0	0	0	0	0	0	0	0	1	0	0	17.755	2.1475	16.785	0	0	0	1	0	0	17.761	2.1499	16.789	0	0	0	0	0	0	0	0	0	0	0	0	0	0	0	0	0	0	0	0	0	0	0	0	0	0	0	2
10737	107.37	0	0	0	0	0	0	0	0	0	0	0	0	0	0	0	0	0	0	0	0	0	1	0	0	17.755	2.1475	16.785	0	0	0	1	0	0	17.761	2.1499	16.789	0	0	0	0	0	0	0	0	0	0	0	0	0	0	0	10.994	-10.994	19.042	0	0	0	0	0	0	0	0	0	2
10738	107.38	0	0	0	0	0	0	0	0	0	0	0	0	0	0	0	0	0	0	0	0	0	1	0	0	17.755	2.1475	16.785	0	0	0	1	0	0	17.761	2.1499	16.789	0	0	0	1	0	0	17.883	2.027	16.961	0	0	0	0	0	0	0	0	0	0	0	0	1	0	0	17.47	2.0148	16.554	2
10739	107.39	0	0	0	0	0	0	10.917	-10.917	18.908	0	0	0	0	0	0	0	0	0	0	0	0	1	0	0	17.755	2.1475	16.785	0	0	0	1	0	0	17.761	2.1499	16.789	0	0	0	0	0	0	0	0	0	0	0	0	0	0	0	0	0	0	0	0	0	0	0	0	0	0	0	2
10740	107.4	0	0	0	0	0	0	0	0	0	0	0	0	0	0	0	0	0	0	0	0	0	1	0	0	17.755	2.1475	16.785	0	0	0	1	0	0	17.761	2.1499	16.789	0	0	0	0	0	0	0	0	0	0	0	0	1	-1	0	7.5503	-27.469	31.921	0	0	0	0	0	0	0	0	0	2
10741	107.41	0	0	0	0	0	0	0	0	0	0	0	0	0	0	0	0	0	0	0	0	0	0	0	0	20.079	19.73	19.907	0	0	0	1	0	0	17.761	2.1499	16.789	0	0	0	0	0	0	0	0	0	0	0	0	0	0	0	0	0	0	0	0	0	0	0	0	0	0	0	2
10742	107.42	0	0	0	0	0	0	10.917	-10.917	18.908	0	0	0	0	0	0	0	0	0	0	0	0	1	0	0	17.755	2.1475	16.785	0	0	0	1	0	0	17.761	2.1499	16.789	0	0	0	0	0	0	0	0	0	0	0	0	0	0	0	0	0	0	0	0	0	0	0	0	0	0	0	2
10743	107.43	0	0	0	0	0	0	0	0	0	0	0	0	0	0	0	0	0	0	0	0	0	1	0	0	17.755	2.1475	16.785	0	0	0	1	0	0	17.761	2.1499	16.789	0	0	0	1	0	0	17.883	2.027	16.961	0	0	0	0	0	0	10.994	-10.994	19.042	0	0	0	1	0	0	17.47	2.0148	16.554	2
10744	107.44	0	0	0	0	0	0	0	0	0	0	0	0	0	0	0	0	0	0	0	0	0	0	0	0	10.989	-10.989	19.033	0	0	0	1	0	0	17.761	2.1499	16.789	0	0	0	0	0	0	0	0	0	0	0	0	0	0	0	10.994	-10.994	19.042	0	0	0	1	0	0	17.47	2.0148	16.554	2
10745	107.45	0	0	0	0	0	0	10.917	-10.917	18.908	0	0	0	0	0	0	0	0	0	0	0	0	1	0	0	17.755	2.1475	16.785	0	0	0	1	0	0	17.761	2.1499	16.789	0	0	0	0	0	0	0	0	0	0	0	0	0	-1	0	-2.0278	-17.891	16.968	0	0	0	1	0	0	17.47	2.0148	16.554	2
10746	107.46	0	0	0	0	0	0	0	0	0	0	0	0	0	0	0	0	0	0	0	0	0	1	0	0	17.755	2.1475	16.785	0	0	0	1	0	0	17.761	2.1499	16.789	0	0	0	0	0	0	0	0	0	0	0	0	0	0	0	0	0	0	0	0	0	1	0	0	17.47	2.0148	16.554	2
10747	107.47	0	0	0	0	0	0	0	0	0	0	0	0	0	0	0	0	0	0	0	0	0	1	0	0	17.755	2.1475	16.785	0	0	0	1	0	0	17.761	2.1499	16.789	0	0	0	0	0	0	0	0	0	0	0	0	0	0	0	10.994	-10.994	19.042	0	0	0	0	0	0	0	0	0	2
10748	107.48	0	0	0	0	0	0	10.917	-10.917	18.908	0	0	0	0	0	0	0	0	0	0	0	0	1	0	0	17.755	2.1475	16.785	0	0	0	1	0	0	17.761	2.1499	16.789	0	0	0	1	0	0	17.883	2.027	16.961	0	0	0	0	-1	0	-2.0278	-17.891	16.968	0	0	0	0	0	0	0	0	0	2
10749	107.49	0	0	0	0	0	0	10.917	-10.917	18.908	0	0	0	0	0	0	0	0	0	0	0	0	1	0	0	17.755	2.1475	16.785	0	0	0	1	0	0	17.761	2.1499	16.789	0	0	0	0	0	0	0	0	0	0	0	0	0	0	0	0	0	0	0	0	0	0	0	0	0	0	0	2
10750	107.5	0	0	0	0	0	0	10.917	-10.917	18.908	0	0	0	0	0	0	0	0	0	0	0	0	1	0	0	17.755	2.1475	16.785	0	0	0	1	0	0	17.761	2.1499	16.789	0	0	0	0	0	0	0	0	0	0	0	0	0	0	0	10.994	-10.994	19.042	0	0	0	1	0	0	17.47	2.0148	16.554	2
10751	107.51	0	0	0	0	0	0	10.917	-10.917	18.908	0	0	0	0	0	0	0	0	0	0	0	0	1	0	0	17.755	2.1475	16.785	0	0	0	1	0	0	17.761	2.1499	16.789	0	0	0	0	0	0	0	0	0	0	0	0	0	0	0	0	0	0	0	0	0	0	0	0	0	0	0	2
10752	107.52	0	0	0	0	0	0	0	0	0	0	0	0	0	0	0	0	0	0	0	0	0	1	0	0	17.755	2.1475	16.785	0	0	0	1	0	0	17.761	2.1499	16.789	0	0	0	0	0	0	0	0	0	0	0	0	0	0	0	10.994	-10.994	19.042	0	0	0	0	0	0	0	0	0	2
10753	107.53	0	0	0	0	0	0	10.917	-10.917	18.908	0	0	0	0	0	0	0	0	0	0	0	0	1	0	0	17.755	2.1475	16.785	0	0	0	1	0	0	17.761	2.1499	16.789	0	0	0	0	0	0	0	0	0	0	0	0	0	0	0	0	0	0	0	0	0	1	0	0	17.47	2.0148	16.554	2
10754	107.54	0	0	0	0	0	0	0	0	0	0	0	0	0	0	0	0	0	0	0	0	0	1	0	0	17.755	2.1475	16.785	0	0	0	1	0	0	17.761	2.1499	16.789	0	0	0	0	0	0	0	0	0	0	0	0	1	-1	0	7.5503	-27.469	31.921	0	0	0	0	0	0	0	0	0	2
10755	107.55	0	0	0	0	0	0	0	0	0	0	0	0	0	0	0	0	0	0	0	0	0	1	0	0	17.755	2.1475	16.785	0	0	0	1	0	0	17.761	2.1499	16.789	0	0	0	1	0	0	17.883	2.027	16.961	0	0	0	0	-1	0	-2.0278	-17.891	16.968	0	0	0	1	0	0	17.47	2.0148	16.554	2
10756	107.56	0	0	0	0	0	0	10.917	-10.917	18.908	0	0	0	0	0	0	0	0	0	0	0	0	1	0	0	17.755	2.1475	16.785	0	0	0	1	0	0	17.761	2.1499	16.789	0	0	0	0	0	0	0	0	0	0	0	0	0	0	0	10.994	-10.994	19.042	0	0	0	0	0	0	0	0	0	2
10757	107.57	0	0	0	0	0	0	0	0	0	0	0	0	0	0	0	0	0	0	0	0	0	1	0	0	17.755	2.1475	16.785	0	0	0	1	0	0	17.761	2.1499	16.789	0	0	0	0	0	0	0	0	0	0	0	0	0	0	0	0	0	0	0	0	0	1	0	0	17.47	2.0148	16.554	0
10758	107.58	0	0	0	0	0	0	10.917	-10.917	18.908	0	0	0	0	0	0	0	0	0	0	0	0	1	0	0	17.755	2.1475	16.785	0	0	0	1	0	0	17.761	2.1499	16.789	0	0	0	0	0	0	0	0	0	0	0	0	0	0	0	0	0	0	0	0	0	0	0	0	0	0	0	0
10759	107.59	0	0	0	0	0	0	0	0	0	0	0	0	0	0	0	0	0	0	0	0	0	1	0	0	17.755	2.1475	16.785	0	0	0	1	0	0	17.761	2.1499	16.789	0	0	0	0	0	0	0	0	0	0	0	0	0	0	0	0	0	0	0	0	0	0	0	0	0	0	0	2
10760	107.6	0	0	0	0	0	0	10.917	-10.917	18.908	0	0	0	0	0	0	0	0	0	0	0	0	1	0	0	17.755	2.1475	16.785	0	0	0	1	0	0	17.761	2.1499	16.789	0	0	0	0	0	0	0	0	0	0	0	0	0	0	0	10.994	-10.994	19.042	0	0	0	1	0	0	17.47	2.0148	16.554	2
10761	107.61	0	0	0	0	0	0	0	0	0	0	0	0	0	0	0	0	0	0	0	0	0	1	0	0	17.755	2.1475	16.785	0	0	0	1	0	0	17.761	2.1499	16.789	0	0	0	0	0	0	0	0	0	0	0	0	0	0	0	0	0	0	0	0	0	0	0	0	0	0	0	2
10762	107.62	0	0	0	0	0	0	0	0	0	0	0	0	0	0	0	0	0	0	0	0	0	1	0	0	17.755	2.1475	16.785	0	0	0	1	0	0	17.883	2.027	16.961	0	0	0	0	0	0	0	0	0	0	0	0	0	0	0	0	0	0	0	0	0	0	0	0	0	0	0	2
10763	107.63	0	0	0	0	0	0	10.917	-10.917	18.908	0	0	0	0	0	0	0	0	0	0	0	0	0	0	0	20.079	19.73	19.907	0	0	0	1	0	0	17.761	2.1499	16.789	0	0	0	1	0	0	17.883	2.027	16.961	0	0	0	0	0	0	10.994	-10.994	19.042	0	0	0	1	0	0	17.47	2.0148	16.554	2
10764	107.64	0	0	0	0	0	0	0	0	0	0	0	0	0	0	0	0	0	0	0	0	0	0	0	0	10.989	-10.989	19.033	0	0	0	1	0	0	17.761	2.1499	16.789	0	0	0	0	0	0	0	0	0	0	0	0	0	0	0	0	0	0	0	0	0	0	0	0	0	0	0	2
10765	107.65	0	0	0	0	0	0	10.917	-10.917	18.908	0	0	0	0	0	0	0	0	0	0	0	0	1	0	0	17.755	2.1475	16.785	0	0	0	1	0	0	17.761	2.1499	16.789	0	0	0	1	0	0	17.883	2.027	16.961	0	0	0	0	0	0	0	0	0	0	0	0	1	0	0	17.47	2.0148	16.554	2
10766	107.66	0	0	0	0	0	0	0	0	0	0	0	0	0	0	0	0	0	0	0	0	0	1	0	0	17.755	2.1475	16.785	0	0	0	1	0	0	17.761	2.1499	16.789	0	0	0	0	0	0	0	0	0	0	0	0	0	-1	0	-2.0278	-17.891	16.968	0	0	0	1	0	0	17.47	2.0148	16.554	2
10767	107.67	0	0	0	0	0	0	10.917	-10.917	18.908	0	0	0	0	0	0	0	0	0	0	0	0	1	0	0	17.755	2.1475	16.785	0	0	0	1	0	0	17.761	2.1499	16.789	0	0	0	0	0	0	0	0	0	0	0	0	0	0	0	0	0	0	0	0	0	0	0	0	0	0	0	2
10768	107.68	0	0	0	0	0	0	0	0	0	0	0	0	0	0	0	0	0	0	0	0	0	1	0	0	17.755	2.1475	16.785	0	0	0	1	0	0	17.761	2.1499	16.789	0	0	0	0	0	0	0	0	0	0	0	0	1	-1	0	7.5503	-27.469	31.921	0	0	0	1	0	0	17.47	2.0148	16.554	2
10769	107.69	0	0	0	0	0	0	0	0	0	0	0	0	0	0	0	0	0	0	0	0	0	1	0	0	17.755	2.1475	16.785	0	0	0	1	0	0	17.761	2.1499	16.789	0	0	0	0	0	0	0	0	0	0	0	0	0	0	0	0	0	0	0	0	0	0	0	0	0	0	0	2
10770	107.7	0	0	0	0	0	0	0	0	0	0	0	0	0	0	0	0	0	0	0	0	0	1	0	0	17.755	2.1475	16.785	0	0	0	1	0	0	17.761	2.1499	16.789	0	0	0	1	0	0	17.883	2.027	16.961	0	0	0	0	0	0	10.994	-10.994	19.042	0	0	0	1	0	0	17.47	2.0148	16.554	2
10771	107.71	0	0	0	0	0	0	10.917	-10.917	18.908	0	0	0	0	0	0	0	0	0	0	0	0	0	0	0	10.989	-10.989	19.033	0	0	0	1	0	0	17.761	2.1499	16.789	0	0	0	0	0	0	0	0	0	0	0	0	0	0	0	10.994	-10.994	19.042	0	0	0	0	0	0	0	0	0	2
10772	107.72	0	0	0	0	0	0	0	0	0	0	0	0	0	0	0	0	0	0	0	0	0	1	0	0	17.755	2.1475	16.785	0	0	0	1	0	0	17.761	2.1499	16.789	0	0	0	0	0	0	0	0	0	0	0	0	0	0	0	10.994	-10.994	19.042	0	0	0	1	0	0	17.47	2.0148	16.554	2
10773	107.73	0	0	0	0	0	0	0	0	0	0	0	0	0	0	0	0	0	0	0	0	0	1	0	0	17.755	2.1475	16.785	0	0	0	1	0	0	17.761	2.1499	16.789	0	0	0	1	0	0	17.883	2.027	16.961	0	0	0	0	0	0	0	0	0	0	0	0	1	0	0	17.47	2.0148	16.554	2
10774	107.74	0	0	0	0	0	0	0	0	0	0	0	0	0	0	0	0	0	0	0	0	0	1	0	0	17.755	2.1475	16.785	0	0	0	1	0	0	17.761	2.1499	16.789	0	0	0	0	0	0	0	0	0	0	0	0	0	0	0	0	0	0	0	0	0	1	0	0	17.47	2.0148	16.554	2
10775	107.75	0	0	0	0	0	0	0	0	0	0	0	0	0	0	0	0	0	0	0	0	0	1	0	0	17.755	2.1475	16.785	0	0	0	1	0	0	17.761	2.1499	16.789	0	0	0	0	0	0	0	0	0	0	0	0	0	-1	0	-2.0278	-17.891	16.968	0	0	0	1	0	0	17.47	2.0148	16.554	2
10776	107.76	0	0	0	0	0	0	0	0	0	0	0	0	0	0	0	0	0	0	0	0	0	1	0	0	17.755	2.1475	16.785	0	0	0	1	0	0	17.761	2.1499	16.789	0	0	0	0	0	0	0	0	0	0	0	0	0	0	0	0	0	0	0	0	0	1	0	0	17.47	2.0148	16.554	2
10777	107.77	0	0	0	0	0	0	0	0	0	0	0	0	0	0	0	0	0	0	0	0	0	1	0	0	17.755	2.1475	16.785	0	0	0	1	0	0	17.761	2.1499	16.789	0	0	0	0	0	0	0	0	0	0	0	0	0	0	0	10.994	-10.994	19.042	0	0	0	0	0	0	0	0	0	2
10778	107.78	0	0	0	0	0	0	10.917	-10.917	18.908	0	0	0	0	0	0	0	0	0	0	0	0	0	0	0	20.079	19.73	19.907	0	0	0	1	0	0	17.761	2.1499	16.789	0	0	0	0	0	0	0	0	0	0	0	0	1	-1	0	7.5503	-27.469	31.921	0	0	0	1	0	0	17.47	2.0148	16.554	2
10779	107.79	0	0	0	0	0	0	0	0	0	0	0	0	0	0	0	0	0	0	0	0	0	1	0	0	17.755	2.1475	16.785	0	0	0	1	0	0	17.761	2.1499	16.789	0	0	0	0	0	0	0	0	0	0	0	0	0	0	0	0	0	0	0	0	0	0	0	0	0	0	0	2
10780	107.8	0	0	0	0	0	0	10.917	-10.917	18.908	0	0	0	0	0	0	0	0	0	0	0	0	1	0	0	17.755	2.1475	16.785	0	0	0	1	0	0	17.761	2.1499	16.789	0	0	0	0	0	0	0	0	0	0	0	0	0	0	0	10.994	-10.994	19.042	0	0	0	1	0	0	17.47	2.0148	16.554	2
10781	107.81	0	0	0	0	0	0	0	0	0	0	0	0	0	0	0	0	0	0	0	0	0	1	0	0	17.755	2.1475	16.785	0	0	0	1	0	0	17.761	2.1499	16.789	0	0	0	0	0	0	0	0	0	0	0	0	0	0	0	0	0	0	0	0	0	1	0	0	17.47	2.0148	16.554	2
10782	107.82	0	0	0	0	0	0	10.917	-10.917	18.908	0	0	0	0	0	0	0	0	0	0	0	0	1	0	0	17.755	2.1475	16.785	0	0	0	1	0	0	17.761	2.1499	16.789	0	0	0	0	0	0	0	0	0	0	0	0	0	0	0	10.994	-10.994	19.042	0	0	0	1	0	0	17.47	2.0148	16.554	2
10783	107.83	0	0	0	0	0	0	10.917	-10.917	18.908	0	0	0	0	0	0	0	0	0	0	0	0	1	0	0	17.755	2.1475	16.785	0	0	0	1	0	0	17.761	2.1499	16.789	0	0	0	0	0	0	0	0	0	0	0	0	0	0	0	0	0	0	0	0	0	0	0	0	0	0	0	2
10784	107.84	0	0	0	0	0	0	0	0	0	0	0	0	0	0	0	0	0	0	0	0	0	1	0	0	17.755	2.1475	16.785	0	0	0	1	0	0	17.761	2.1499	16.789	0	0	0	0	0	0	0	0	0	0	0	0	0	0	0	0	0	0	0	0	0	0	0	0	0	0	0	2
10785	107.85	0	0	0	0	0	0	0	0	0	0	0	0	0	0	0	0	0	0	0	0	0	0	0	0	20.079	19.73	19.907	0	0	0	1	0	0	17.761	2.1499	16.789	0	0	0	1	0	0	17.883	2.027	16.961	0	0	0	0	0	0	10.994	-10.994	19.042	0	0	0	1	0	0	17.47	2.0148	16.554	0
10786	107.86	0	0	0	0	0	0	0	0	0	0	0	0	0	0	0	0	0	0	0	0	0	1	0	0	17.755	2.1475	16.785	0	0	0	1	0	0	17.761	2.1499	16.789	0	0	0	1	0	0	17.883	2.027	16.961	0	0	0	0	0	0	0	0	0	0	0	0	0	0	0	0	0	0	2
10787	107.87	0	0	0	0	0	0	0	0	0	0	0	0	0	0	0	0	0	0	0	0	0	1	0	0	17.755	2.1475	16.785	0	0	0	1	0	0	17.761	2.1499	16.789	0	0	0	0	0	0	0	0	0	0	0	0	0	0	0	0	0	0	0	0	0	0	0	0	0	0	0	2
10788	107.88	0	0	0	0	0	0	10.917	-10.917	18.908	0	0	0	0	0	0	0	0	0	0	0	0	1	0	0	17.755	2.1475	16.785	0	0	0	1	0	0	17.761	2.1499	16.789	0	0	0	1	0	0	17.883	2.027	16.961	0	0	0	0	0	0	0	0	0	0	0	0	1	0	0	17.47	2.0148	16.554	2
10789	107.89	0	0	0	0	0	0	0	0	0	0	0	0	0	0	0	0	0	0	0	0	0	1	0	0	17.755	2.1475	16.785	0	0	0	1	0	0	17.761	2.1499	16.789	0	0	0	0	0	0	0	0	0	0	0	0	0	-1	0	-2.0278	-17.891	16.968	0	0	0	0	0	0	0	0	0	2
10790	107.9	0	0	0	0	0	0	0	0	0	0	0	0	0	0	0	0	0	0	0	0	0	1	0	0	17.755	2.1475	16.785	0	0	0	1	0	0	17.761	2.1499	16.789	0	0	0	1	0	0	17.883	2.027	16.961	0	0	0	0	0	0	10.994	-10.994	19.042	0	0	0	1	0	0	17.47	2.0148	16.554	2
10791	107.91	0	0	0	0	0	0	10.917	-10.917	18.908	0	0	0	0	0	0	0	0	0	0	0	0	1	0	0	17.755	2.1475	16.785	0	0	0	1	0	0	17.761	2.1499	16.789	0	0	0	0	0	0	0	0	0	0	0	0	1	-1	0	7.5503	-27.469	31.921	0	0	0	1	0	0	17.47	2.0148	16.554	2
10792	107.92	0	0	0	0	0	0	0	0	0	0	0	0	0	0	0	0	0	0	0	0	0	1	0	0	17.755	2.1475	16.785	0	0	0	1	0	0	17.761	2.1499	16.789	0	0	0	0	0	0	0	0	0	0	0	0	0	0	0	0	0	0	0	0	0	1	0	0	17.47	2.0148	16.554	2
10793	107.93	0	0	0	0	0	0	10.917	-10.917	18.908	0	0	0	0	0	0	0	0	0	0	0	0	1	0	0	17.755	2.1475	16.785	0	0	0	1	0	0	17.761	2.1499	16.789	0	0	0	0	0	0	0	0	0	0	0	0	1	-1	0	7.5503	-27.469	31.921	0	0	0	1	0	0	17.47	2.0148	16.554	2
10794	107.94	0	0	0	0	0	0	0	0	0	0	0	0	0	0	0	0	0	0	0	0	0	1	0	0	17.755	2.1475	16.785	0	0	0	1	0	0	17.761	2.1499	16.789	0	0	0	0	0	0	0	0	0	0	0	0	0	-1	0	-2.0278	-17.891	16.968	0	0	0	0	0	0	0	0	0	2
10795	107.95	0	0	0	0	0	0	0	0	0	0	0	0	0	0	0	0	0	0	0	0	0	0	0	0	20.079	19.73	19.907	0	0	0	1	0	0	17.761	2.1499	16.789	0	0	0	1	0	0	17.883	2.027	16.961	0	0	0	1	-1	0	7.5503	-27.469	31.921	0	0	0	1	0	0	17.47	2.0148	16.554	2
10796	107.96	0	0	0	0	0	0	10.917	-10.917	18.908	0	0	0	0	0	0	0	0	0	0	0	0	1	0	0	17.755	2.1475	16.785	0	0	0	1	0	0	17.761	2.1499	16.789	0	0	0	0	0	0	0	0	0	0	0	0	0	0	0	0	0	0	0	0	0	1	0	0	17.47	2.0148	16.554	2
10797	107.97	0	0	0	0	0	0	10.917	-10.917	18.908	0	0	0	0	0	0	0	0	0	0	0	0	1	0	0	17.755	2.1475	16.785	0	0	0	1	0	0	17.761	2.1499	16.789	0	0	0	0	0	0	0	0	0	0	0	0	0	-1	0	-2.0278	-17.891	16.968	0	0	0	0	0	0	0	0	0	2
10798	107.98	0	0	0	0	0	0	10.917	-10.917	18.908	0	0	0	0	0	0	0	0	0	0	0	0	1	0	0	17.755	2.1475	16.785	0	0	0	1	0	0	17.761	2.1499	16.789	0	0	0	1	0	0	17.883	2.027	16.961	0	0	0	0	0	0	0	0	0	0	0	0	1	0	0	17.47	2.0148	16.554	2
10799	107.99	0	0	0	0	0	0	0	0	0	0	0	0	0	0	0	0	0	0	0	0	0	1	0	0	17.755	2.1475	16.785	0	0	0	1	0	0	17.761	2.1499	16.789	0	0	0	0	0	0	0	0	0	0	0	0	0	0	0	10.994	-10.994	19.042	0	0	0	0	0	0	0	0	0	2
10800	108	0	0	0	0	0	0	10.917	-10.917	18.908	0	0	0	0	0	0	0	0	0	0	0	0	1	0	0	17.755	2.1475	16.785	0	0	0	1	0	0	17.761	2.1499	16.789	0	0	0	0	0	0	0	0	0	0	0	0	0	0	0	10.994	-10.994	19.042	0	0	0	1	0	0	17.47	2.0148	16.554	2
10801	108.01	0	0	0	0	0	0	0	0	0	0	0	0	0	0	0	0	0	0	0	0	0	1	0	0	17.755	2.1475	16.785	0	0	0	1	0	0	17.761	2.1499	16.789	0	0	0	0	0	0	0	0	0	0	0	0	0	0	0	0	0	0	0	0	0	1	0	0	17.47	2.0148	16.554	2
10802	108.02	0	0	0	0	0	0	10.917	-10.917	18.908	0	0	0	0	0	0	0	0	0	0	0	0	1	0	0	17.755	2.1475	16.785	0	0	0	1	0	0	17.761	2.1499	16.789	0	0	0	0	0	0	0	0	0	0	0	0	0	0	0	0	0	0	0	0	0	1	0	0	17.47	2.0148	16.554	2
10803	108.03	0	0	0	0	0	0	10.917	-10.917	18.908	0	0	0	0	0	0	0	0	0	0	0	0	1	0	0	17.755	2.1475	16.785	0	0	0	1	0	0	17.761	2.1499	16.789	0	0	0	0	0	0	0	0	0	0	0	0	0	0	0	10.994	-10.994	19.042	0	0	0	1	0	0	17.47	2.0148	16.554	2
10804	108.04	0	0	0	0	0	0	0	0	0	0	0	0	0	0	0	0	0	0	0	0	0	0	0	0	10.989	-10.989	19.033	0	0	0	1	0	0	17.761	2.1499	16.789	0	0	0	0	0	0	0	0	0	0	0	0	0	0	0	0	0	0	0	0	0	0	0	0	0	0	0	2
10805	108.05	0	0	0	0	0	0	10.917	-10.917	18.908	0	0	0	0	0	0	0	0	0	0	0	0	1	0	0	17.755	2.1475	16.785	0	0	0	1	0	0	17.761	2.1499	16.789	0	0	0	0	0	0	0	0	0	0	0	0	0	0	0	0	0	0	0	0	0	1	0	0	17.47	2.0148	16.554	2
10806	108.06	0	0	0	0	0	0	10.917	-10.917	18.908	0	0	0	0	0	0	0	0	0	0	0	0	1	0	0	17.755	2.1475	16.785	0	0	0	1	0	0	17.761	2.1499	16.789	0	0	0	0	0	0	0	0	0	0	0	0	0	0	0	10.994	-10.994	19.042	0	0	0	0	0	0	0	0	0	2
10807	108.07	0	0	0	0	0	0	0	0	0	0	0	0	0	0	0	0	0	0	0	0	0	1	0	0	17.755	2.1475	16.785	0	0	0	1	0	0	17.761	2.1499	16.789	0	0	0	0	0	0	0	0	0	0	0	0	0	0	0	0	0	0	0	0	0	0	0	0	0	0	0	3
10808	108.08	0	0	0	0	0	0	10.917	-10.917	18.908	0	0	0	0	0	0	0	0	0	0	0	0	1	0	0	17.755	2.1475	16.785	0	0	0	1	0	0	17.761	2.1499	16.789	0	0	0	0	0	0	0	0	0	0	0	0	0	-1	0	-2.0278	-17.891	16.968	0	0	0	1	0	0	17.47	2.0148	16.554	2
10809	108.09	0	0	0	0	0	0	0	0	0	0	0	0	0	0	0	0	0	0	0	0	0	1	0	0	17.755	2.1475	16.785	0	0	0	1	0	0	17.761	2.1499	16.789	0	0	0	0	0	0	0	0	0	0	0	0	0	0	0	10.994	-10.994	19.042	0	0	0	0	0	0	0	0	0	2
10810	108.1	0	0	0	0	0	0	0	0	0	0	0	0	0	0	0	0	0	0	0	0	0	0	0	0	20.079	19.73	19.907	0	0	0	1	0	0	17.761	2.1499	16.789	0	0	0	0	0	0	0	0	0	0	0	0	1	-1	0	7.5503	-27.469	31.921	0	0	0	1	0	0	17.47	2.0148	16.554	2
10811	108.11	0	0	0	0	0	0	0	0	0	0	0	0	0	0	0	0	0	0	0	0	0	1	0	0	17.755	2.1475	16.785	0	0	0	1	0	0	17.761	2.1499	16.789	0	0	0	0	0	0	0	0	0	0	0	0	0	0	0	10.994	-10.994	19.042	0	0	0	0	0	0	0	0	0	2
10812	108.12	0	0	0	0	0	0	0	0	0	0	0	0	0	0	0	0	0	0	0	0	0	0	0	0	20.079	19.73	19.907	0	0	0	1	0	0	17.761	2.1499	16.789	0	0	0	0	0	0	0	0	0	0	0	0	0	-1	0	-2.0278	-17.891	16.968	0	0	0	1	0	0	17.47	2.0148	16.554	2
10813	108.13	0	0	0	0	0	0	10.917	-10.917	18.908	0	0	0	0	0	0	0	0	0	0	0	0	1	0	0	17.755	2.1475	16.785	0	0	0	1	0	0	17.761	2.1499	16.789	0	0	0	1	0	0	17.883	2.027	16.961	0	0	0	0	0	0	10.994	-10.994	19.042	0	0	0	0	0	0	0	0	0	2
10814	108.14	0	0	0	0	0	0	10.917	-10.917	18.908	0	0	0	0	0	0	0	0	0	0	0	0	0	0	0	20.079	19.73	19.907	0	0	0	1	0	0	17.761	2.1499	16.789	0	0	0	0	0	0	0	0	0	0	0	0	0	-1	0	-2.0278	-17.891	16.968	0	0	0	0	0	0	0	0	0	2
10815	108.15	0	0	0	0	0	0	10.917	-10.917	18.908	0	0	0	0	0	0	0	0	0	0	0	0	0	0	0	20.079	19.73	19.907	0	0	0	1	0	0	17.761	2.1499	16.789	0	0	0	1	0	0	17.883	2.027	16.961	0	0	0	0	-1	0	-2.0278	-17.891	16.968	0	0	0	1	0	0	17.47	2.0148	16.554	2
10816	108.16	0	0	0	0	0	0	10.917	-10.917	18.908	0	0	0	0	0	0	0	0	0	0	0	0	1	0	0	17.755	2.1475	16.785	0	0	0	1	0	0	17.761	2.1499	16.789	0	0	0	0	0	0	0	0	0	0	0	0	0	0	0	10.994	-10.994	19.042	0	0	0	0	0	0	0	0	0	2
10817	108.17	0	0	0	0	0	0	0	0	0	0	0	0	0	0	0	0	0	0	0	0	0	1	0	0	17.755	2.1475	16.785	0	0	0	1	0	0	17.761	2.1499	16.789	0	0	0	0	0	0	0	0	0	0	0	0	1	-1	0	7.5503	-27.469	31.921	0	0	0	1	0	0	17.47	2.0148	16.554	2
10818	108.18	0	0	0	0	0	0	0	0	0	0	0	0	0	0	0	0	0	0	0	0	0	1	0	0	17.755	2.1475	16.785	0	0	0	1	0	0	17.761	2.1499	16.789	0	0	0	0	0	0	0	0	0	0	0	0	0	0	0	10.994	-10.994	19.042	0	0	0	0	0	0	0	0	0	2
10819	108.19	0	0	0	0	0	0	0	0	0	0	0	0	0	0	0	0	0	0	0	0	0	0	0	0	10.989	-10.989	19.033	0	0	0	1	0	0	17.761	2.1499	16.789	0	0	0	0	0	0	0	0	0	0	0	0	0	-1	0	-2.0278	-17.891	16.968	0	0	0	0	0	0	0	0	0	2
10820	108.2	0	0	0	0	0	0	0	0	0	0	0	0	0	0	0	0	0	0	0	0	0	1	0	0	17.755	2.1475	16.785	0	0	0	1	0	0	17.761	2.1499	16.789	0	0	0	1	0	0	17.883	2.027	16.961	0	0	0	1	-1	0	7.5503	-27.469	31.921	0	0	0	1	0	0	17.47	2.0148	16.554	2
10821	108.21	0	0	0	0	0	0	0	0	0	0	0	0	0	0	0	0	0	0	0	0	0	1	0	0	17.755	2.1475	16.785	0	0	0	1	0	0	17.761	2.1499	16.789	0	0	0	0	0	0	0	0	0	0	0	0	0	0	0	10.994	-10.994	19.042	0	0	0	1	0	0	17.47	2.0148	16.554	2
10822	108.22	0	0	0	0	0	0	10.917	-10.917	18.908	0	0	0	0	0	0	0	0	0	0	0	0	1	0	0	17.755	2.1475	16.785	0	0	0	1	0	0	17.761	2.1499	16.789	0	0	0	0	0	0	0	0	0	0	0	0	0	0	0	0	0	0	0	0	0	1	0	0	17.47	2.0148	16.554	2
10823	108.23	0	0	0	0	0	0	0	0	0	0	0	0	0	0	0	0	0	0	0	0	0	1	0	0	17.755	2.1475	16.785	0	0	0	1	0	0	17.761	2.1499	16.789	0	0	0	0	0	0	0	0	0	0	0	0	0	-1	0	-2.0278	-17.891	16.968	0	0	0	1	0	0	17.47	2.0148	16.554	2
10824	108.24	0	0	0	0	0	0	0	0	0	0	0	0	0	0	0	0	0	0	0	0	0	0	0	0	20.079	19.73	19.907	0	0	0	1	0	0	17.761	2.1499	16.789	0	0	0	0	0	0	0	0	0	0	0	0	0	-1	0	-2.0278	-17.891	16.968	0	0	0	0	0	0	0	0	0	2
10825	108.25	0	0	0	0	0	0	10.917	-10.917	18.908	0	0	0	0	0	0	0	0	0	0	0	0	1	0	0	17.755	2.1475	16.785	0	0	0	1	0	0	17.761	2.1499	16.789	0	0	0	0	0	0	0	0	0	0	0	0	1	-1	0	7.5503	-27.469	31.921	0	0	0	1	0	0	17.47	2.0148	16.554	2
10826	108.26	0	0	0	0	0	0	0	0	0	0	0	0	0	0	0	0	0	0	0	0	0	0	0	0	10.989	-10.989	19.033	0	0	0	1	0	0	17.761	2.1499	16.789	0	0	0	0	0	0	0	0	0	0	0	0	1	-1	0	7.5503	-27.469	31.921	0	0	0	0	0	0	0	0	0	2
10827	108.27	0	0	0	0	0	0	0	0	0	0	0	0	0	0	0	0	0	0	0	0	0	0	0	0	10.989	-10.989	19.033	0	0	0	1	0	0	17.761	2.1499	16.789	0	0	0	0	0	0	0	0	0	0	0	0	0	0	0	0	0	0	0	0	0	0	0	0	0	0	0	0
10828	108.28	0	0	0	0	0	0	10.917	-10.917	18.908	0	0	0	0	0	0	0	0	0	0	0	0	1	0	0	17.755	2.1475	16.785	0	0	0	1	0	0	17.761	2.1499	16.789	0	0	0	0	0	0	0	0	0	0	0	0	0	-1	0	-2.0278	-17.891	16.968	0	0	0	0	0	0	0	0	0	2
10829	108.29	0	0	0	0	0	0	10.917	-10.917	18.908	0	0	0	0	0	0	0	0	0	0	0	0	1	0	0	17.755	2.1475	16.785	0	0	0	1	0	0	17.761	2.1499	16.789	0	0	0	0	0	0	0	0	0	0	0	0	0	0	0	0	0	0	0	0	0	1	0	0	17.47	2.0148	16.554	2
10830	108.3	0	0	0	0	0	0	10.917	-10.917	18.908	0	0	0	0	0	0	0	0	0	0	0	0	1	0	0	17.755	2.1475	16.785	0	0	0	1	0	0	17.761	2.1499	16.789	0	0	0	1	0	0	17.883	2.027	16.961	0	0	0	0	0	0	0	0	0	0	0	0	0	0	0	0	0	0	2
10831	108.31	0	0	0	0	0	0	10.917	-10.917	18.908	0	0	0	0	0	0	0	0	0	0	0	0	0	0	0	10.989	-10.989	19.033	0	0	0	1	0	0	17.761	2.1499	16.789	0	0	0	0	0	0	0	0	0	0	0	0	0	0	0	10.994	-10.994	19.042	0	0	0	1	0	0	17.47	2.0148	16.554	2
10832	108.32	0	0	0	0	0	0	10.917	-10.917	18.908	0	0	0	0	0	0	0	0	0	0	0	0	1	0	0	17.755	2.1475	16.785	0	0	0	1	0	0	17.761	2.1499	16.789	0	0	0	0	0	0	0	0	0	0	0	0	0	0	0	0	0	0	0	0	0	0	0	0	0	0	0	2
10833	108.33	0	0	0	0	0	0	10.917	-10.917	18.908	0	0	0	0	0	0	0	0	0	0	0	0	1	0	0	17.755	2.1475	16.785	0	0	0	1	0	0	17.761	2.1499	16.789	0	0	0	0	0	0	0	0	0	0	0	0	0	0	0	0	0	0	0	0	0	1	0	0	17.47	2.0148	16.554	2
10834	108.34	0	0	0	0	0	0	10.917	-10.917	18.908	0	0	0	0	0	0	0	0	0	0	0	0	1	0	0	17.755	2.1475	16.785	0	0	0	1	0	0	17.761	2.1499	16.789	0	0	0	0	0	0	0	0	0	0	0	0	0	-1	0	-2.0278	-17.891	16.968	0	0	0	0	0	0	0	0	0	2
10835	108.35	0	0	0	0	0	0	10.917	-10.917	18.908	0	0	0	0	0	0	0	0	0	0	0	0	1	0	0	17.755	2.1475	16.785	0	0	0	1	0	0	17.761	2.1499	16.789	0	0	0	1	0	0	17.883	2.027	16.961	0	0	0	0	0	0	10.994	-10.994	19.042	0	0	0	1	0	0	17.47	2.0148	16.554	2
10836	108.36	0	0	0	0	0	0	0	0	0	0	0	0	0	0	0	0	0	0	0	0	0	1	0	0	17.755	2.1475	16.785	0	0	0	1	0	0	17.761	2.1499	16.789	0	0	0	0	0	0	0	0	0	0	0	0	0	-1	0	-2.0278	-17.891	16.968	0	0	0	0	0	0	0	0	0	2
10837	108.37	0	0	0	0	0	0	10.917	-10.917	18.908	0	0	0	0	0	0	0	0	0	0	0	0	1	0	0	17.755	2.1475	16.785	0	0	0	1	0	0	17.761	2.1499	16.789	0	0	0	0	0	0	0	0	0	0	0	0	0	0	0	10.994	-10.994	19.042	0	0	0	0	0	0	0	0	0	2
10838	108.38	0	0	0	0	0	0	0	0	0	0	0	0	0	0	0	0	0	0	0	0	0	1	0	0	17.755	2.1475	16.785	0	0	0	1	0	0	17.761	2.1499	16.789	0	0	0	0	0	0	0	0	0	0	0	0	0	0	0	0	0	0	0	0	0	1	0	0	17.47	2.0148	16.554	2
10839	108.39	0	0	0	0	0	0	0	0	0	0	0	0	0	0	0	0	0	0	0	0	0	1	0	0	17.755	2.1475	16.785	0	0	0	1	0	0	17.761	2.1499	16.789	0	0	0	0	0	0	0	0	0	0	0	0	1	-1	0	7.5503	-27.469	31.921	0	0	0	0	0	0	0	0	0	2
10840	108.4	0	0	0	0	0	0	0	0	0	0	0	0	0	0	0	0	0	0	0	0	0	1	0	0	17.755	2.1475	16.785	0	0	0	1	0	0	17.761	2.1499	16.789	0	0	0	1	0	0	17.883	2.027	16.961	0	0	0	0	-1	0	-2.0278	-17.891	16.968	0	0	0	1	0	0	17.47	2.0148	16.554	2
10841	108.41	0	0	0	0	0	0	10.917	-10.917	18.908	0	0	0	0	0	0	0	0	0	0	0	0	1	0	0	17.755	2.1475	16.785	0	0	0	1	0	0	17.761	2.1499	16.789	0	0	0	1	0	0	17.883	2.027	16.961	0	0	0	0	-1	0	-2.0278	-17.891	16.968	0	0	0	0	0	0	0	0	0	2
10842	108.42	0	0	0	0	0	0	0	0	0	0	0	0	0	0	0	0	0	0	0	0	0	1	0	0	17.755	2.1475	16.785	0	0	0	1	0	0	17.761	2.1499	16.789	0	0	0	0	0	0	0	0	0	0	0	0	0	0	0	10.994	-10.994	19.042	0	0	0	1	0	0	17.47	2.0148	16.554	2
10843	108.43	0	0	0	0	0	0	10.917	-10.917	18.908	0	0	0	0	0	0	0	0	0	0	0	0	1	0	0	17.755	2.1475	16.785	0	0	0	1	0	0	17.761	2.1499	16.789	0	0	0	1	0	0	17.883	2.027	16.961	0	0	0	0	-1	0	-2.0278	-17.891	16.968	0	0	0	0	0	0	0	0	0	2
10844	108.44	0	0	0	0	0	0	0	0	0	0	0	0	0	0	0	0	0	0	0	0	0	0	0	0	10.989	-10.989	19.033	0	0	0	1	0	0	17.761	2.1499	16.789	0	0	0	0	0	0	0	0	0	0	0	0	0	0	0	10.994	-10.994	19.042	0	0	0	0	0	0	0	0	0	2
10845	108.45	0	0	0	0	0	0	0	0	0	0	0	0	0	0	0	0	0	0	0	0	0	1	0	0	17.755	2.1475	16.785	0	0	0	1	0	0	17.761	2.1499	16.789	0	0	0	0	0	0	0	0	0	0	0	0	0	-1	0	-2.0278	-17.891	16.968	0	0	0	1	0	0	17.47	2.0148	16.554	2
10846	108.46	0	0	0	0	0	0	0	0	0	0	0	0	0	0	0	0	0	0	0	0	0	0	0	0	10.989	-10.989	19.033	0	0	0	1	0	0	17.761	2.1499	16.789	0	0	0	0	0	0	0	0	0	0	0	0	0	-1	0	-2.0278	-17.891	16.968	0	0	0	0	0	0	0	0	0	2
10847	108.47	0	0	0	0	0	0	0	0	0	0	0	0	0	0	0	0	0	0	0	0	0	1	0	0	17.755	2.1475	16.785	0	0	0	1	0	0	17.761	2.1499	16.789	0	0	0	0	0	0	0	0	0	0	0	0	0	0	0	0	0	0	0	0	0	1	0	0	17.47	2.0148	16.554	2
10848	108.48	0	0	0	0	0	0	10.917	-10.917	18.908	0	0	0	0	0	0	0	0	0	0	0	0	1	0	0	17.755	2.1475	16.785	0	0	0	1	0	0	17.761	2.1499	16.789	0	0	0	0	0	0	0	0	0	0	0	0	0	-1	0	-2.0278	-17.891	16.968	0	0	0	1	0	0	17.47	2.0148	16.554	2
10849	108.49	0	0	0	0	0	0	0	0	0	0	0	0	0	0	0	0	0	0	0	0	0	1	0	0	17.755	2.1475	16.785	0	0	0	1	0	0	17.761	2.1499	16.789	0	0	0	0	0	0	0	0	0	0	0	0	0	-1	0	-2.0278	-17.891	16.968	0	0	0	0	0	0	0	0	0	2
10850	108.5	0	0	0	0	0	0	10.917	-10.917	18.908	0	0	0	0	0	0	0	0	0	0	0	0	1	0	0	17.755	2.1475	16.785	0	0	0	1	0	0	17.761	2.1499	16.789	0	0	0	1	0	0	17.883	2.027	16.961	0	0	0	0	0	0	0	0	0	0	0	0	1	0	0	17.47	2.0148	16.554	2
10851	108.51	0	0	0	0	0	0	0	0	0	0	0	0	0	0	0	0	0	0	0	0	0	0	0	0	10.989	-10.989	19.033	0	0	0	1	0	0	17.761	2.1499	16.789	0	0	0	0	0	0	0	0	0	0	0	0	0	0	0	10.994	-10.994	19.042	0	0	0	1	0	0	17.47	2.0148	16.554	2
10852	108.52	0	0	0	0	0	0	0	0	0	0	0	0	0	0	0	0	0	0	0	0	0	1	0	0	17.755	2.1475	16.785	0	0	0	1	0	0	17.761	2.1499	16.789	0	0	0	0	0	0	0	0	0	0	0	0	1	-1	0	7.5503	-27.469	31.921	0	0	0	1	0	0	17.47	2.0148	16.554	2
10853	108.53	0	0	0	0	0	0	10.917	-10.917	18.908	0	0	0	0	0	0	0	0	0	0	0	0	1	0	0	17.755	2.1475	16.785	0	0	0	1	0	0	17.761	2.1499	16.789	0	0	0	1	0	0	17.883	2.027	16.961	0	0	0	0	0	0	10.994	-10.994	19.042	0	0	0	1	0	0	17.47	2.0148	16.554	2
10854	108.54	0	0	0	0	0	0	0	0	0	0	0	0	0	0	0	0	0	0	0	0	0	1	0	0	17.755	2.1475	16.785	0	0	0	1	0	0	17.761	2.1499	16.789	0	0	0	0	0	0	0	0	0	0	0	0	0	0	0	0	0	0	0	0	0	0	0	0	0	0	0	2
10855	108.55	0	0	0	0	0	0	0	0	0	0	0	0	0	0	0	0	0	0	0	0	0	1	0	0	17.755	2.1475	16.785	0	0	0	1	0	0	17.761	2.1499	16.789	0	0	0	1	0	0	17.883	2.027	16.961	0	0	0	0	-1	0	-2.0278	-17.891	16.968	0	0	0	0	0	0	0	0	0	2
10856	108.56	0	0	0	0	0	0	0	0	0	0	0	0	0	0	0	0	0	0	0	0	0	0	0	0	10.989	-10.989	19.033	0	0	0	1	0	0	17.761	2.1499	16.789	0	0	0	0	0	0	0	0	0	0	0	0	0	0	0	0	0	0	0	0	0	0	0	0	0	0	0	2
10857	108.57	0	0	0	0	0	0	0	0	0	0	0	0	0	0	0	0	0	0	0	0	0	1	0	0	17.755	2.1475	16.785	0	0	0	1	0	0	17.761	2.1499	16.789	0	0	0	1	0	0	17.883	2.027	16.961	0	0	0	0	0	0	0	0	0	0	0	0	0	0	0	0	0	0	2
10858	108.58	0	0	0	0	0	0	0	0	0	0	0	0	0	0	0	0	0	0	0	0	0	1	0	0	17.755	2.1475	16.785	0	0	0	1	0	0	17.761	2.1499	16.789	0	0	0	1	0	0	17.883	2.027	16.961	0	0	0	0	0	0	10.994	-10.994	19.042	0	0	0	1	0	0	17.47	2.0148	16.554	2
10859	108.59	0	0	0	0	0	0	0	0	0	0	0	0	0	0	0	0	0	0	0	0	0	0	0	0	10.989	-10.989	19.033	0	0	0	1	0	0	17.761	2.1499	16.789	0	0	0	0	0	0	0	0	0	0	0	0	0	0	0	10.994	-10.994	19.042	0	0	0	0	0	0	0	0	0	2
10860	108.6	0	0	0	0	0	0	0	0	0	0	0	0	0	0	0	0	0	0	0	0	0	1	0	0	17.755	2.1475	16.785	0	0	0	1	0	0	17.761	2.1499	16.789	0	0	0	0	0	0	0	0	0	0	0	0	0	-1	0	-2.0278	-17.891	16.968	0	0	0	0	0	0	0	0	0	2
10861	108.61	0	0	0	0	0	0	0	0	0	0	0	0	0	0	0	0	0	0	0	0	0	1	0	0	17.755	2.1475	16.785	0	0	0	1	0	0	17.761	2.1499	16.789	0	0	0	0	0	0	0	0	0	0	0	0	1	-1	0	7.5503	-27.469	31.921	0	0	0	0	0	0	0	0	0	3
10862	108.62	0	0	0	0	0	0	0	0	0	0	0	0	0	0	0	0	0	0	0	0	0	1	0	0	17.755	2.1475	16.785	0	0	0	1	0	0	17.761	2.1499	16.789	0	0	0	1	0	0	17.883	2.027	16.961	0	0	0	0	0	0	0	0	0	0	0	0	0	0	0	0	0	0	2
10863	108.63	0	0	0	0	0	0	0	0	0	0	0	0	0	0	0	0	0	0	0	0	0	1	0	0	17.755	2.1475	16.785	0	0	0	1	0	0	17.761	2.1499	16.789	0	0	0	1	0	0	17.883	2.027	16.961	0	0	0	1	-1	0	7.5503	-27.469	31.921	0	0	0	1	0	0	17.47	2.0148	16.554	2
10864	108.64	0	0	0	0	0	0	10.917	-10.917	18.908	0	0	0	0	0	0	0	0	0	0	0	0	1	0	0	17.755	2.1475	16.785	0	0	0	1	0	0	17.761	2.1499	16.789	0	0	0	0	0	0	0	0	0	0	0	0	0	0	0	0	0	0	0	0	0	0	0	0	0	0	0	2
10865	108.65	0	0	0	0	0	0	10.917	-10.917	18.908	0	0	0	0	0	0	0	0	0	0	0	0	1	0	0	17.755	2.1475	16.785	0	0	0	1	0	0	17.761	2.1499	16.789	0	0	0	1	0	0	17.883	2.027	16.961	0	0	0	0	0	0	0	0	0	0	0	0	1	0	0	17.47	2.0148	16.554	2
10866	108.66	0	0	0	0	0	0	0	0	0	0	0	0	0	0	0	0	0	0	0	0	0	1	0	0	17.755	2.1475	16.785	0	0	0	0	0	0	20.082	19.733	19.91	0	0	0	0	0	0	0	0	0	0	0	0	0	-1	0	-2.0278	-17.891	16.968	0	0	0	1	0	0	17.47	2.0148	16.554	2
10867	108.67	0	0	0	0	0	0	0	0	0	0	0	0	0	0	0	0	0	0	0	0	0	1	0	0	17.755	2.1475	16.785	0	0	0	1	0	0	17.761	2.1499	16.789	0	0	0	0	0	0	0	0	0	0	0	0	0	0	0	10.994	-10.994	19.042	0	0	0	1	0	0	17.47	2.0148	16.554	2
10868	108.68	0	0	0	0	0	0	0	0	0	0	0	0	0	0	0	0	0	0	0	0	0	1	0	0	17.755	2.1475	16.785	0	0	0	1	0	0	17.761	2.1499	16.789	0	0	0	0	0	0	0	0	0	0	0	0	1	-1	0	7.5503	-27.469	31.921	0	0	0	0	0	0	0	0	0	2
10869	108.69	0	0	0	0	0	0	0	0	0	0	0	0	0	0	0	0	0	0	0	0	0	1	0	0	17.755	2.1475	16.785	0	0	0	1	0	0	17.761	2.1499	16.789	0	0	0	0	0	0	0	0	0	0	0	0	0	0	0	0	0	0	0	0	0	0	0	0	0	0	0	2
10870	108.7	0	0	0	0	0	0	0	0	0	0	0	0	0	0	0	0	0	0	0	0	0	1	0	0	17.755	2.1475	16.785	0	0	0	1	0	0	17.761	2.1499	16.789	0	0	0	0	0	0	0	0	0	0	0	0	0	0	0	0	0	0	0	0	0	1	0	0	17.47	2.0148	16.554	2
10871	108.71	0	0	0	0	0	0	0	0	0	0	0	0	0	0	0	0	0	0	0	0	0	1	0	0	17.755	2.1475	16.785	0	0	0	1	0	0	17.761	2.1499	16.789	0	0	0	0	0	0	0	0	0	0	0	0	0	0	0	0	0	0	0	0	0	0	0	0	0	0	0	2
10872	108.72	0	0	0	0	0	0	0	0	0	0	0	0	0	0	0	0	0	0	0	0	0	1	0	0	17.755	2.1475	16.785	0	0	0	1	0	0	17.761	2.1499	16.789	0	0	0	0	0	0	0	0	0	0	0	0	0	-1	0	-2.0278	-17.891	16.968	0	0	0	1	0	0	17.47	2.0148	16.554	2
10873	108.73	0	0	0	0	0	0	10.917	-10.917	18.908	0	0	0	0	0	0	0	0	0	0	0	0	1	0	0	17.755	2.1475	16.785	0	0	0	1	0	0	17.761	2.1499	16.789	0	0	0	0	0	0	0	0	0	0	0	0	0	-1	0	-2.0278	-17.891	16.968	0	0	0	0	0	0	0	0	0	2
10874	108.74	0	0	0	0	0	0	0	0	0	0	0	0	0	0	0	0	0	0	0	0	0	1	0	0	17.755	2.1475	16.785	0	0	0	1	0	0	17.761	2.1499	16.789	0	0	0	0	0	0	0	0	0	0	0	0	0	0	0	0	0	0	0	0	0	0	0	0	0	0	0	2
10875	108.75	0	0	0	0	0	0	10.917	-10.917	18.908	0	0	0	0	0	0	0	0	0	0	0	0	1	0	0	17.755	2.1475	16.785	0	0	0	1	0	0	17.761	2.1499	16.789	0	0	0	1	0	0	17.883	2.027	16.961	0	0	0	0	-1	0	-2.0278	-17.891	16.968	0	0	0	0	0	0	0	0	0	2
10876	108.76	0	0	0	0	0	0	0	0	0	0	0	0	0	0	0	0	0	0	0	0	0	1	0	0	17.755	2.1475	16.785	0	0	0	1	0	0	17.761	2.1499	16.789	0	0	0	0	0	0	0	0	0	0	0	0	0	-1	0	-2.0278	-17.891	16.968	0	0	0	0	0	0	0	0	0	2
10877	108.77	0	0	0	0	0	0	0	0	0	0	0	0	0	0	0	0	0	0	0	0	0	1	0	0	17.755	2.1475	16.785	0	0	0	1	0	0	17.761	2.1499	16.789	0	0	0	0	0	0	0	0	0	0	0	0	0	0	0	0	0	0	0	0	0	1	0	0	17.47	2.0148	16.554	2
10878	108.78	0	0	0	0	0	0	10.917	-10.917	18.908	0	0	0	0	0	0	0	0	0	0	0	0	1	0	0	17.755	2.1475	16.785	0	0	0	1	0	0	17.761	2.1499	16.789	0	0	0	0	0	0	0	0	0	0	0	0	0	0	0	10.994	-10.994	19.042	0	0	0	1	0	0	17.47	2.0148	16.554	2
10879	108.79	0	0	0	0	0	0	0	0	0	0	0	0	0	0	0	0	0	0	0	0	0	0	0	0	10.989	-10.989	19.033	0	0	0	1	0	0	17.761	2.1499	16.789	0	0	0	0	0	0	0	0	0	0	0	0	0	0	0	0	0	0	0	0	0	0	0	0	0	0	0	2
10880	108.8	0	0	0	0	0	0	0	0	0	0	0	0	0	0	0	0	0	0	0	0	0	1	0	0	17.755	2.1475	16.785	0	0	0	1	0	0	17.761	2.1499	16.789	0	0	0	0	0	0	0	0	0	0	0	0	0	0	0	0	0	0	0	0	0	1	0	0	17.47	2.0148	16.554	2
10881	108.81	0	0	0	0	0	0	10.917	-10.917	18.908	0	0	0	0	0	0	0	0	0	0	0	0	1	0	0	17.755	2.1475	16.785	0	0	0	1	0	0	17.761	2.1499	16.789	0	0	0	0	0	0	0	0	0	0	0	0	0	0	0	0	0	0	0	0	0	0	0	0	0	0	0	2
10882	108.82	0	0	0	0	0	0	0	0	0	0	0	0	0	0	0	0	0	0	0	0	0	0	0	0	10.989	-10.989	19.033	0	0	0	1	0	0	17.761	2.1499	16.789	0	0	0	0	0	0	0	0	0	0	0	0	0	0	0	0	0	0	0	0	0	0	0	0	0	0	0	2
10883	108.83	0	0	0	0	0	0	0	0	0	0	0	0	0	0	0	0	0	0	0	0	0	1	0	0	17.755	2.1475	16.785	0	0	0	1	0	0	17.761	2.1499	16.789	0	0	0	1	0	0	17.883	2.027	16.961	0	0	0	1	-1	0	7.5503	-27.469	31.921	0	0	0	1	0	0	17.47	2.0148	16.554	2
10884	108.84	0	0	0	0	0	0	0	0	0	0	0	0	0	0	0	0	0	0	0	0	0	1	0	0	17.755	2.1475	16.785	0	0	0	1	0	0	17.761	2.1499	16.789	0	0	0	0	0	0	0	0	0	0	0	0	0	-1	0	-2.0278	-17.891	16.968	0	0	0	0	0	0	0	0	0	2
10885	108.85	0	0	0	0	0	0	0	0	0	0	0	0	0	0	0	0	0	0	0	0	0	1	0	0	17.755	2.1475	16.785	0	0	0	1	0	0	17.761	2.1499	16.789	0	0	0	0	0	0	0	0	0	0	0	0	0	0	0	10.994	-10.994	19.042	0	0	0	0	0	0	0	0	0	2
10886	108.86	0	0	0	0	0	0	0	0	0	0	0	0	0	0	0	0	0	0	0	0	0	1	0	0	17.755	2.1475	16.785	0	0	0	1	0	0	17.761	2.1499	16.789	0	0	0	1	0	0	17.883	2.027	16.961	0	0	0	0	-1	0	-2.0278	-17.891	16.968	0	0	0	0	0	0	0	0	0	2
10887	108.87	0	0	0	0	0	0	0	0	0	0	0	0	0	0	0	0	0	0	0	0	0	1	0	0	17.755	2.1475	16.785	0	0	0	1	0	0	17.761	2.1499	16.789	0	0	0	0	0	0	0	0	0	0	0	0	0	0	0	0	0	0	0	0	0	0	0	0	0	0	0	2
10888	108.88	0	0	0	0	0	0	10.917	-10.917	18.908	0	0	0	0	0	0	0	0	0	0	0	0	1	0	0	17.755	2.1475	16.785	0	0	0	1	0	0	17.761	2.1499	16.789	0	0	0	1	0	0	17.883	2.027	16.961	0	0	0	0	0	0	10.994	-10.994	19.042	0	0	0	0	0	0	0	0	0	2
10889	108.89	0	0	0	0	0	0	0	0	0	0	0	0	0	0	0	0	0	0	0	0	0	1	0	0	17.755	2.1475	16.785	0	0	0	1	0	0	17.761	2.1499	16.789	0	0	0	0	0	0	0	0	0	0	0	0	1	-1	0	7.5503	-27.469	31.921	0	0	0	1	0	0	17.47	2.0148	16.554	0
10890	108.9	0	0	0	0	0	0	10.917	-10.917	18.908	0	0	0	0	0	0	0	0	0	0	0	0	1	0	0	17.755	2.1475	16.785	0	0	0	1	0	0	17.761	2.1499	16.789	0	0	0	1	0	0	17.883	2.027	16.961	0	0	0	0	0	0	0	0	0	0	0	0	1	0	0	17.47	2.0148	16.554	3
10891	108.91	0	0	0	0	0	0	0	0	0	0	0	0	0	0	0	0	0	0	0	0	0	1	0	0	17.755	2.1475	16.785	0	0	0	1	0	0	17.761	2.1499	16.789	0	0	0	1	0	0	17.883	2.027	16.961	0	0	0	0	-1	0	-2.0278	-17.891	16.968	0	0	0	0	0	0	0	0	0	-3
10892	108.92	0	0	0	0	0	0	10.917	-10.917	18.908	0	0	0	0	0	0	0	0	0	0	0	0	1	0	0	17.755	2.1475	16.785	0	0	0	1	0	0	17.761	2.1499	16.789	0	0	0	0	0	0	0	0	0	0	0	0	0	-1	0	-2.0278	-17.891	16.968	0	0	0	0	0	0	0	0	0	3
10893	108.93	0	0	0	0	0	0	0	0	0	0	0	0	0	0	0	0	0	0	0	0	0	1	0	0	17.755	2.1475	16.785	0	0	0	1	0	0	17.761	2.1499	16.789	0	0	0	0	0	0	0	0	0	0	0	0	0	0	0	0	0	0	0	0	0	0	0	0	0	0	0	2
10894	108.94	0	0	0	0	0	0	10.917	-10.917	18.908	0	0	0	0	0	0	0	0	0	0	0	0	1	0	0	17.755	2.1475	16.785	0	0	0	1	0	0	17.761	2.1499	16.789	0	0	0	0	0	0	0	0	0	0	0	0	0	-1	0	-2.0278	-17.891	16.968	0	0	0	0	0	0	0	0	0	2
10895	108.95	0	0	0	0	0	0	0	0	0	0	0	0	0	0	0	0	0	0	0	0	0	1	0	0	17.755	2.1475	16.785	0	0	0	1	0	0	17.761	2.1499	16.789	0	0	0	0	0	0	0	0	0	0	0	0	0	-1	0	-2.0278	-17.891	16.968	0	0	0	1	0	0	17.47	2.0148	16.554	0
10896	108.96	0	0	0	0	0	0	0	0	0	0	0	0	0	0	0	0	0	0	0	0	0	0	0	0	10.989	-10.989	19.033	0	0	0	1	0	0	17.761	2.1499	16.789	0	0	0	0	0	0	0	0	0	0	0	0	0	-1	0	-2.0278	-17.891	16.968	0	0	0	0	0	0	0	0	0	0
10897	108.97	0	0	0	0	0	0	0	0	0	0	0	0	0	0	0	0	0	0	0	0	0	1	0	0	17.755	2.1475	16.785	0	0	0	1	0	0	17.761	2.1499	16.789	0	0	0	0	0	0	0	0	0	0	0	0	0	-1	0	-2.0278	-17.891	16.968	0	0	0	0	0	0	0	0	0	2
10898	108.98	0	0	0	0	0	0	10.917	-10.917	18.908	0	0	0	0	0	0	0	0	0	0	0	0	1	0	0	17.755	2.1475	16.785	0	0	0	1	0	0	17.761	2.1499	16.789	0	0	0	0	0	0	0	0	0	0	0	0	0	0	0	10.994	-10.994	19.042	0	0	0	1	0	0	17.47	2.0148	16.554	3
10899	108.99	0	0	0	0	0	0	0	0	0	0	0	0	0	0	0	0	0	0	0	0	0	1	0	0	17.755	2.1475	16.785	0	0	0	1	0	0	17.761	2.1499	16.789	0	0	0	0	0	0	0	0	0	0	0	0	0	-1	0	-2.0278	-17.891	16.968	0	0	0	0	0	0	0	0	0	3
10900	109	0	0	0	0	0	0	10.917	-10.917	18.908	0	0	0	0	0	0	0	0	0	0	0	0	1	0	0	17.755	2.1475	16.785	0	0	0	1	0	0	17.761	2.1499	16.789	0	0	0	0	0	0	0	0	0	0	0	0	0	0	0	0	0	0	0	0	0	0	0	0	0	0	0	5
10901	109.01	0	0	0	0	0	0	0	0	0	0	0	0	0	0	0	0	0	0	0	0	0	1	0	0	17.755	2.1475	16.785	0	0	0	1	0	0	17.761	2.1499	16.789	0	0	0	0	0	0	0	0	0	0	0	0	0	0	0	0	0	0	0	0	0	0	0	0	0	0	0	3
10902	109.02	0	0	0	0	0	0	10.917	-10.917	18.908	0	0	0	0	0	0	0	0	0	0	0	0	1	0	0	17.755	2.1475	16.785	0	0	0	1	0	0	17.761	2.1499	16.789	0	0	0	0	0	0	0	0	0	0	0	0	0	0	0	0	0	0	0	0	0	0	0	0	0	0	0	3
10903	109.03	0	0	0	0	0	0	10.917	-10.917	18.908	0	0	0	0	0	0	0	0	0	0	0	0	1	0	0	17.755	2.1475	16.785	0	0	0	1	0	0	17.761	2.1499	16.789	0	0	0	1	0	0	17.883	2.027	16.961	0	0	0	0	0	0	0	0	0	0	0	0	0	0	0	0	0	0	3
10904	109.04	0	0	0	0	0	0	0	0	0	0	0	0	0	0	0	0	0	0	0	0	0	0	0	0	10.989	-10.989	19.033	0	0	0	1	0	0	17.761	2.1499	16.789	0	0	0	0	0	0	0	0	0	0	0	0	0	0	0	0	0	0	0	0	0	0	0	0	0	0	0	3
10905	109.05	0	0	0	0	0	0	0	0	0	0	0	0	0	0	0	0	0	0	0	0	0	0	0	0	20.079	19.73	19.907	0	0	0	1	0	0	17.761	2.1499	16.789	0	0	0	1	0	0	17.883	2.027	16.961	0	0	0	0	-1	0	-2.0278	-17.891	16.968	0	0	0	0	0	0	0	0	0	2
10906	109.06	0	0	0	0	0	0	10.917	-10.917	18.908	0	0	0	0	0	0	0	0	0	0	0	0	1	0	0	17.755	2.1475	16.785	0	0	0	1	0	0	17.761	2.1499	16.789	0	0	0	0	0	0	0	0	0	0	0	0	0	-1	0	-2.0278	-17.891	16.968	0	0	0	0	0	0	0	0	0	2
10907	109.07	0	0	0	0	0	0	10.917	-10.917	18.908	0	0	0	0	0	0	0	0	0	0	0	0	1	0	0	17.755	2.1475	16.785	0	0	0	1	0	0	17.761	2.1499	16.789	0	0	0	0	0	0	0	0	0	0	0	0	0	0	0	0	0	0	0	0	0	0	0	0	0	0	0	2
10908	109.08	0	0	0	0	0	0	0	0	0	0	0	0	0	0	0	0	0	0	0	0	0	1	0	0	17.755	2.1475	16.785	0	0	0	1	0	0	17.761	2.1499	16.789	0	0	0	0	0	0	0	0	0	0	0	0	0	0	0	0	0	0	0	0	0	1	0	0	17.47	2.0148	16.554	2
10909	109.09	0	0	0	0	0	0	0	0	0	0	0	0	0	0	0	0	0	0	0	0	0	1	0	0	17.755	2.1475	16.785	0	0	0	1	0	0	17.761	2.1499	16.789	0	0	0	0	0	0	0	0	0	0	0	0	1	-1	0	7.5503	-27.469	31.921	0	0	0	0	0	0	0	0	0	2
10910	109.1	0	0	0	0	0	0	10.917	-10.917	18.908	0	0	0	0	0	0	0	0	0	0	0	0	1	0	0	17.755	2.1475	16.785	0	0	0	1	0	0	17.761	2.1499	16.789	0	0	0	0	0	0	0	0	0	0	0	0	0	0	0	10.994	-10.994	19.042	0	0	0	1	0	0	17.47	2.0148	16.554	2
10911	109.11	0	0	0	0	0	0	0	0	0	0	0	0	0	0	0	0	0	0	0	0	0	0	0	0	20.079	19.73	19.907	0	0	0	1	0	0	17.761	2.1499	16.789	0	0	0	0	0	0	0	0	0	0	0	0	1	-1	0	7.5503	-27.469	31.921	0	0	0	1	0	0	17.47	2.0148	16.554	2
10912	109.12	0	0	0	0	0	0	0	0	0	0	0	0	0	0	0	0	0	0	0	0	0	1	0	0	17.755	2.1475	16.785	0	0	0	1	0	0	17.761	2.1499	16.789	0	0	0	0	0	0	0	0	0	0	0	0	0	-1	0	-2.0278	-17.891	16.968	0	0	0	0	0	0	0	0	0	2
10913	109.13	0	0	0	0	0	0	0	0	0	0	0	0	0	0	0	0	0	0	0	0	0	0	0	0	20.079	19.73	19.907	0	0	0	1	0	0	17.761	2.1499	16.789	0	0	0	0	0	0	0	0	0	0	0	0	0	0	0	0	0	0	0	0	0	0	0	0	0	0	0	-2
10914	109.14	0	0	0	0	0	0	10.917	-10.917	18.908	0	0	0	0	0	0	0	0	0	0	0	0	1	0	0	17.755	2.1475	16.785	0	0	0	1	0	0	17.761	2.1499	16.789	0	0	0	0	0	0	0	0	0	0	0	0	0	0	0	10.994	-10.994	19.042	0	0	0	1	0	0	17.47	2.0148	16.554	2
10915	109.15	0	0	0	0	0	0	0	0	0	0	0	0	0	0	0	0	0	0	0	0	0	1	0	0	17.755	2.1475	16.785	0	0	0	1	0	0	17.761	2.1499	16.789	0	0	0	0	0	0	0	0	0	0	0	0	0	-1	0	-2.0278	-17.891	16.968	0	0	0	1	0	0	17.47	2.0148	16.554	-2
10916	109.16	0	0	0	0	0	0	10.917	-10.917	18.908	0	0	0	0	0	0	0	0	0	0	0	0	1	0	0	17.755	2.1475	16.785	0	0	0	1	0	0	17.761	2.1499	16.789	0	0	0	0	0	0	0	0	0	0	0	0	0	-1	0	-2.0278	-17.891	16.968	0	0	0	0	0	0	0	0	0	-2
10917	109.17	0	0	0	0	0	0	0	0	0	0	0	0	0	0	0	0	0	0	0	0	0	1	0	0	17.755	2.1475	16.785	0	0	0	1	0	0	17.761	2.1499	16.789	0	0	0	0	0	0	0	0	0	0	0	0	0	0	0	0	0	0	0	0	0	1	0	0	17.47	2.0148	16.554	-2
10918	109.18	0	0	0	0	0	0	0	0	0	0	0	0	0	0	0	0	0	0	0	0	0	1	0	0	17.755	2.1475	16.785	0	0	0	1	0	0	17.761	2.1499	16.789	0	0	0	0	0	0	0	0	0	0	0	0	1	-1	0	7.5503	-27.469	31.921	0	0	0	0	0	0	0	0	0	0
10919	109.19	0	0	0	0	0	0	0	0	0	0	0	0	0	0	0	0	0	0	0	0	0	0	0	0	10.989	-10.989	19.033	0	0	0	1	0	0	17.761	2.1499	16.789	0	0	0	0	0	0	0	0	0	0	0	0	0	-1	0	-2.0278	-17.891	16.968	0	0	0	1	0	0	17.47	2.0148	16.554	2
10920	109.2	0	0	0	0	0	0	0	0	0	0	0	0	0	0	0	0	0	0	0	0	0	1	0	0	17.755	2.1475	16.785	0	0	0	1	0	0	17.761	2.1499	16.789	0	0	0	0	0	0	0	0	0	0	0	0	1	-1	0	7.5503	-27.469	31.921	0	0	0	0	0	0	0	0	0	2
10921	109.21	0	0	0	0	0	0	0	0	0	0	0	0	0	0	0	0	0	0	0	0	0	0	0	0	10.989	-10.989	19.033	0	0	0	1	0	0	17.761	2.1499	16.789	0	0	0	0	0	0	0	0	0	0	0	0	0	0	0	0	0	0	0	0	0	0	0	0	0	0	0	3
10922	109.22	0	0	0	0	0	0	0	0	0	0	0	0	0	0	0	0	0	0	0	0	0	1	0	0	17.755	2.1475	16.785	0	0	0	0	0	0	20.082	19.733	19.91	0	0	0	0	0	0	0	0	0	0	0	0	0	0	0	10.994	-10.994	19.042	0	0	0	1	0	0	17.47	2.0148	16.554	3
10923	109.23	0	0	0	0	0	0	10.917	-10.917	18.908	0	0	0	0	0	0	0	0	0	0	0	0	0	0	0	20.079	19.73	19.907	0	0	0	1	0	0	17.761	2.1499	16.789	0	0	0	0	0	0	0	0	0	0	0	0	0	-1	0	-2.0278	-17.891	16.968	0	0	0	1	0	0	17.47	2.0148	16.554	3
10924	109.24	0	0	0	0	0	0	0	0	0	0	0	0	0	0	0	0	0	0	0	0	0	1	0	0	17.755	2.1475	16.785	0	0	0	1	0	0	17.761	2.1499	16.789	0	0	0	0	0	0	0	0	0	0	0	0	0	-1	0	-2.0278	-17.891	16.968	0	0	0	0	0	0	0	0	0	3
10925	109.25	0	0	0	0	0	0	0	0	0	0	0	0	0	0	0	0	0	0	0	0	0	1	0	0	17.755	2.1475	16.785	0	0	0	1	0	0	17.761	2.1499	16.789	0	0	0	0	0	0	0	0	0	0	0	0	0	0	0	0	0	0	0	0	0	1	0	0	17.47	2.0148	16.554	0
10926	109.26	0	0	0	0	0	0	10.917	-10.917	18.908	0	0	0	0	0	0	0	0	0	0	0	0	1	0	0	17.755	2.1475	16.785	0	0	0	1	0	0	17.761	2.1499	16.789	0	0	0	0	0	0	0	0	0	0	0	0	0	0	0	10.994	-10.994	19.042	0	0	0	1	0	0	17.47	2.0148	16.554	2
10927	109.27	0	0	0	0	0	0	0	0	0	0	0	0	0	0	0	0	0	0	0	0	0	1	0	0	17.755	2.1475	16.785	0	0	0	1	0	0	17.883	2.027	16.961	0	0	0	0	0	0	0	0	0	0	0	0	0	0	0	0	0	0	0	0	0	1	0	0	17.47	2.0148	16.554	2
10928	109.28	0	0	0	0	0	0	10.917	-10.917	18.908	0	0	0	0	0	0	0	0	0	0	0	0	1	0	0	17.755	2.1475	16.785	0	0	0	1	0	0	17.761	2.1499	16.789	0	0	0	0	0	0	0	0	0	0	0	0	0	0	0	10.994	-10.994	19.042	0	0	0	0	0	0	0	0	0	3
10929	109.29	0	0	0	0	0	0	0	0	0	0	0	0	0	0	0	0	0	0	0	0	0	1	0	0	17.755	2.1475	16.785	0	0	0	1	0	0	17.761	2.1499	16.789	0	0	0	0	0	0	0	0	0	0	0	0	0	0	0	0	0	0	0	0	0	0	0	0	0	0	0	2
10930	109.3	0	0	0	0	0	0	10.917	-10.917	18.908	0	0	0	0	0	0	0	0	0	0	0	0	1	0	0	17.755	2.1475	16.785	0	0	0	1	0	0	17.761	2.1499	16.789	0	0	0	0	0	0	0	0	0	0	0	0	0	0	0	10.994	-10.994	19.042	0	0	0	1	0	0	17.47	2.0148	16.554	2
10931	109.31	0	0	0	0	0	0	0	0	0	0	0	0	0	0	0	0	0	0	0	0	0	0	0	0	10.989	-10.989	19.033	0	0	0	1	0	0	17.761	2.1499	16.789	0	0	0	0	0	0	0	0	0	0	0	0	0	-1	0	-2.0278	-17.891	16.968	0	0	0	0	0	0	0	0	0	2
10932	109.32	0	0	0	0	0	0	0	0	0	0	0	0	0	0	0	0	0	0	0	0	0	1	0	0	17.755	2.1475	16.785	0	0	0	1	0	0	17.761	2.1499	16.789	0	0	0	0	0	0	0	0	0	0	0	0	0	0	0	10.994	-10.994	19.042	0	0	0	1	0	0	17.47	2.0148	16.554	2
10933	109.33	0	0	0	0	0	0	0	0	0	0	0	0	0	0	0	0	0	0	0	0	0	1	0	0	17.755	2.1475	16.785	0	0	0	1	0	0	17.761	2.1499	16.789	0	0	0	0	0	0	0	0	0	0	0	0	0	-1	0	-2.0278	-17.891	16.968	0	0	0	1	0	0	17.47	2.0148	16.554	0
10934	109.34	0	0	0	0	0	0	0	0	0	0	0	0	0	0	0	0	0	0	0	0	0	0	0	0	10.989	-10.989	19.033	0	0	0	1	0	0	17.883	2.027	16.961	0	0	0	0	0	0	0	0	0	0	0	0	0	0	0	0	0	0	0	0	0	0	0	0	0	0	0	2
10935	109.35	0	0	0	0	0	0	0	0	0	0	0	0	0	0	0	0	0	0	0	0	0	1	0	0	17.755	2.1475	16.785	0	0	0	1	0	0	17.761	2.1499	16.789	0	0	0	0	0	0	0	0	0	0	0	0	0	-1	0	-2.0278	-17.891	16.968	0	0	0	1	0	0	17.47	2.0148	16.554	2
10936	109.36	0	0	0	0	0	0	10.917	-10.917	18.908	0	0	0	0	0	0	0	0	0	0	0	0	1	0	0	17.755	2.1475	16.785	0	0	0	1	0	0	17.761	2.1499	16.789	0	0	0	0	0	0	0	0	0	0	0	0	0	0	0	0	0	0	0	0	0	0	0	0	0	0	0	2
10937	109.37	0	0	0	0	0	0	0	0	0	0	0	0	0	0	0	0	0	0	0	0	0	1	0	0	17.755	2.1475	16.785	0	0	0	1	0	0	17.761	2.1499	16.789	0	0	0	0	0	0	0	0	0	0	0	0	1	-1	0	7.5503	-27.469	31.921	0	0	0	0	0	0	0	0	0	3
10938	109.38	0	0	0	0	0	0	0	0	0	0	0	0	0	0	0	0	0	0	0	0	0	1	0	0	17.755	2.1475	16.785	0	0	0	1	0	0	17.761	2.1499	16.789	0	0	0	0	0	0	0	0	0	0	0	0	0	0	0	0	0	0	0	0	0	1	0	0	17.47	2.0148	16.554	3
10939	109.39	0	0	0	0	0	0	0	0	0	0	0	0	0	0	0	0	0	0	0	0	0	1	0	0	17.755	2.1475	16.785	0	0	0	1	0	0	17.761	2.1499	16.789	0	0	0	0	0	0	0	0	0	0	0	0	1	-1	0	7.5503	-27.469	31.921	0	0	0	0	0	0	0	0	0	3
10940	109.4	0	0	0	0	0	0	10.917	-10.917	18.908	0	0	0	0	0	0	0	0	0	0	0	0	1	0	0	17.755	2.1475	16.785	0	0	0	1	0	0	17.761	2.1499	16.789	0	0	0	0	0	0	0	0	0	0	0	0	0	0	0	0	0	0	0	0	0	1	0	0	17.47	2.0148	16.554	2
10941	109.41	0	0	0	0	0	0	0	0	0	0	0	0	0	0	0	0	0	0	0	0	0	1	0	0	17.755	2.1475	16.785	0	0	0	1	0	0	17.761	2.1499	16.789	0	0	0	0	0	0	0	0	0	0	0	0	0	-1	0	-2.0278	-17.891	16.968	0	0	0	0	0	0	0	0	0	2
10942	109.42	0	0	0	0	0	0	0	0	0	0	0	0	0	0	0	0	0	0	0	0	0	1	0	0	17.755	2.1475	16.785	0	0	0	1	0	0	17.761	2.1499	16.789	0	0	0	0	0	0	0	0	0	0	0	0	0	0	0	10.994	-10.994	19.042	0	0	0	0	0	0	0	0	0	2
10943	109.43	0	0	0	0	0	0	0	0	0	0	0	0	0	0	0	0	0	0	0	0	0	1	0	0	17.755	2.1475	16.785	0	0	0	0	0	0	20.082	19.733	19.91	0	0	0	0	0	0	0	0	0	0	0	0	0	-1	0	-2.0278	-17.891	16.968	0	0	0	1	0	0	17.47	2.0148	16.554	-2
10944	109.44	0	0	0	0	0	0	0	0	0	0	0	0	0	0	0	0	0	0	0	0	0	0	0	0	10.989	-10.989	19.033	0	0	0	1	0	0	17.761	2.1499	16.789	0	0	0	0	0	0	0	0	0	0	0	0	0	0	0	10.994	-10.994	19.042	0	0	0	0	0	0	0	0	0	2
10945	109.45	0	0	0	0	0	0	10.917	-10.917	18.908	0	0	0	0	0	0	0	0	0	0	0	0	1	0	0	17.755	2.1475	16.785	0	0	0	1	0	0	17.761	2.1499	16.789	0	0	0	0	0	0	0	0	0	0	0	0	0	0	0	10.994	-10.994	19.042	0	0	0	0	0	0	0	0	0	-2
10946	109.46	0	0	0	0	0	0	0	0	0	0	0	0	0	0	0	0	0	0	0	0	0	0	0	0	20.079	19.73	19.907	0	0	0	1	0	0	17.761	2.1499	16.789	0	0	0	0	0	0	0	0	0	0	0	0	1	-1	0	7.5503	-27.469	31.921	0	0	0	1	0	0	17.47	2.0148	16.554	8
10947	109.47	0	0	0	0	0	0	0	0	0	0	0	0	0	0	0	0	0	0	0	0	0	0	0	0	10.989	-10.989	19.033	0	0	0	1	0	0	17.761	2.1499	16.789	0	0	0	0	0	0	0	0	0	0	0	0	0	0	0	10.994	-10.994	19.042	0	0	0	0	0	0	0	0	0	-2
10948	109.48	0	0	0	0	0	0	0	0	0	0	0	0	0	0	0	0	0	0	0	0	0	1	0	0	17.755	2.1475	16.785	0	0	0	1	0	0	17.761	2.1499	16.789	0	0	0	0	0	0	0	0	0	0	0	0	0	-1	0	-2.0278	-17.891	16.968	0	0	0	1	0	0	17.47	2.0148	16.554	2
10949	109.49	0	0	0	0	0	0	0	0	0	0	0	0	0	0	0	0	0	0	0	0	0	1	0	0	17.755	2.1475	16.785	0	0	0	1	0	0	17.761	2.1499	16.789	0	0	0	0	0	0	0	0	0	0	0	0	0	-1	0	-2.0278	-17.891	16.968	0	0	0	0	0	0	0	0	0	2
10950	109.5	0	0	0	0	0	0	10.917	-10.917	18.908	0	0	0	0	0	0	0	0	0	0	0	0	0	0	0	20.079	19.73	19.907	0	0	0	1	0	0	17.761	2.1499	16.789	0	0	0	0	0	0	0	0	0	0	0	0	0	0	0	10.994	-10.994	19.042	0	0	0	0	0	0	0	0	0	2
10951	109.51	0	0	0	0	0	0	10.917	-10.917	18.908	0	0	0	0	0	0	0	0	0	0	0	0	1	0	0	17.755	2.1475	16.785	0	0	0	1	0	0	17.761	2.1499	16.789	0	0	0	0	0	0	0	0	0	0	0	0	0	0	0	0	0	0	0	0	0	0	0	0	0	0	0	2
10952	109.52	0	0	0	0	0	0	0	0	0	0	0	0	0	0	0	0	0	0	0	0	0	1	0	0	17.755	2.1475	16.785	0	0	0	1	0	0	17.761	2.1499	16.789	0	0	0	0	0	0	0	0	0	0	0	0	1	-1	0	7.5503	-27.469	31.921	0	0	0	0	0	0	0	0	0	2
10953	109.53	0	0	0	0	0	0	10.917	-10.917	18.908	0	0	0	0	0	0	0	0	0	0	0	0	0	0	0	20.079	19.73	19.907	0	0	0	1	0	0	17.761	2.1499	16.789	0	0	0	0	0	0	0	0	0	0	0	0	1	-1	0	7.5503	-27.469	31.921	0	0	0	1	0	0	17.47	2.0148	16.554	2
10954	109.54	0	0	0	0	0	0	0	0	0	0	0	0	0	0	0	0	0	0	0	0	0	1	0	0	17.755	2.1475	16.785	0	0	0	1	0	0	17.761	2.1499	16.789	0	0	0	0	0	0	0	0	0	0	0	0	0	0	0	0	0	0	0	0	0	0	0	0	0	0	0	2
10955	109.55	0	0	0	0	0	0	0	0	0	0	0	0	0	0	0	0	0	0	0	0	0	1	0	0	17.755	2.1475	16.785	0	0	0	1	0	0	17.761	2.1499	16.789	0	0	0	0	0	0	0	0	0	0	0	0	0	-1	0	-2.0278	-17.891	16.968	0	0	0	1	0	0	17.47	2.0148	16.554	2
10956	109.56	0	0	0	0	0	0	0	0	0	0	0	0	0	0	0	0	0	0	0	0	0	1	0	0	17.755	2.1475	16.785	0	0	0	1	0	0	17.761	2.1499	16.789	0	0	0	1	0	0	17.883	2.027	16.961	0	0	0	0	0	0	0	0	0	0	0	0	1	0	0	17.47	2.0148	16.554	2
10957	109.57	0	0	0	0	0	0	0	0	0	0	0	0	0	0	0	0	0	0	0	0	0	1	0	0	17.755	2.1475	16.785	0	0	0	1	0	0	17.761	2.1499	16.789	0	0	0	0	0	0	0	0	0	0	0	0	0	-1	0	-2.0278	-17.891	16.968	0	0	0	0	0	0	0	0	0	0
10958	109.58	0	0	0	0	0	0	10.917	-10.917	18.908	0	0	0	0	0	0	0	0	0	0	0	0	1	0	0	17.755	2.1475	16.785	0	0	0	1	0	0	17.761	2.1499	16.789	0	0	0	1	0	0	17.883	2.027	16.961	0	0	0	1	-1	0	7.5503	-27.469	31.921	0	0	0	1	0	0	17.47	2.0148	16.554	2
10959	109.59	0	0	0	0	0	0	0	0	0	0	0	0	0	0	0	0	0	0	0	0	0	1	0	0	17.755	2.1475	16.785	0	0	0	1	0	0	17.883	2.027	16.961	0	0	0	0	0	0	0	0	0	0	0	0	0	0	0	0	0	0	0	0	0	0	0	0	0	0	0	2
10960	109.6	0	0	0	0	0	0	0	0	0	0	0	0	0	0	0	0	0	0	0	0	0	1	0	0	17.755	2.1475	16.785	0	0	0	1	0	0	17.761	2.1499	16.789	0	0	0	0	0	0	0	0	0	0	0	0	0	-1	0	-2.0278	-17.891	16.968	0	0	0	1	0	0	17.47	2.0148	16.554	0
10961	109.61	0	0	0	0	0	0	0	0	0	0	0	0	0	0	0	0	0	0	0	0	0	1	0	0	17.755	2.1475	16.785	0	0	0	1	0	0	17.761	2.1499	16.789	0	0	0	0	0	0	0	0	0	0	0	0	0	-1	0	-2.0278	-17.891	16.968	0	0	0	0	0	0	0	0	0	2
10962	109.62	0	0	0	0	0	0	0	0	0	0	0	0	0	0	0	0	0	0	0	0	0	1	0	0	17.755	2.1475	16.785	0	0	0	1	0	0	17.761	2.1499	16.789	0	0	0	0	0	0	0	0	0	0	0	0	0	0	0	0	0	0	0	0	0	0	0	0	0	0	0	3
10963	109.63	0	0	0	0	0	0	0	0	0	0	0	0	0	0	0	0	0	0	0	0	0	0	0	0	20.079	19.73	19.907	0	0	0	1	0	0	17.761	2.1499	16.789	0	0	0	0	0	0	0	0	0	0	0	0	1	-1	0	7.5503	-27.469	31.921	0	0	0	1	0	0	17.47	2.0148	16.554	3
10964	109.64	0	0	0	0	0	0	10.917	-10.917	18.908	0	0	0	0	0	0	0	0	0	0	0	0	1	0	0	17.755	2.1475	16.785	0	0	0	1	0	0	17.761	2.1499	16.789	0	0	0	0	0	0	0	0	0	0	0	0	0	-1	0	-2.0278	-17.891	16.968	0	0	0	0	0	0	0	0	0	2
10965	109.65	0	0	0	0	0	0	0	0	0	0	0	0	0	0	0	0	0	0	0	0	0	1	0	0	17.755	2.1475	16.785	0	0	0	1	0	0	17.761	2.1499	16.789	0	0	0	0	0	0	0	0	0	0	0	0	0	0	0	10.994	-10.994	19.042	0	0	0	0	0	0	0	0	0	0
10966	109.66	0	0	0	0	0	0	10.917	-10.917	18.908	0	0	0	0	0	0	0	0	0	0	0	0	1	0	0	17.755	2.1475	16.785	0	0	0	1	0	0	17.761	2.1499	16.789	0	0	0	0	0	0	0	0	0	0	0	0	0	0	0	0	0	0	0	0	0	0	0	0	0	0	0	2
10967	109.67	0	0	0	0	0	0	10.917	-10.917	18.908	0	0	0	0	0	0	0	0	0	0	0	0	1	0	0	17.755	2.1475	16.785	0	0	0	1	0	0	17.761	2.1499	16.789	0	0	0	0	0	0	0	0	0	0	0	0	0	0	0	0	0	0	0	0	0	1	0	0	17.47	2.0148	16.554	3
10968	109.68	0	0	0	0	0	0	0	0	0	0	0	0	0	0	0	0	0	0	0	0	0	0	0	0	20.079	19.73	19.907	0	0	0	1	0	0	17.761	2.1499	16.789	0	0	0	0	0	0	0	0	0	0	0	0	0	0	0	10.994	-10.994	19.042	0	0	0	0	0	0	0	0	0	2
10969	109.69	0	0	0	0	0	0	10.917	-10.917	18.908	0	0	0	0	0	0	0	0	0	0	0	0	1	0	0	17.755	2.1475	16.785	0	0	0	1	0	0	17.761	2.1499	16.789	0	0	0	0	0	0	0	0	0	0	0	0	0	0	0	0	0	0	0	0	0	0	0	0	0	0	0	2
10970	109.7	0	0	0	0	0	0	10.917	-10.917	18.908	0	0	0	0	0	0	0	0	0	0	0	0	1	0	0	17.755	2.1475	16.785	0	0	0	1	0	0	17.761	2.1499	16.789	0	0	0	0	0	0	0	0	0	0	0	0	0	0	0	0	0	0	0	0	0	1	0	0	17.47	2.0148	16.554	2
10971	109.71	0	0	0	0	0	0	0	0	0	0	0	0	0	0	0	0	0	0	0	0	0	1	0	0	17.755	2.1475	16.785	0	0	0	1	0	0	17.761	2.1499	16.789	0	0	0	0	0	0	0	0	0	0	0	0	0	-1	0	-2.0278	-17.891	16.968	0	0	0	0	0	0	0	0	0	3
10972	109.72	0	0	0	0	0	0	0	0	0	0	0	0	0	0	0	0	0	0	0	0	0	1	0	0	17.755	2.1475	16.785	0	0	0	1	0	0	17.761	2.1499	16.789	0	0	0	0	0	0	0	0	0	0	0	0	0	0	0	10.994	-10.994	19.042	0	0	0	1	0	0	17.47	2.0148	16.554	2
10973	109.73	0	0	0	0	0	0	0	0	0	0	0	0	0	0	0	0	0	0	0	0	0	1	0	0	17.755	2.1475	16.785	0	0	0	1	0	0	17.761	2.1499	16.789	0	0	0	0	0	0	0	0	0	0	0	0	0	0	0	0	0	0	0	0	0	0	0	0	0	0	0	2
10974	109.74	0	0	0	0	0	0	0	0	0	0	0	0	0	0	0	0	0	0	0	0	0	0	0	0	10.989	-10.989	19.033	0	0	0	1	0	0	17.761	2.1499	16.789	0	0	0	0	0	0	0	0	0	0	0	0	0	0	0	10.994	-10.994	19.042	0	0	0	0	0	0	0	0	0	2
10975	109.75	0	0	0	0	0	0	10.917	-10.917	18.908	0	0	0	0	0	0	0	0	0	0	0	0	1	0	0	17.755	2.1475	16.785	0	0	0	1	0	0	17.761	2.1499	16.789	0	0	0	0	0	0	0	0	0	0	0	0	1	-1	0	7.5503	-27.469	31.921	0	0	0	1	0	0	17.47	2.0148	16.554	2
10976	109.76	0	0	0	0	0	0	0	0	0	0	0	0	0	0	0	0	0	0	0	0	0	1	0	0	17.755	2.1475	16.785	0	0	0	1	0	0	17.761	2.1499	16.789	0	0	0	0	0	0	0	0	0	0	0	0	0	0	0	0	0	0	0	0	0	0	0	0	0	0	0	2
10977	109.77	0	0	0	0	0	0	0	0	0	0	0	0	0	0	0	0	0	0	0	0	0	1	0	0	17.755	2.1475	16.785	0	0	0	1	0	0	17.761	2.1499	16.789	0	0	0	0	0	0	0	0	0	0	0	0	0	0	0	0	0	0	0	0	0	1	0	0	17.47	2.0148	16.554	0
10978	109.78	0	0	0	0	0	0	10.917	-10.917	18.908	0	0	0	0	0	0	0	0	0	0	0	0	0	0	0	20.079	19.73	19.907	0	0	0	1	0	0	17.761	2.1499	16.789	0	0	0	0	0	0	0	0	0	0	0	0	0	0	0	0	0	0	0	0	0	0	0	0	0	0	0	0
10979	109.79	0	0	0	0	0	0	0	0	0	0	0	0	0	0	0	0	0	0	0	0	0	1	0	0	17.755	2.1475	16.785	0	0	0	1	0	0	17.761	2.1499	16.789	0	0	0	0	0	0	0	0	0	0	0	0	0	-1	0	-2.0278	-17.891	16.968	0	0	0	0	0	0	0	0	0	2
10980	109.8	0	0	0	0	0	0	0	0	0	0	0	0	0	0	0	0	0	0	0	0	0	1	0	0	17.755	2.1475	16.785	0	0	0	1	0	0	17.761	2.1499	16.789	0	0	0	1	0	0	17.883	2.027	16.961	0	0	0	0	0	0	10.994	-10.994	19.042	0	0	0	1	0	0	17.47	2.0148	16.554	2
10981	109.81	0	0	0	0	0	0	0	0	0	0	0	0	0	0	0	0	0	0	0	0	0	1	0	0	17.755	2.1475	16.785	0	0	0	1	0	0	17.761	2.1499	16.789	0	0	0	0	0	0	0	0	0	0	0	0	0	0	0	10.994	-10.994	19.042	0	0	0	0	0	0	0	0	0	2
10982	109.82	0	0	0	0	0	0	10.917	-10.917	18.908	0	0	0	0	0	0	0	0	0	0	0	0	1	0	0	17.755	2.1475	16.785	0	0	0	1	0	0	17.761	2.1499	16.789	0	0	0	0	0	0	0	0	0	0	0	0	0	0	0	0	0	0	0	0	0	0	0	0	0	0	0	2
10983	109.83	0	0	0	0	0	0	10.917	-10.917	18.908	0	0	0	0	0	0	0	0	0	0	0	0	1	0	0	17.755	2.1475	16.785	0	0	0	1	0	0	17.761	2.1499	16.789	0	0	0	0	0	0	0	0	0	0	0	0	0	-1	0	-2.0278	-17.891	16.968	0	0	0	1	0	0	17.482	2.0162	16.566	2
10984	109.84	0	0	0	0	0	0	0	0	0	0	0	0	0	0	0	0	0	0	0	0	0	1	0	0	17.755	2.1475	16.785	0	0	0	1	0	0	17.883	2.027	16.961	0	0	0	0	0	0	0	0	0	0	0	0	0	0	0	0	0	0	0	0	0	0	0	0	0	0	0	2
10985	109.85	0	0	0	0	0	0	10.917	-10.917	18.908	0	0	0	0	0	0	0	0	0	0	0	0	0	0	0	20.079	19.73	19.907	0	0	0	1	0	0	17.761	2.1499	16.789	0	0	0	0	0	0	0	0	0	0	0	0	0	-1	0	-2.0278	-17.891	16.968	0	0	0	1	0	0	17.47	2.0148	16.554	2
10986	109.86	0	0	0	0	0	0	0	0	0	0	0	0	0	0	0	0	0	0	0	0	0	1	0	0	17.755	2.1475	16.785	0	0	0	1	0	0	17.883	2.027	16.961	0	0	0	0	0	0	0	0	0	0	0	0	0	-1	0	-2.0278	-17.891	16.968	0	0	0	0	0	0	0	0	0	2
10987	109.87	0	0	0	0	0	0	0	0	0	0	0	0	0	0	0	0	0	0	0	0	0	1	0	0	17.755	2.1475	16.785	0	0	0	1	0	0	17.761	2.1499	16.789	0	0	0	0	0	0	0	0	0	0	0	0	0	0	0	0	0	0	0	0	0	0	0	0	0	0	0	2
10988	109.88	0	0	0	0	0	0	10.917	-10.917	18.908	0	0	0	0	0	0	0	0	0	0	0	0	1	0	0	17.755	2.1475	16.785	0	0	0	1	0	0	17.761	2.1499	16.789	0	0	0	0	0	0	0	0	0	0	0	0	0	0	0	10.994	-10.994	19.042	0	0	0	1	0	0	17.47	2.0148	16.554	2
10989	109.89	0	0	0	0	0	0	10.917	-10.917	18.908	0	0	0	0	0	0	0	0	0	0	0	0	1	0	0	17.755	2.1475	16.785	0	0	0	1	0	0	17.761	2.1499	16.789	0	0	0	0	0	0	0	0	0	0	0	0	0	0	0	0	0	0	0	0	0	0	0	0	0	0	0	2
10990	109.9	0	0	0	0	0	0	10.917	-10.917	18.908	0	0	0	0	0	0	0	0	0	0	0	0	1	0	0	17.755	2.1475	16.785	0	0	0	1	0	0	17.761	2.1499	16.789	0	0	0	0	0	0	0	0	0	0	0	0	1	-1	0	7.5503	-27.469	31.921	0	0	0	1	0	0	17.47	2.0148	16.554	2
10991	109.91	0	0	0	0	0	0	0	0	0	0	0	0	0	0	0	0	0	0	0	0	0	1	0	0	17.755	2.1475	16.785	0	0	0	1	0	0	17.761	2.1499	16.789	0	0	0	0	0	0	0	0	0	0	0	0	0	0	0	0	0	0	0	0	0	0	0	0	0	0	0	2
10992	109.92	0	0	0	0	0	0	0	0	0	0	0	0	0	0	0	0	0	0	0	0	0	1	0	0	17.757	2.1494	16.786	0	0	0	1	0	0	17.761	2.1499	16.789	0	0	0	0	0	0	0	0	0	0	0	0	0	-1	0	-2.0278	-17.891	16.968	0	0	0	1	0	0	17.47	2.0148	16.554	2
10993	109.93	0	0	0	0	0	0	0	0	0	0	0	0	0	0	0	0	0	0	0	0	0	1	0	0	17.755	2.1475	16.785	0	0	0	1	0	0	17.761	2.1499	16.789	0	0	0	0	0	0	0	0	0	0	0	0	0	0	0	10.994	-10.994	19.042	0	0	0	1	0	0	17.47	2.0148	16.554	2
10994	109.94	0	0	0	0	0	0	10.917	-10.917	18.908	0	0	0	0	0	0	0	0	0	0	0	0	1	0	0	17.755	2.1475	16.785	0	0	0	1	0	0	17.883	2.027	16.961	0	0	0	0	0	0	0	0	0	0	0	0	0	0	0	0	0	0	0	0	0	1	0	0	17.47	2.0148	16.554	2
10995	109.95	0	0	0	0	0	0	0	0	0	0	0	0	0	0	0	0	0	0	0	0	0	0	0	0	20.079	19.73	19.907	0	0	0	1	0	0	17.761	2.1499	16.789	0	0	0	0	0	0	0	0	0	0	0	0	0	0	0	0	0	0	0	0	0	1	0	0	17.47	2.0148	16.554	0
10996	109.96	0	0	0	0	0	0	0	0	0	0	0	0	0	0	0	0	0	0	0	0	0	1	0	0	17.755	2.1475	16.785	0	0	0	1	0	0	17.761	2.1499	16.789	0	0	0	0	0	0	0	0	0	0	0	0	0	0	0	0	0	0	0	0	0	1	0	0	17.47	2.0148	16.554	2
10997	109.97	0	0	0	0	0	0	0	0	0	0	0	0	0	0	0	0	0	0	0	0	0	1	0	0	17.755	2.1475	16.785	0	0	0	1	0	0	17.761	2.1499	16.789	0	0	0	0	0	0	0	0	0	0	0	0	1	-1	0	7.5503	-27.469	31.921	0	0	0	0	0	0	0	0	0	2
10998	109.98	0	0	0	0	0	0	0	0	0	0	0	0	0	0	0	0	0	0	0	0	0	1	0	0	17.755	2.1475	16.785	0	0	0	1	0	0	17.761	2.1499	16.789	0	0	0	0	0	0	0	0	0	0	0	0	1	-1	0	7.5503	-27.469	31.921	0	0	0	1	0	0	17.47	2.0148	16.554	0
10999	109.99	0	0	0	0	0	0	0	0	0	0	0	0	0	0	0	0	0	0	0	0	0	1	0	0	17.755	2.1475	16.785	0	0	0	1	0	0	17.761	2.1499	16.789	0	0	0	0	0	0	0	0	0	0	0	0	0	0	0	10.994	-10.994	19.042	0	0	0	0	0	0	0	0	0	0
11000	110	0	0	0	0	0	0	0	0	0	0	0	0	0	0	0	0	0	0	0	0	0	0	0	0	20.079	19.73	19.907	0	0	0	1	0	0	17.883	2.027	16.961	0	0	0	0	0	0	0	0	0	0	0	0	0	0	0	0	0	0	0	0	0	0	0	0	0	0	0	0
11001	110.01	0	0	0	0	0	0	0	0	0	0	0	0	0	0	0	0	0	0	0	0	0	1	0	0	17.755	2.1475	16.785	0	0	0	1	0	0	17.761	2.1499	16.789	0	0	0	0	0	0	0	0	0	0	0	0	0	-1	0	-2.0278	-17.891	16.968	0	0	0	1	0	0	17.47	2.0148	16.554	0
11002	110.02	0	0	0	0	0	0	10.917	-10.917	18.908	0	0	0	0	0	0	0	0	0	0	0	0	1	0	0	17.755	2.1475	16.785	0	0	0	1	0	0	17.761	2.1499	16.789	0	0	0	0	0	0	0	0	0	0	0	0	0	0	0	0	0	0	0	0	0	1	0	0	17.47	2.0148	16.554	2
11003	110.03	0	0	0	0	0	0	0	0	0	0	0	0	0	0	0	0	0	0	0	0	0	1	0	0	17.755	2.1475	16.785	0	0	0	1	0	0	17.761	2.1499	16.789	0	0	0	0	0	0	0	0	0	0	0	0	0	0	0	0	0	0	0	0	0	1	0	0	17.47	2.0148	16.554	2
11004	110.04	0	0	0	0	0	0	10.917	-10.917	18.908	0	0	0	0	0	0	0	0	0	0	0	0	1	0	0	17.755	2.1475	16.785	0	0	0	1	0	0	17.761	2.1499	16.789	0	0	0	0	0	0	0	0	0	0	0	0	1	-1	0	7.5503	-27.469	31.921	0	0	0	0	0	0	0	0	0	2
11005	110.05	0	0	0	0	0	0	0	0	0	0	0	0	0	0	0	0	0	0	0	0	0	0	0	0	20.079	19.73	19.907	0	0	0	1	0	0	17.761	2.1499	16.789	0	0	0	0	0	0	0	0	0	0	0	0	0	0	0	0	0	0	0	0	0	1	0	0	17.47	2.0148	16.554	2
11006	110.06	0	0	0	0	0	0	10.917	-10.917	18.908	0	0	0	0	0	0	0	0	0	0	0	0	0	0	0	20.079	19.73	19.907	0	0	0	1	0	0	17.761	2.1499	16.789	0	0	0	0	0	0	0	0	0	0	0	0	0	0	0	0	0	0	0	0	0	0	0	0	0	0	0	2
11007	110.07	0	0	0	0	0	0	0	0	0	0	0	0	0	0	0	0	0	0	0	0	0	0	0	0	20.079	19.73	19.907	0	0	0	1	0	0	17.761	2.1499	16.789	0	0	0	0	0	0	0	0	0	0	0	0	0	0	0	0	0	0	0	0	0	0	0	0	0	0	0	2
11008	110.08	0	0	0	0	0	0	10.917	-10.917	18.908	0	0	0	0	0	0	0	0	0	0	0	0	1	0	0	17.755	2.1475	16.785	0	0	0	1	0	0	17.761	2.1499	16.789	0	0	0	0	0	0	0	0	0	0	0	0	0	0	0	10.994	-10.994	19.042	0	0	0	1	0	0	17.47	2.0148	16.554	0
11009	110.09	0	0	0	0	0	0	0	0	0	0	0	0	0	0	0	0	0	0	0	0	0	1	0	0	17.755	2.1475	16.785	0	0	0	1	0	0	17.761	2.1499	16.789	0	0	0	0	0	0	0	0	0	0	0	0	0	-1	0	-2.0278	-17.891	16.968	0	0	0	0	0	0	0	0	0	2
11010	110.1	0	0	0	0	0	0	10.917	-10.917	18.908	0	0	0	0	0	0	0	0	0	0	0	0	1	0	0	17.755	2.1475	16.785	0	0	0	1	0	0	17.883	2.027	16.961	0	0	0	0	0	0	0	0	0	0	0	0	0	-1	0	-2.0278	-17.891	16.968	0	0	0	1	0	0	17.47	2.0148	16.554	2
11011	110.11	0	0	0	0	0	0	0	0	0	0	0	0	0	0	0	0	0	0	0	0	0	1	0	0	17.755	2.1475	16.785	0	0	0	0	0	0	20.082	19.733	19.91	0	0	0	0	0	0	0	0	0	0	0	0	0	-1	0	-2.0278	-17.891	16.968	0	0	0	1	0	0	17.47	2.0148	16.554	2
11012	110.12	0	0	0	0	0	0	0	0	0	0	0	0	0	0	0	0	0	0	0	0	0	1	0	0	17.755	2.1475	16.785	0	0	0	1	0	0	17.761	2.1499	16.789	0	0	0	0	0	0	0	0	0	0	0	0	0	0	0	10.994	-10.994	19.042	0	0	0	1	0	0	17.47	2.0148	16.554	3
11013	110.13	0	0	0	0	0	0	0	0	0	0	0	0	0	0	0	0	0	0	0	0	0	1	0	0	17.755	2.1475	16.785	0	0	0	1	0	0	17.761	2.1499	16.789	0	0	0	0	0	0	0	0	0	0	0	0	1	-1	0	7.5503	-27.469	31.921	0	0	0	1	0	0	17.47	2.0148	16.554	2
11014	110.14	0	0	0	0	0	0	10.917	-10.917	18.908	0	0	0	0	0	0	0	0	0	0	0	0	0	0	0	20.079	19.73	19.907	0	0	0	1	0	0	17.761	2.1499	16.789	0	0	0	0	0	0	0	0	0	0	0	0	0	0	0	0	0	0	0	0	0	1	0	0	17.47	2.0148	16.554	2
11015	110.15	0	0	0	0	0	0	10.917	-10.917	18.908	0	0	0	0	0	0	0	0	0	0	0	0	1	0	0	17.755	2.1475	16.785	0	0	0	1	0	0	17.761	2.1499	16.789	0	0	0	0	0	0	0	0	0	0	0	0	1	-1	0	7.5503	-27.469	31.921	0	0	0	1	0	0	17.47	2.0148	16.554	2
11016	110.16	0	0	0	0	0	0	10.917	-10.917	18.908	0	0	0	0	0	0	0	0	0	0	0	0	1	0	0	17.755	2.1475	16.785	0	0	0	1	0	0	17.761	2.1499	16.789	0	0	0	0	0	0	0	0	0	0	0	0	0	0	0	0	0	0	0	0	0	1	0	0	17.47	2.0148	16.554	2
11017	110.17	0	0	0	0	0	0	0	0	0	0	0	0	0	0	0	0	0	0	0	0	0	1	0	0	17.755	2.1475	16.785	0	0	0	1	0	0	17.761	2.1499	16.789	0	0	0	0	0	0	0	0	0	0	0	0	0	0	0	10.994	-10.994	19.042	0	0	0	0	0	0	0	0	0	2
11018	110.18	0	0	0	0	0	0	0	0	0	0	0	0	0	0	0	0	0	0	0	0	0	0	0	0	20.079	19.73	19.907	0	0	0	1	0	0	17.761	2.1499	16.789	0	0	0	0	0	0	0	0	0	0	0	0	0	0	0	0	0	0	0	0	0	1	0	0	17.47	2.0148	16.554	2
11019	110.19	0	0	0	0	0	0	10.917	-10.917	18.908	0	0	0	0	0	0	0	0	0	0	0	0	1	0	0	17.755	2.1475	16.785	0	0	0	1	0	0	17.761	2.1499	16.789	0	0	0	0	0	0	0	0	0	0	0	0	0	-1	0	-2.0278	-17.891	16.968	0	0	0	0	0	0	0	0	0	3
11020	110.2	0	0	0	0	0	0	0	0	0	0	0	0	0	0	0	0	0	0	0	0	0	0	0	0	20.079	19.73	19.907	0	0	0	1	0	0	17.761	2.1499	16.789	0	0	0	0	0	0	0	0	0	0	0	0	0	0	0	10.994	-10.994	19.042	0	0	0	1	0	0	17.47	2.0148	16.554	2
11021	110.21	0	0	0	0	0	0	10.917	-10.917	18.908	0	0	0	0	0	0	0	0	0	0	0	0	1	0	0	17.755	2.1475	16.785	0	0	0	1	0	0	17.761	2.1499	16.789	0	0	0	0	0	0	0	0	0	0	0	0	0	0	0	10.994	-10.994	19.042	0	0	0	1	0	0	17.47	2.0148	16.554	2
11022	110.22	0	0	0	0	0	0	0	0	0	0	0	0	0	0	0	0	0	0	0	0	0	1	0	0	17.755	2.1475	16.785	0	0	0	1	0	0	17.761	2.1499	16.789	0	0	0	0	0	0	0	0	0	0	0	0	0	0	0	10.994	-10.994	19.042	0	0	0	1	0	0	17.47	2.0148	16.554	2
11023	110.23	0	0	0	0	0	0	10.917	-10.917	18.908	0	0	0	0	0	0	0	0	0	0	0	0	0	0	0	20.079	19.73	19.907	0	0	0	1	0	0	17.761	2.1499	16.789	0	0	0	0	0	0	0	0	0	0	0	0	0	-1	0	-2.0278	-17.891	16.968	0	0	0	1	0	0	17.47	2.0148	16.554	2
11024	110.24	0	0	0	0	0	0	0	0	0	0	0	0	0	0	0	0	0	0	0	0	0	1	0	0	17.755	2.1475	16.785	0	0	0	1	0	0	17.761	2.1499	16.789	0	0	0	0	0	0	0	0	0	0	0	0	0	0	0	0	0	0	0	0	0	0	0	0	0	0	0	2
11025	110.25	0	0	0	0	0	0	0	0	0	0	0	0	0	0	0	0	0	0	0	0	0	0	0	0	20.079	19.73	19.907	0	0	0	1	0	0	17.761	2.1499	16.789	0	0	0	0	0	0	0	0	0	0	0	0	0	-1	0	-2.0278	-17.891	16.968	0	0	0	1	0	0	17.47	2.0148	16.554	2
11026	110.26	0	0	0	0	0	0	10.917	-10.917	18.908	0	0	0	0	0	0	0	0	0	0	0	0	1	0	0	17.755	2.1475	16.785	0	0	0	1	0	0	17.761	2.1499	16.789	0	0	0	0	0	0	0	0	0	0	0	0	0	0	0	0	0	0	0	0	0	1	0	0	17.47	2.0148	16.554	2
11027	110.27	0	0	0	0	0	0	0	0	0	0	0	0	0	0	0	0	0	0	0	0	0	0	0	0	20.079	19.73	19.907	0	0	0	1	0	0	17.761	2.1499	16.789	0	0	0	0	0	0	0	0	0	0	0	0	0	0	0	0	0	0	0	0	0	1	0	0	17.47	2.0148	16.554	2
11028	110.28	0	0	0	0	0	0	0	0	0	0	0	0	0	0	0	0	0	0	0	0	0	0	0	0	20.079	19.73	19.907	0	0	0	1	0	0	17.761	2.1499	16.789	0	0	0	0	0	0	0	0	0	0	0	0	0	0	0	0	0	0	0	0	0	0	0	0	0	0	0	2
11029	110.29	0	0	0	0	0	0	10.917	-10.917	18.908	0	0	0	0	0	0	0	0	0	0	0	0	0	0	0	20.079	19.73	19.907	0	0	0	1	0	0	17.761	2.1499	16.789	0	0	0	0	0	0	0	0	0	0	0	0	0	0	0	0	0	0	0	0	0	0	0	0	0	0	0	2
11030	110.3	0	0	0	0	0	0	10.917	-10.917	18.908	0	0	0	0	0	0	0	0	0	0	0	0	0	0	0	20.079	19.73	19.907	0	0	0	1	0	0	17.761	2.1499	16.789	0	0	0	0	0	0	0	0	0	0	0	0	1	-1	0	7.5503	-27.469	31.921	0	0	0	0	0	0	0	0	0	2
11031	110.31	0	0	0	0	0	0	10.917	-10.917	18.908	0	0	0	0	0	0	0	0	0	0	0	0	1	0	0	17.755	2.1475	16.785	0	0	0	1	0	0	17.761	2.1499	16.789	0	0	0	0	0	0	0	0	0	0	0	0	0	0	0	0	0	0	0	0	0	1	0	0	17.47	2.0148	16.554	2
11032	110.32	0	0	0	0	0	0	10.917	-10.917	18.908	0	0	0	0	0	0	0	0	0	0	0	0	1	0	0	17.755	2.1475	16.785	0	0	0	1	0	0	17.761	2.1499	16.789	0	0	0	0	0	0	0	0	0	0	0	0	0	-1	0	-2.0278	-17.891	16.968	0	0	0	1	0	0	17.47	2.0148	16.554	2
11033	110.33	0	0	0	0	0	0	0	0	0	0	0	0	0	0	0	0	0	0	0	0	0	0	0	0	20.079	19.73	19.907	0	0	0	1	0	0	17.883	2.027	16.961	0	0	0	0	0	0	0	0	0	0	0	0	1	-1	0	7.5503	-27.469	31.921	0	0	0	0	0	0	0	0	0	2
11034	110.34	0	0	0	0	0	0	10.917	-10.917	18.908	0	0	0	0	0	0	0	0	0	0	0	0	1	0	0	17.755	2.1475	16.785	0	0	0	1	0	0	17.761	2.1499	16.789	0	0	0	0	0	0	0	0	0	0	0	0	0	0	0	0	0	0	0	0	0	0	0	0	0	0	0	2
11035	110.35	0	0	0	0	0	0	0	0	0	0	0	0	0	0	0	0	0	0	0	0	0	0	0	0	20.079	19.73	19.907	0	0	0	1	0	0	17.761	2.1499	16.789	0	0	0	0	0	0	0	0	0	0	0	0	0	-1	0	-2.0278	-17.891	16.968	0	0	0	0	0	0	0	0	0	3
11036	110.36	0	0	0	0	0	0	0	0	0	0	0	0	0	0	0	0	0	0	0	0	0	1	0	0	17.755	2.1475	16.785	0	0	0	1	0	0	17.761	2.1499	16.789	0	0	0	0	0	0	0	0	0	0	0	0	0	0	0	0	0	0	0	0	0	1	0	0	17.47	2.0148	16.554	2
11037	110.37	0	0	0	0	0	0	0	0	0	0	0	0	0	0	0	0	0	0	0	0	0	0	0	0	20.079	19.73	19.907	0	0	0	1	0	0	17.761	2.1499	16.789	0	0	0	0	0	0	0	0	0	0	0	0	1	-1	0	7.5503	-27.469	31.921	0	0	0	0	0	0	0	0	0	0
11038	110.38	0	0	0	0	0	0	0	0	0	0	0	0	0	0	0	0	0	0	0	0	0	0	0	0	20.079	19.73	19.907	0	0	0	1	0	0	17.761	2.1499	16.789	0	0	0	0	0	0	0	0	0	0	0	0	1	-1	0	7.5503	-27.469	31.921	0	0	0	1	0	0	17.47	2.0148	16.554	2
11039	110.39	0	0	0	0	0	0	10.917	-10.917	18.908	0	0	0	0	0	0	0	0	0	0	0	0	1	0	0	17.755	2.1475	16.785	0	0	0	1	0	0	17.761	2.1499	16.789	0	0	0	0	0	0	0	0	0	0	0	0	0	0	0	10.994	-10.994	19.042	0	0	0	0	0	0	0	0	0	2
11040	110.4	0	0	0	0	0	0	0	0	0	0	0	0	0	0	0	0	0	0	0	0	0	0	0	0	20.079	19.73	19.907	0	0	0	1	0	0	17.761	2.1499	16.789	0	0	0	0	0	0	0	0	0	0	0	0	0	0	0	0	0	0	0	0	0	1	0	0	17.47	2.0148	16.554	0
11041	110.41	0	0	0	0	0	0	10.917	-10.917	18.908	0	0	0	0	0	0	0	0	0	0	0	0	0	0	0	20.079	19.73	19.907	0	0	0	1	0	0	17.761	2.1499	16.789	0	0	0	0	0	0	0	0	0	0	0	0	0	0	0	0	0	0	0	0	0	1	0	0	17.47	2.0148	16.554	0
11042	110.42	0	0	0	0	0	0	0	0	0	0	0	0	0	0	0	0	0	0	0	0	0	1	0	0	17.755	2.1475	16.785	0	0	0	1	0	0	17.761	2.1499	16.789	0	0	0	0	0	0	0	0	0	0	0	0	0	-1	0	-2.0278	-17.891	16.968	0	0	0	0	0	0	0	0	0	2
11043	110.43	0	0	0	0	0	0	10.917	-10.917	18.908	0	0	0	0	0	0	0	0	0	0	0	0	1	0	0	17.755	2.1475	16.785	0	0	0	1	0	0	17.761	2.1499	16.789	0	0	0	0	0	0	0	0	0	0	0	0	0	0	0	0	0	0	0	0	0	1	0	0	17.47	2.0148	16.554	2
11044	110.44	0	0	0	0	0	0	0	0	0	0	0	0	0	0	0	0	0	0	0	0	0	1	0	0	17.755	2.1475	16.785	0	0	0	1	0	0	17.883	2.027	16.961	0	0	0	0	0	0	0	0	0	0	0	0	0	0	0	0	0	0	0	0	0	0	0	0	0	0	0	2
11045	110.45	0	0	0	0	0	0	10.917	-10.917	18.908	0	0	0	0	0	0	0	0	0	0	0	0	1	0	0	17.755	2.1475	16.785	0	0	0	1	0	0	17.761	2.1499	16.789	0	0	0	0	0	0	0	0	0	0	0	0	0	-1	0	-2.0278	-17.891	16.968	0	0	0	1	0	0	17.47	2.0148	16.554	2
11046	110.46	0	0	0	0	0	0	0	0	0	0	0	0	0	0	0	0	0	0	0	0	0	0	0	0	20.079	19.73	19.907	0	0	0	1	0	0	17.761	2.1499	16.789	0	0	0	0	0	0	0	0	0	0	0	0	0	0	0	0	0	0	0	0	0	1	0	0	17.47	2.0148	16.554	2
11047	110.47	0	0	0	0	0	0	10.917	-10.917	18.908	0	0	0	0	0	0	0	0	0	0	0	0	1	0	0	17.755	2.1475	16.785	0	0	0	1	0	0	17.761	2.1499	16.789	0	0	0	0	0	0	0	0	0	0	0	0	0	0	0	0	0	0	0	0	0	0	0	0	0	0	0	2
11048	110.48	0	0	0	0	0	0	0	0	0	0	0	0	0	0	0	0	0	0	0	0	0	1	0	0	17.755	2.1475	16.785	0	0	0	1	0	0	17.761	2.1499	16.789	0	0	0	0	0	0	0	0	0	0	0	0	0	-1	0	-2.0278	-17.891	16.968	0	0	0	0	0	0	0	0	0	2
11049	110.49	0	0	0	0	0	0	10.917	-10.917	18.908	0	0	0	0	0	0	0	0	0	0	0	0	1	0	0	17.755	2.1475	16.785	0	0	0	1	0	0	17.761	2.1499	16.789	0	0	0	0	0	0	0	0	0	0	0	0	0	0	0	0	0	0	0	0	0	0	0	0	0	0	0	2
11050	110.5	0	0	0	0	0	0	0	0	0	0	0	0	0	0	0	0	0	0	0	0	0	1	0	0	17.755	2.1475	16.785	0	0	0	1	0	0	17.761	2.1499	16.789	0	0	0	0	0	0	0	0	0	0	0	0	0	-1	0	-2.0278	-17.891	16.968	0	0	0	1	0	0	17.47	2.0148	16.554	2
11051	110.51	0	0	0	0	0	0	0	0	0	0	0	0	0	0	0	0	0	0	0	0	0	1	0	0	17.755	2.1475	16.785	0	0	0	1	0	0	17.883	2.027	16.961	0	0	0	0	0	0	0	0	0	0	0	0	0	-1	0	-2.0278	-17.891	16.968	0	0	0	0	0	0	0	0	0	2
11052	110.52	0	0	0	0	0	0	10.917	-10.917	18.908	0	0	0	0	0	0	0	0	0	0	0	0	1	0	0	17.755	2.1475	16.785	0	0	0	1	0	0	17.761	2.1499	16.789	0	0	0	0	0	0	0	0	0	0	0	0	0	0	0	0	0	0	0	0	0	1	0	0	17.47	2.0148	16.554	3
11053	110.53	0	0	0	0	0	0	10.917	-10.917	18.908	0	0	0	0	0	0	0	0	0	0	0	0	1	0	0	17.755	2.1475	16.785	0	0	0	1	0	0	17.761	2.1499	16.789	0	0	0	0	0	0	0	0	0	0	0	0	0	0	0	10.994	-10.994	19.042	0	0	0	1	0	0	17.47	2.0148	16.554	2
11054	110.54	0	0	0	0	0	0	0	0	0	0	0	0	0	0	0	0	0	0	0	0	0	1	0	0	17.755	2.1475	16.785	0	0	0	1	0	0	17.883	2.027	16.961	0	0	0	0	0	0	0	0	0	0	0	0	0	-1	0	-2.0278	-17.891	16.968	0	0	0	0	0	0	0	0	0	2
11055	110.55	0	0	0	0	0	0	10.917	-10.917	18.908	0	0	0	0	0	0	0	0	0	0	0	0	0	0	0	20.079	19.73	19.907	0	0	0	1	0	0	17.761	2.1499	16.789	0	0	0	0	0	0	0	0	0	0	0	0	0	0	0	10.994	-10.994	19.042	0	0	0	0	0	0	0	0	0	2
11056	110.56	0	0	0	0	0	0	0	0	0	0	0	0	0	0	0	0	0	0	0	0	0	1	0	0	17.755	2.1475	16.785	0	0	0	1	0	0	17.761	2.1499	16.789	0	0	0	0	0	0	0	0	0	0	0	0	0	0	0	10.994	-10.994	19.042	0	0	0	1	0	0	17.47	2.0148	16.554	2
11057	110.57	0	0	0	0	0	0	10.917	-10.917	18.908	0	0	0	0	0	0	0	0	0	0	0	0	1	0	0	17.755	2.1475	16.785	0	0	0	1	0	0	17.761	2.1499	16.789	0	0	0	0	0	0	0	0	0	0	0	0	0	0	0	0	0	0	0	0	0	0	0	0	0	0	0	2
11058	110.58	0	0	0	0	0	0	0	0	0	0	0	0	0	0	0	0	0	0	0	0	0	1	0	0	17.755	2.1475	16.785	0	0	0	1	0	0	17.761	2.1499	16.789	0	0	0	0	0	0	0	0	0	0	0	0	0	0	0	10.994	-10.994	19.042	0	0	0	1	0	0	17.47	2.0148	16.554	2
11059	110.59	0	0	0	0	0	0	10.917	-10.917	18.908	0	0	0	0	0	0	0	0	0	0	0	0	1	0	0	17.755	2.1475	16.785	0	0	0	1	0	0	17.761	2.1499	16.789	0	0	0	0	0	0	0	0	0	0	0	0	0	0	0	0	0	0	0	0	0	0	0	0	0	0	0	2
11060	110.6	0	0	0	0	0	0	10.917	-10.917	18.908	0	0	0	0	0	0	0	0	0	0	0	0	1	0	0	17.755	2.1475	16.785	0	0	0	1	0	0	17.761	2.1499	16.789	0	0	0	1	0	0	17.883	2.027	16.961	0	0	0	0	0	0	0	0	0	0	0	0	1	0	0	17.47	2.0148	16.554	2
11061	110.61	0	0	0	0	0	0	10.917	-10.917	18.908	0	0	0	0	0	0	0	0	0	0	0	0	1	0	0	17.755	2.1475	16.785	0	0	0	1	0	0	17.761	2.1499	16.789	0	0	0	0	0	0	0	0	0	0	0	0	0	0	0	10.994	-10.994	19.042	0	0	0	1	0	0	17.47	2.0148	16.554	2
11062	110.62	0	0	0	0	0	0	10.917	-10.917	18.908	0	0	0	0	0	0	0	0	0	0	0	0	1	0	0	17.755	2.1475	16.785	0	0	0	1	0	0	17.761	2.1499	16.789	0	0	0	0	0	0	0	0	0	0	0	0	0	0	0	0	0	0	0	0	0	1	0	0	17.47	2.0148	16.554	2
11063	110.63	0	0	0	0	0	0	0	0	0	0	0	0	0	0	0	0	0	0	0	0	0	1	0	0	17.755	2.1475	16.785	0	0	0	1	0	0	17.761	2.1499	16.789	0	0	0	0	0	0	0	0	0	0	0	0	0	0	0	10.994	-10.994	19.042	0	0	0	1	0	0	17.47	2.0148	16.554	2
11064	110.64	0	0	0	0	0	0	0	0	0	0	0	0	0	0	0	0	0	0	0	0	0	1	0	0	17.755	2.1475	16.785	0	0	0	1	0	0	17.883	2.027	16.961	0	0	0	0	0	0	0	0	0	0	0	0	0	0	0	0	0	0	0	0	0	0	0	0	0	0	0	2
11065	110.65	0	0	0	0	0	0	10.917	-10.917	18.908	0	0	0	0	0	0	0	0	0	0	0	0	1	0	0	17.755	2.1475	16.785	0	0	0	1	0	0	17.761	2.1499	16.789	0	0	0	0	0	0	0	0	0	0	0	0	0	0	0	0	0	0	0	0	0	1	0	0	17.47	2.0148	16.554	2
11066	110.66	0	0	0	0	0	0	10.917	-10.917	18.908	0	0	0	0	0	0	0	0	0	0	0	0	1	0	0	17.755	2.1475	16.785	0	0	0	1	0	0	17.761	2.1499	16.789	0	0	0	0	0	0	0	0	0	0	0	0	0	0	0	10.994	-10.994	19.042	0	0	0	0	0	0	0	0	0	2
11067	110.67	0	0	0	0	0	0	10.917	-10.917	18.908	0	0	0	0	0	0	0	0	0	0	0	0	0	0	0	20.079	19.73	19.907	0	0	0	1	0	0	17.761	2.1499	16.789	0	0	0	0	0	0	0	0	0	0	0	0	0	0	0	0	0	0	0	0	0	1	0	0	17.47	2.0148	16.554	2
11068	110.68	0	0	0	0	0	0	10.917	-10.917	18.908	0	0	0	0	0	0	0	0	0	0	0	0	0	0	0	20.079	19.73	19.907	0	0	0	1	0	0	17.761	2.1499	16.789	0	0	0	0	0	0	0	0	0	0	0	0	1	-1	0	7.5503	-27.469	31.921	0	0	0	1	0	0	17.47	2.0148	16.554	2
11069	110.69	0	0	0	0	0	0	0	0	0	0	0	0	0	0	0	0	0	0	0	0	0	1	0	0	17.755	2.1475	16.785	0	0	0	1	0	0	17.883	2.027	16.961	0	0	0	0	0	0	0	0	0	0	0	0	0	-1	0	-2.0278	-17.891	16.968	0	0	0	0	0	0	0	0	0	2
11070	110.7	0	0	0	0	0	0	10.917	-10.917	18.908	0	0	0	0	0	0	0	0	0	0	0	0	0	0	0	20.079	19.73	19.907	0	0	0	1	0	0	17.761	2.1499	16.789	0	0	0	0	0	0	0	0	0	0	0	0	0	0	0	0	0	0	0	0	0	1	0	0	17.47	2.0148	16.554	2
11071	110.71	0	0	0	0	0	0	10.917	-10.917	18.908	0	0	0	0	0	0	0	0	0	0	0	0	0	0	0	10.989	-10.989	19.033	0	0	0	1	0	0	17.761	2.1499	16.789	0	0	0	0	0	0	0	0	0	0	0	0	0	0	0	0	0	0	0	0	0	1	0	0	17.47	2.0148	16.554	2
11072	110.72	0	0	0	0	0	0	10.917	-10.917	18.908	0	0	0	0	0	0	0	0	0	0	0	0	1	0	0	17.755	2.1475	16.785	0	0	0	0	0	0	20.082	19.733	19.91	0	0	0	0	0	0	0	0	0	0	0	0	0	0	0	0	0	0	0	0	0	1	0	0	17.47	2.0148	16.554	2
11073	110.73	0	0	0	0	0	0	10.917	-10.917	18.908	0	0	0	0	0	0	0	0	0	0	0	0	0	0	0	20.079	19.73	19.907	0	0	0	1	0	0	17.761	2.1499	16.789	0	0	0	0	0	0	0	0	0	0	0	0	0	0	0	10.994	-10.994	19.042	0	0	0	1	0	0	17.47	2.0148	16.554	2
11074	110.74	0	0	0	0	0	0	10.917	-10.917	18.908	0	0	0	0	0	0	0	0	0	0	0	0	0	0	0	10.989	-10.989	19.033	0	0	0	1	0	0	17.883	2.027	16.961	0	0	0	0	0	0	0	0	0	0	0	0	0	0	0	0	0	0	0	0	0	0	0	0	0	0	0	2
11075	110.75	0	0	0	0	0	0	10.917	-10.917	18.908	0	0	0	0	0	0	0	0	0	0	0	0	1	0	0	17.755	2.1475	16.785	0	0	0	1	0	0	17.761	2.1499	16.789	0	0	0	0	0	0	0	0	0	0	0	0	0	0	0	0	0	0	0	0	0	0	0	0	0	0	0	2
11076	110.76	0	0	0	0	0	0	10.917	-10.917	18.908	0	0	0	0	0	0	0	0	0	0	0	0	0	0	0	20.079	19.73	19.907	0	0	0	1	0	0	17.761	2.1499	16.789	0	0	0	0	0	0	0	0	0	0	0	0	0	0	0	10.994	-10.994	19.042	0	0	0	1	0	0	17.47	2.0148	16.554	3
11077	110.77	0	0	0	0	0	0	0	0	0	0	0	0	0	0	0	0	0	0	0	0	0	1	0	0	17.755	2.1475	16.785	0	0	0	1	0	0	17.761	2.1499	16.789	0	0	0	0	0	0	0	0	0	0	0	0	0	0	0	10.994	-10.994	19.042	0	0	0	0	0	0	0	0	0	2
11078	110.78	0	0	0	0	0	0	0	0	0	0	0	0	0	0	0	0	0	0	0	0	0	1	0	0	17.755	2.1475	16.785	0	0	0	1	0	0	17.761	2.1499	16.789	0	0	0	0	0	0	0	0	0	0	0	0	0	0	0	0	0	0	0	0	0	1	0	0	17.47	2.0148	16.554	2
11079	110.79	0	0	0	0	0	0	0	0	0	0	0	0	0	0	0	0	0	0	0	0	0	1	0	0	17.755	2.1475	16.785	0	0	0	1	0	0	17.761	2.1499	16.789	0	0	0	0	0	0	0	0	0	0	0	0	0	0	0	10.994	-10.994	19.042	0	0	0	0	0	0	0	0	0	2
11080	110.8	0	0	0	0	0	0	10.917	-10.917	18.908	0	0	0	0	0	0	0	0	0	0	0	0	0	0	0	20.079	19.73	19.907	0	0	0	1	0	0	17.761	2.1499	16.789	0	0	0	0	0	0	0	0	0	0	0	0	0	0	0	10.994	-10.994	19.042	0	0	0	0	0	0	0	0	0	2
11081	110.81	0	0	0	0	0	0	0	0	0	0	0	0	0	0	0	0	0	0	0	0	0	0	0	0	20.079	19.73	19.907	0	0	0	1	0	0	17.761	2.1499	16.789	0	0	0	0	0	0	0	0	0	0	0	0	0	0	0	10.994	-10.994	19.042	0	0	0	1	0	0	17.47	2.0148	16.554	2
11082	110.82	0	0	0	0	0	0	0	0	0	0	0	0	0	0	0	0	0	0	0	0	0	1	0	0	17.755	2.1475	16.785	0	0	0	1	0	0	17.761	2.1499	16.789	0	0	0	0	0	0	0	0	0	0	0	0	0	0	0	10.994	-10.994	19.042	0	0	0	1	0	0	17.47	2.0148	16.554	2
11083	110.83	0	0	0	0	0	0	10.917	-10.917	18.908	0	0	0	0	0	0	0	0	0	0	0	0	0	0	0	20.079	19.73	19.907	0	0	0	1	0	0	17.761	2.1499	16.789	0	0	0	0	0	0	0	0	0	0	0	0	0	0	0	10.994	-10.994	19.042	0	0	0	1	0	0	17.471	2.0135	16.556	2
11084	110.84	0	0	0	0	0	0	0	0	0	0	0	0	0	0	0	0	0	0	0	0	0	1	0	0	17.755	2.1475	16.785	0	0	0	1	0	0	17.761	2.1499	16.789	0	0	0	0	0	0	0	0	0	0	0	0	1	-1	0	7.5503	-27.469	31.921	0	0	0	0	0	0	0	0	0	2
11085	110.85	0	0	0	0	0	0	0	0	0	0	0	0	0	0	0	0	0	0	0	0	0	1	0	0	17.755	2.1475	16.785	0	0	0	1	0	0	17.761	2.1499	16.789	0	0	0	0	0	0	0	0	0	0	0	0	0	-1	0	-2.0278	-17.891	16.968	0	0	0	1	0	0	17.47	2.0148	16.554	2
11086	110.86	0	0	0	0	0	0	0	0	0	0	0	0	0	0	0	0	0	0	0	0	0	1	0	0	17.755	2.1475	16.785	0	0	0	1	0	0	17.761	2.1499	16.789	0	0	0	0	0	0	0	0	0	0	0	0	0	0	0	0	0	0	0	0	0	1	0	0	17.47	2.0148	16.554	2
11087	110.87	0	0	0	0	0	0	10.917	-10.917	18.908	0	0	0	0	0	0	0	0	0	0	0	0	0	0	0	10.989	-10.989	19.033	0	0	0	1	0	0	17.761	2.1499	16.789	0	0	0	0	0	0	0	0	0	0	0	0	0	0	0	0	0	0	0	0	0	1	0	0	17.47	2.0148	16.554	2
11088	110.88	0	0	0	0	0	0	0	0	0	0	0	0	0	0	0	0	0	0	0	0	0	1	0	0	17.755	2.1475	16.785	0	0	0	1	0	0	17.761	2.1499	16.789	0	0	0	0	0	0	0	0	0	0	0	0	0	0	0	10.994	-10.994	19.042	0	0	0	1	0	0	17.47	2.0148	16.554	2
11089	110.89	0	0	0	0	0	0	0	0	0	0	0	0	0	0	0	0	0	0	0	0	0	0	0	0	20.079	19.73	19.907	0	0	0	1	0	0	17.761	2.1499	16.789	0	0	0	0	0	0	0	0	0	0	0	0	0	0	0	0	0	0	0	0	0	0	0	0	0	0	0	2
11090	110.9	0	0	0	0	0	0	10.917	-10.917	18.908	0	0	0	0	0	0	0	0	0	0	0	0	1	0	0	17.755	2.1475	16.785	0	0	0	1	0	0	17.761	2.1499	16.789	0	0	0	0	0	0	0	0	0	0	0	0	0	0	0	0	0	0	0	0	0	0	0	0	0	0	0	2
11091	110.91	0	0	0	0	0	0	0	0	0	0	0	0	0	0	0	0	0	0	0	0	0	0	0	0	10.989	-10.989	19.033	0	0	0	1	0	0	17.761	2.1499	16.789	0	0	0	0	0	0	0	0	0	0	0	0	0	0	0	10.994	-10.994	19.042	0	0	0	1	0	0	17.47	2.0148	16.554	2
11092	110.92	0	0	0	0	0	0	10.917	-10.917	18.908	0	0	0	0	0	0	0	0	0	0	0	0	1	0	0	17.755	2.1475	16.785	0	0	0	1	0	0	17.761	2.1499	16.789	0	0	0	0	0	0	0	0	0	0	0	0	1	-1	0	7.5503	-27.469	31.921	0	0	0	1	0	0	17.47	2.0148	16.554	2
11093	110.93	0	0	0	0	0	0	0	0	0	0	0	0	0	0	0	0	0	0	0	0	0	0	0	0	20.079	19.73	19.907	0	0	0	1	0	0	17.761	2.1499	16.789	0	0	0	0	0	0	0	0	0	0	0	0	0	0	0	0	0	0	0	0	0	0	0	0	0	0	0	2
11094	110.94	0	0	0	0	0	0	10.917	-10.917	18.908	0	0	0	0	0	0	0	0	0	0	0	0	1	0	0	17.755	2.1475	16.785	0	0	0	1	0	0	17.761	2.1499	16.789	0	0	0	0	0	0	0	0	0	0	0	0	0	0	0	10.994	-10.994	19.042	0	0	0	0	0	0	0	0	0	2
11095	110.95	0	0	0	0	0	0	10.917	-10.917	18.908	0	0	0	0	0	0	0	0	0	0	0	0	1	0	0	17.755	2.1475	16.785	0	0	0	1	0	0	17.761	2.1499	16.789	0	0	0	1	0	0	17.883	2.027	16.961	0	0	0	0	0	0	0	0	0	0	0	0	0	0	0	0	0	0	2
11096	110.96	0	0	0	0	0	0	10.917	-10.917	18.908	0	0	0	0	0	0	0	0	0	0	0	0	0	0	0	20.079	19.73	19.907	0	0	0	1	0	0	17.761	2.1499	16.789	0	0	0	0	0	0	0	0	0	0	0	0	0	0	0	10.994	-10.994	19.042	0	0	0	0	0	0	0	0	0	2
11097	110.97	0	0	0	0	0	0	0	0	0	0	0	0	0	0	0	0	0	0	0	0	0	1	0	0	17.755	2.1475	16.785	0	0	0	1	0	0	17.761	2.1499	16.789	0	0	0	0	0	0	0	0	0	0	0	0	0	0	0	10.994	-10.994	19.042	0	0	0	0	0	0	0	0	0	2
11098	110.98	0	0	0	0	0	0	10.917	-10.917	18.908	0	0	0	0	0	0	0	0	0	0	0	0	1	0	0	17.755	2.1475	16.785	0	0	0	1	0	0	17.761	2.1499	16.789	0	0	0	0	0	0	0	0	0	0	0	0	0	0	0	0	0	0	0	0	0	1	0	0	17.47	2.0148	16.554	2
11099	110.99	0	0	0	0	0	0	10.917	-10.917	18.908	0	0	0	0	0	0	0	0	0	0	0	0	1	0	0	17.755	2.1475	16.785	0	0	0	1	0	0	17.761	2.1499	16.789	0	0	0	0	0	0	0	0	0	0	0	0	0	-1	0	-2.0278	-17.891	16.968	0	0	0	1	0	0	17.47	2.0148	16.554	2
11100	111	0	0	0	0	0	0	0	0	0	0	0	0	0	0	0	0	0	0	0	0	0	0	0	0	20.079	19.73	19.907	0	0	0	1	0	0	17.761	2.1499	16.789	0	0	0	0	0	0	0	0	0	0	0	0	0	0	0	0	0	0	0	0	0	1	0	0	17.47	2.0148	16.554	2
11101	111.01	0	0	0	0	0	0	0	0	0	0	0	0	0	0	0	0	0	0	0	0	0	0	0	0	10.989	-10.989	19.033	0	0	0	1	0	0	17.761	2.1499	16.789	0	0	0	0	0	0	0	0	0	0	0	0	0	0	0	0	0	0	0	0	0	0	0	0	0	0	0	2
11102	111.02	0	0	0	0	0	0	10.917	-10.917	18.908	0	0	0	0	0	0	0	0	0	0	0	0	1	0	0	17.755	2.1475	16.785	0	0	0	1	0	0	17.761	2.1499	16.789	0	0	0	0	0	0	0	0	0	0	0	0	0	-1	0	-2.0278	-17.891	16.968	0	0	0	0	0	0	0	0	0	2
11103	111.03	0	0	0	0	0	0	0	0	0	0	0	0	0	0	0	0	0	0	0	0	0	1	0	0	17.755	2.1475	16.785	0	0	0	1	0	0	17.761	2.1499	16.789	0	0	0	0	0	0	0	0	0	0	0	0	0	0	0	0	0	0	0	0	0	1	0	0	17.47	2.0148	16.554	2
11104	111.04	0	0	0	0	0	0	10.917	-10.917	18.908	0	0	0	0	0	0	0	0	0	0	0	0	1	0	0	17.755	2.1475	16.785	0	0	0	1	0	0	17.761	2.1499	16.789	0	0	0	0	0	0	0	0	0	0	0	0	0	-1	0	-2.0278	-17.891	16.968	0	0	0	0	0	0	0	0	0	2
11105	111.05	0	0	0	0	0	0	0	0	0	0	0	0	0	0	0	0	0	0	0	0	0	1	0	0	17.755	2.1475	16.785	0	0	0	1	0	0	17.761	2.1499	16.789	0	0	0	0	0	0	0	0	0	0	0	0	0	0	0	0	0	0	0	0	0	1	0	0	17.47	2.0148	16.554	0
11106	111.06	0	0	0	0	0	0	10.917	-10.917	18.908	0	0	0	0	0	0	0	0	0	0	0	0	1	0	0	17.755	2.1475	16.785	0	0	0	1	0	0	17.761	2.1499	16.789	0	0	0	0	0	0	0	0	0	0	0	0	1	-1	0	7.5503	-27.469	31.921	0	0	0	1	0	0	17.47	2.0148	16.554	2
11107	111.07	0	0	0	0	0	0	0	0	0	0	0	0	0	0	0	0	0	0	0	0	0	1	0	0	17.755	2.1475	16.785	0	0	0	1	0	0	17.761	2.1499	16.789	0	0	0	0	0	0	0	0	0	0	0	0	0	-1	0	-2.0278	-17.891	16.968	0	0	0	0	0	0	0	0	0	2
11108	111.08	0	0	0	0	0	0	10.917	-10.917	18.908	0	0	0	0	0	0	0	0	0	0	0	0	1	0	0	17.755	2.1475	16.785	0	0	0	1	0	0	17.761	2.1499	16.789	0	0	0	0	0	0	0	0	0	0	0	0	1	-1	0	7.5503	-27.469	31.921	0	0	0	1	0	0	17.47	2.0148	16.554	2
11109	111.09	0	0	0	0	0	0	10.917	-10.917	18.908	0	0	0	0	0	0	0	0	0	0	0	0	1	0	0	17.755	2.1475	16.785	0	0	0	1	0	0	17.761	2.1499	16.789	0	0	0	0	0	0	0	0	0	0	0	0	0	0	0	0	0	0	0	0	0	0	0	0	0	0	0	2
11110	111.1	0	0	0	0	0	0	10.917	-10.917	18.908	0	0	0	0	0	0	0	0	0	0	0	0	1	0	0	17.755	2.1475	16.785	0	0	0	1	0	0	17.761	2.1499	16.789	0	0	0	0	0	0	0	0	0	0	0	0	0	-1	0	-2.0278	-17.891	16.968	0	0	0	1	0	0	17.47	2.0148	16.554	2
11111	111.11	0	0	0	0	0	0	10.917	-10.917	18.908	0	0	0	0	0	0	0	0	0	0	0	0	1	0	0	17.755	2.1475	16.785	0	0	0	1	0	0	17.761	2.1499	16.789	0	0	0	0	0	0	0	0	0	0	0	0	0	0	0	10.994	-10.994	19.042	0	0	0	1	0	0	17.47	2.0148	16.554	2
11112	111.12	0	0	0	0	0	0	10.917	-10.917	18.908	0	0	0	0	0	0	0	0	0	0	0	0	0	0	0	10.989	-10.989	19.033	0	0	0	1	0	0	17.761	2.1499	16.789	0	0	0	0	0	0	0	0	0	0	0	0	0	-1	0	-2.0278	-17.891	16.968	0	0	0	1	0	0	17.47	2.0148	16.554	2
11113	111.13	0	0	0	0	0	0	0	0	0	0	0	0	0	0	0	0	0	0	0	0	0	1	0	0	17.755	2.1475	16.785	0	0	0	1	0	0	17.761	2.1499	16.789	0	0	0	0	0	0	0	0	0	0	0	0	0	0	0	10.994	-10.994	19.042	0	0	0	1	0	0	17.47	2.0148	16.554	2
11114	111.14	0	0	0	0	0	0	10.917	-10.917	18.908	0	0	0	0	0	0	0	0	0	0	0	0	1	0	0	17.755	2.1475	16.785	0	0	0	1	0	0	17.761	2.1499	16.789	0	0	0	0	0	0	0	0	0	0	0	0	0	-1	0	-2.0278	-17.891	16.968	0	0	0	0	0	0	0	0	0	3
11115	111.15	0	0	0	0	0	0	10.917	-10.917	18.908	0	0	0	0	0	0	0	0	0	0	0	0	1	0	0	17.755	2.1475	16.785	0	0	0	1	0	0	17.761	2.1499	16.789	0	0	0	0	0	0	0	0	0	0	0	0	0	-1	0	-2.0278	-17.891	16.968	0	0	0	1	0	0	17.47	2.0148	16.554	2
11116	111.16	0	0	0	0	0	0	10.917	-10.917	18.908	0	0	0	0	0	0	0	0	0	0	0	0	1	0	0	17.755	2.1475	16.785	0	0	0	1	0	0	17.761	2.1499	16.789	0	0	0	0	0	0	0	0	0	0	0	0	0	0	0	10.994	-10.994	19.042	0	0	0	1	0	0	17.47	2.0148	16.554	2
11117	111.17	0	0	0	0	0	0	0	0	0	0	0	0	0	0	0	0	0	0	0	0	0	1	0	0	17.755	2.1475	16.785	0	0	0	1	0	0	17.761	2.1499	16.789	0	0	0	0	0	0	0	0	0	0	0	0	0	0	0	0	0	0	0	0	0	1	0	0	17.47	2.0148	16.554	2
11118	111.18	0	0	0	0	0	0	0	0	0	0	0	0	0	0	0	0	0	0	0	0	0	1	0	0	17.755	2.1475	16.785	0	0	0	1	0	0	17.761	2.1499	16.789	0	0	0	0	0	0	0	0	0	0	0	0	0	-1	0	-2.0278	-17.891	16.968	0	0	0	1	0	0	17.47	2.0148	16.554	2
11119	111.19	0	0	0	0	0	0	0	0	0	0	0	0	0	0	0	0	0	0	0	0	0	1	0	0	17.755	2.1475	16.785	0	0	0	1	0	0	17.761	2.1499	16.789	0	0	0	0	0	0	0	0	0	0	0	0	0	0	0	0	0	0	0	0	0	0	0	0	0	0	0	2
11120	111.2	0	0	0	0	0	0	0	0	0	0	0	0	0	0	0	0	0	0	0	0	0	0	0	0	20.079	19.73	19.907	0	0	0	1	0	0	17.761	2.1499	16.789	0	0	0	0	0	0	0	0	0	0	0	0	0	0	0	10.994	-10.994	19.042	0	0	0	1	0	0	17.47	2.0148	16.554	2
11121	111.21	0	0	0	0	0	0	0	0	0	0	0	0	0	0	0	0	0	0	0	0	0	1	0	0	17.755	2.1475	16.785	0	0	0	1	0	0	17.761	2.1499	16.789	0	0	0	0	0	0	0	0	0	0	0	0	0	0	0	0	0	0	0	0	0	1	0	0	17.47	2.0148	16.554	2
11122	111.22	0	0	0	0	0	0	10.917	-10.917	18.908	0	0	0	0	0	0	0	0	0	0	0	0	1	0	0	17.755	2.1475	16.785	0	0	0	1	0	0	17.761	2.1499	16.789	0	0	0	0	0	0	0	0	0	0	0	0	0	0	0	10.994	-10.994	19.042	0	0	0	0	0	0	0	0	0	2
11123	111.23	0	0	0	0	0	0	0	0	0	0	0	0	0	0	0	0	0	0	0	0	0	0	0	0	20.079	19.73	19.907	0	0	0	1	0	0	17.761	2.1499	16.789	0	0	0	0	0	0	0	0	0	0	0	0	0	0	0	0	0	0	0	0	0	1	0	0	17.47	2.0148	16.554	2
